NAME : n401-0023
COMMENT : "Generated by pyvrp_manuel (OVRPB)"
TYPE : OVRPB
DIMENSION : 401
EDGE_WEIGHT_TYPE : EUC_2D
CAPACITY : 100
VEHICLES : 400
OPEN_ROUTE : YES
NODE_COORD_SECTION
1	139	242
2	385	955
3	205	176
4	827	880
5	310	592
6	557	660
7	424	13
8	667	15
9	155	106
10	697	718
11	209	948
12	149	865
13	719	390
14	896	868
15	908	94
16	313	146
17	899	612
18	247	434
19	845	967
20	504	47
21	272	851
22	576	834
23	912	329
24	790	442
25	278	155
26	598	609
27	828	991
28	108	420
29	349	756
30	744	953
31	844	840
32	121	169
33	99	253
34	254	849
35	257	929
36	922	812
37	793	855
38	582	168
39	874	864
40	840	151
41	437	824
42	484	465
43	233	750
44	721	391
45	869	206
46	760	479
47	298	577
48	64	908
49	394	243
50	549	788
51	872	831
52	408	613
53	959	769
54	998	587
55	20	648
56	373	589
57	695	782
58	263	129
59	958	626
60	740	636
61	410	40
62	949	974
63	490	369
64	720	32
65	638	927
66	370	472
67	748	455
68	490	659
69	461	498
70	470	781
71	962	545
72	574	144
73	779	783
74	136	793
75	637	193
76	418	55
77	568	751
78	155	462
79	893	883
80	819	220
81	489	259
82	947	522
83	192	431
84	528	669
85	424	585
86	29	349
87	776	705
88	989	899
89	759	257
90	951	843
91	321	268
92	252	183
93	700	240
94	942	612
95	508	657
96	782	417
97	113	12
98	965	968
99	313	940
100	698	65
101	423	48
102	717	678
103	738	480
104	572	200
105	86	324
106	682	408
107	397	227
108	250	238
109	397	967
110	372	434
111	237	196
112	10	181
113	356	384
114	156	461
115	922	114
116	812	115
117	591	505
118	98	244
119	263	119
120	536	102
121	966	528
122	119	300
123	937	479
124	730	843
125	245	929
126	236	83
127	803	120
128	160	119
129	674	475
130	931	280
131	524	759
132	418	465
133	182	796
134	688	414
135	289	833
136	62	710
137	849	332
138	699	634
139	569	285
140	427	426
141	693	5
142	475	658
143	651	228
144	321	797
145	617	997
146	321	777
147	432	579
148	489	26
149	703	638
150	64	483
151	594	902
152	994	411
153	412	388
154	132	745
155	990	930
156	64	38
157	175	410
158	371	30
159	64	104
160	356	508
161	980	28
162	806	296
163	995	82
164	58	426
165	707	91
166	383	108
167	786	262
168	258	69
169	651	959
170	628	696
171	891	466
172	498	927
173	332	42
174	564	713
175	665	872
176	918	501
177	794	78
178	554	794
179	807	31
180	938	517
181	551	530
182	508	200
183	936	657
184	149	117
185	780	894
186	590	938
187	459	304
188	730	496
189	561	539
190	877	734
191	763	556
192	353	152
193	436	57
194	218	378
195	873	3
196	793	194
197	36	162
198	162	984
199	864	975
200	230	21
201	380	895
202	758	103
203	357	514
204	984	156
205	839	794
206	231	127
207	201	831
208	13	839
209	959	31
210	425	838
211	374	714
212	495	274
213	862	577
214	426	670
215	235	404
216	202	213
217	212	466
218	134	443
219	340	396
220	265	192
221	962	691
222	921	472
223	868	508
224	512	36
225	673	775
226	379	57
227	151	846
228	355	754
229	593	929
230	483	614
231	152	164
232	873	175
233	513	24
234	311	435
235	802	809
236	672	379
237	715	628
238	660	572
239	467	969
240	849	465
241	8	621
242	588	736
243	30	596
244	923	566
245	253	263
246	650	720
247	114	945
248	238	607
249	821	134
250	850	503
251	342	182
252	902	789
253	392	621
254	636	98
255	943	66
256	686	716
257	492	244
258	79	830
259	472	283
260	325	554
261	889	51
262	562	57
263	84	196
264	869	402
265	560	693
266	567	690
267	242	635
268	889	13
269	773	383
270	786	383
271	622	117
272	364	268
273	115	632
274	966	128
275	994	557
276	20	358
277	827	76
278	421	969
279	346	795
280	401	432
281	215	874
282	59	171
283	53	566
284	199	955
285	709	817
286	555	904
287	234	333
288	922	703
289	190	486
290	709	583
291	997	293
292	11	781
293	535	95
294	472	50
295	797	954
296	628	992
297	205	411
298	585	477
299	905	891
300	375	43
301	604	815
302	559	320
303	637	32
304	916	567
305	987	926
306	785	319
307	244	533
308	970	430
309	869	449
310	697	226
311	516	931
312	92	255
313	411	34
314	69	510
315	438	827
316	447	850
317	784	890
318	396	561
319	63	788
320	710	603
321	393	954
322	87	762
323	937	675
324	910	194
325	948	868
326	290	927
327	273	77
328	968	656
329	779	622
330	572	667
331	686	167
332	827	533
333	717	65
334	190	276
335	91	890
336	578	134
337	191	385
338	922	294
339	951	774
340	140	50
341	643	842
342	400	61
343	686	334
344	263	543
345	874	50
346	612	476
347	157	919
348	424	978
349	144	530
350	367	605
351	18	649
352	234	780
353	285	496
354	113	179
355	738	946
356	917	89
357	335	843
358	697	779
359	953	363
360	332	540
361	46	392
362	973	459
363	317	305
364	400	498
365	60	881
366	17	255
367	90	209
368	649	190
369	303	149
370	477	947
371	711	805
372	103	329
373	727	452
374	888	148
375	20	113
376	250	851
377	326	255
378	481	777
379	3	385
380	316	179
381	348	453
382	56	892
383	660	518
384	498	581
385	962	597
386	517	488
387	160	8
388	405	48
389	706	220
390	563	711
391	223	393
392	94	402
393	906	698
394	842	226
395	55	272
396	293	797
397	242	822
398	116	641
399	567	838
400	829	115
401	944	623
DEMAND_SECTION
1	0
2	5
3	6
4	6
5	3
6	1
7	5
8	4
9	3
10	8
11	2
12	7
13	9
14	2
15	6
16	2
17	8
18	4
19	3
20	3
21	7
22	4
23	3
24	9
25	9
26	3
27	4
28	8
29	5
30	1
31	1
32	7
33	7
34	4
35	1
36	5
37	1
38	2
39	7
40	4
41	5
42	7
43	4
44	4
45	7
46	3
47	7
48	1
49	1
50	2
51	9
52	6
53	2
54	3
55	4
56	6
57	4
58	9
59	5
60	8
61	3
62	8
63	9
64	5
65	4
66	6
67	4
68	8
69	2
70	7
71	4
72	9
73	9
74	6
75	7
76	5
77	7
78	1
79	2
80	3
81	4
82	3
83	8
84	9
85	7
86	3
87	3
88	6
89	1
90	3
91	2
92	9
93	9
94	4
95	9
96	4
97	3
98	7
99	1
100	5
101	7
102	9
103	6
104	9
105	1
106	7
107	9
108	8
109	1
110	5
111	5
112	1
113	8
114	7
115	7
116	5
117	2
118	5
119	5
120	3
121	2
122	4
123	9
124	5
125	2
126	8
127	3
128	5
129	4
130	3
131	9
132	5
133	5
134	9
135	7
136	8
137	3
138	7
139	4
140	5
141	7
142	9
143	9
144	6
145	2
146	7
147	9
148	9
149	5
150	8
151	8
152	5
153	2
154	3
155	9
156	1
157	9
158	1
159	8
160	4
161	8
162	2
163	1
164	3
165	3
166	4
167	5
168	5
169	5
170	5
171	5
172	7
173	7
174	6
175	9
176	9
177	7
178	2
179	2
180	6
181	4
182	2
183	4
184	8
185	6
186	3
187	1
188	8
189	6
190	7
191	3
192	8
193	8
194	9
195	7
196	4
197	2
198	3
199	7
200	3
201	7
202	1
203	8
204	4
205	1
206	3
207	8
208	5
209	1
210	5
211	3
212	1
213	9
214	6
215	4
216	1
217	5
218	9
219	9
220	5
221	2
222	1
223	3
224	1
225	4
226	2
227	1
228	4
229	4
230	7
231	6
232	6
233	8
234	1
235	5
236	7
237	3
238	7
239	8
240	4
241	7
242	1
243	3
244	2
245	5
246	8
247	4
248	6
249	9
250	4
251	9
252	4
253	3
254	7
255	3
256	6
257	4
258	2
259	7
260	6
261	9
262	8
263	3
264	7
265	3
266	8
267	8
268	1
269	4
270	2
271	9
272	6
273	8
274	2
275	6
276	7
277	6
278	8
279	6
280	4
281	4
282	4
283	2
284	7
285	7
286	3
287	6
288	4
289	4
290	4
291	2
292	8
293	8
294	6
295	1
296	1
297	6
298	8
299	4
300	3
301	9
302	8
303	3
304	1
305	7
306	3
307	9
308	9
309	6
310	5
311	1
312	9
313	5
314	6
315	7
316	7
317	6
318	5
319	3
320	5
321	9
322	6
323	9
324	3
325	3
326	3
327	2
328	4
329	4
330	7
331	1
332	2
333	9
334	6
335	5
336	6
337	6
338	5
339	1
340	9
341	6
342	1
343	5
344	1
345	4
346	3
347	1
348	3
349	7
350	1
351	6
352	9
353	5
354	7
355	2
356	4
357	5
358	3
359	3
360	6
361	4
362	2
363	2
364	1
365	9
366	6
367	4
368	5
369	7
370	9
371	7
372	4
373	2
374	1
375	6
376	2
377	1
378	1
379	1
380	3
381	8
382	2
383	2
384	2
385	4
386	5
387	4
388	4
389	6
390	3
391	2
392	2
393	5
394	2
395	1
396	4
397	9
398	3
399	7
400	1
401	3
BACKHAUL_SECTION
3	17	44	52	53	55	61	63	74	76	79	81	103	118	122	123	126	132	133	137	139	141	160	164	166	170	175	178	180	182	184	185	186	190	208	209	210	212	233	234	236	237	242	248	256	258	259	260	261	267	271	272	287	291	292	298	301	305	307	308	315	327	333	336	340	348	349	357	358	369	376	379	381	384	386	387	393	397	398	400	-1
DEPOT_SECTION
1
-1
EOF
