NAME : n401-0044
COMMENT : "Generated by pyvrp_manuel (OVRPB)"
TYPE : OVRPB
DIMENSION : 401
EDGE_WEIGHT_TYPE : EUC_2D
CAPACITY : 100
VEHICLES : 400
OPEN_ROUTE : YES
NODE_COORD_SECTION
1	418	271
2	871	938
3	780	529
4	180	156
5	46	420
6	534	421
7	667	453
8	732	489
9	322	483
10	583	370
11	683	84
12	971	577
13	960	56
14	90	124
15	248	475
16	267	850
17	443	961
18	307	34
19	131	144
20	249	11
21	269	963
22	457	514
23	30	706
24	134	377
25	426	161
26	331	255
27	603	249
28	350	743
29	856	307
30	391	137
31	422	137
32	90	18
33	220	613
34	143	419
35	551	122
36	231	599
37	469	254
38	470	112
39	345	612
40	889	744
41	120	783
42	769	284
43	828	913
44	468	352
45	600	223
46	574	234
47	160	29
48	663	123
49	272	969
50	859	902
51	7	245
52	866	591
53	402	708
54	113	486
55	131	35
56	595	216
57	55	509
58	706	550
59	237	10
60	783	542
61	292	286
62	808	251
63	278	884
64	862	753
65	807	308
66	638	285
67	337	127
68	22	734
69	302	649
70	113	908
71	827	489
72	589	807
73	573	159
74	651	728
75	758	612
76	710	703
77	321	297
78	240	102
79	231	944
80	62	938
81	324	855
82	658	97
83	403	33
84	604	308
85	925	717
86	567	205
87	459	86
88	761	235
89	899	283
90	373	846
91	143	592
92	786	204
93	408	683
94	751	244
95	808	199
96	438	660
97	542	596
98	394	403
99	584	667
100	730	341
101	64	906
102	249	945
103	829	704
104	360	406
105	514	233
106	223	786
107	357	275
108	307	247
109	285	764
110	490	409
111	163	915
112	488	222
113	390	621
114	99	425
115	519	665
116	460	431
117	938	523
118	267	952
119	609	196
120	653	92
121	767	366
122	612	334
123	820	154
124	288	474
125	87	20
126	361	722
127	71	771
128	466	947
129	429	118
130	835	111
131	201	382
132	56	484
133	683	203
134	568	741
135	830	399
136	974	731
137	433	477
138	106	601
139	217	640
140	811	231
141	379	200
142	323	979
143	31	867
144	198	842
145	312	700
146	741	740
147	689	830
148	506	439
149	446	718
150	544	176
151	325	323
152	26	478
153	329	180
154	790	970
155	544	178
156	871	666
157	198	520
158	628	752
159	179	651
160	848	204
161	583	119
162	330	180
163	707	650
164	850	884
165	416	240
166	927	256
167	305	196
168	538	303
169	348	664
170	123	846
171	16	798
172	256	519
173	565	355
174	552	569
175	113	259
176	795	294
177	302	698
178	245	880
179	260	395
180	125	192
181	125	258
182	136	865
183	64	95
184	878	322
185	821	500
186	853	20
187	634	86
188	575	381
189	50	997
190	176	513
191	447	894
192	265	998
193	185	852
194	759	70
195	145	413
196	511	718
197	449	397
198	830	345
199	181	951
200	348	645
201	942	132
202	807	935
203	192	439
204	853	395
205	554	374
206	946	143
207	543	966
208	43	846
209	927	667
210	82	696
211	847	887
212	19	2
213	281	326
214	873	189
215	988	5
216	71	448
217	844	613
218	100	891
219	757	297
220	614	302
221	541	179
222	566	789
223	469	449
224	437	78
225	872	718
226	399	681
227	995	893
228	55	421
229	502	947
230	373	91
231	197	168
232	404	628
233	747	460
234	509	599
235	774	770
236	985	80
237	130	79
238	797	163
239	115	199
240	195	943
241	370	325
242	810	520
243	362	152
244	577	761
245	360	871
246	206	385
247	527	56
248	584	148
249	163	766
250	423	649
251	704	858
252	138	652
253	828	341
254	694	257
255	626	684
256	11	583
257	983	17
258	888	412
259	537	214
260	644	266
261	559	488
262	405	195
263	301	985
264	920	770
265	715	437
266	962	951
267	80	698
268	134	198
269	505	398
270	723	300
271	228	124
272	886	147
273	224	93
274	339	903
275	949	366
276	728	617
277	44	195
278	262	579
279	401	262
280	897	676
281	578	104
282	629	842
283	282	812
284	268	940
285	321	584
286	147	780
287	806	948
288	713	604
289	79	587
290	373	930
291	65	517
292	289	38
293	151	71
294	436	976
295	678	431
296	169	184
297	328	356
298	371	524
299	504	473
300	150	88
301	193	281
302	959	238
303	840	990
304	748	87
305	9	613
306	107	567
307	633	499
308	353	834
309	873	158
310	627	223
311	462	716
312	419	720
313	147	580
314	405	892
315	426	368
316	724	264
317	480	560
318	920	125
319	487	719
320	908	966
321	675	340
322	760	225
323	513	224
324	86	847
325	698	624
326	596	191
327	921	483
328	764	768
329	414	879
330	879	991
331	272	723
332	898	15
333	470	573
334	409	617
335	431	357
336	165	67
337	517	834
338	505	383
339	413	778
340	909	416
341	518	782
342	566	240
343	181	557
344	904	737
345	616	853
346	874	337
347	810	214
348	293	327
349	891	235
350	19	807
351	798	64
352	211	803
353	488	400
354	437	177
355	331	745
356	627	131
357	362	906
358	806	34
359	789	799
360	380	915
361	10	355
362	202	107
363	102	509
364	320	60
365	521	859
366	844	583
367	218	929
368	668	104
369	351	248
370	772	453
371	315	774
372	430	70
373	760	690
374	885	174
375	107	576
376	548	195
377	508	740
378	390	316
379	291	312
380	163	336
381	649	974
382	413	494
383	415	914
384	814	413
385	471	606
386	970	411
387	498	76
388	796	575
389	231	926
390	751	980
391	908	476
392	474	895
393	194	411
394	343	759
395	291	458
396	827	518
397	514	798
398	324	605
399	166	105
400	413	321
401	9	263
DEMAND_SECTION
1	0
2	2
3	3
4	1
5	9
6	8
7	3
8	4
9	2
10	5
11	7
12	6
13	3
14	6
15	9
16	2
17	9
18	7
19	5
20	4
21	2
22	1
23	8
24	9
25	4
26	4
27	3
28	1
29	2
30	9
31	3
32	5
33	3
34	9
35	5
36	5
37	7
38	4
39	7
40	2
41	3
42	6
43	1
44	3
45	8
46	3
47	4
48	8
49	4
50	1
51	5
52	4
53	8
54	6
55	3
56	1
57	2
58	8
59	9
60	7
61	6
62	6
63	3
64	3
65	9
66	2
67	7
68	9
69	1
70	6
71	3
72	9
73	4
74	5
75	8
76	8
77	7
78	5
79	9
80	4
81	6
82	8
83	3
84	2
85	2
86	7
87	4
88	4
89	9
90	2
91	8
92	5
93	1
94	6
95	6
96	9
97	1
98	5
99	6
100	8
101	2
102	3
103	6
104	8
105	4
106	7
107	3
108	4
109	5
110	1
111	6
112	9
113	4
114	9
115	8
116	1
117	6
118	3
119	2
120	3
121	9
122	6
123	4
124	4
125	2
126	9
127	7
128	4
129	2
130	3
131	2
132	9
133	5
134	5
135	3
136	6
137	6
138	2
139	6
140	2
141	3
142	7
143	4
144	2
145	2
146	6
147	6
148	1
149	8
150	2
151	4
152	6
153	7
154	7
155	5
156	3
157	4
158	2
159	1
160	3
161	5
162	6
163	9
164	1
165	1
166	3
167	3
168	2
169	1
170	9
171	5
172	6
173	7
174	6
175	6
176	9
177	5
178	8
179	6
180	9
181	4
182	8
183	6
184	4
185	9
186	5
187	9
188	7
189	5
190	7
191	6
192	8
193	9
194	1
195	2
196	9
197	1
198	5
199	7
200	6
201	1
202	4
203	8
204	8
205	4
206	3
207	7
208	5
209	9
210	5
211	7
212	9
213	4
214	8
215	3
216	2
217	6
218	3
219	7
220	7
221	8
222	2
223	2
224	1
225	4
226	6
227	1
228	2
229	6
230	5
231	3
232	9
233	8
234	3
235	3
236	8
237	1
238	5
239	8
240	6
241	2
242	5
243	3
244	1
245	4
246	3
247	1
248	1
249	1
250	8
251	5
252	3
253	3
254	4
255	8
256	8
257	9
258	3
259	3
260	3
261	3
262	4
263	7
264	2
265	1
266	5
267	2
268	9
269	7
270	8
271	2
272	8
273	2
274	8
275	9
276	3
277	2
278	4
279	9
280	1
281	9
282	4
283	7
284	3
285	4
286	6
287	3
288	9
289	8
290	2
291	9
292	2
293	8
294	5
295	3
296	4
297	8
298	9
299	6
300	3
301	8
302	8
303	8
304	2
305	6
306	2
307	2
308	9
309	2
310	1
311	6
312	4
313	2
314	6
315	2
316	6
317	1
318	2
319	9
320	6
321	6
322	1
323	8
324	3
325	7
326	7
327	1
328	3
329	6
330	2
331	4
332	9
333	3
334	4
335	5
336	4
337	1
338	6
339	5
340	8
341	7
342	8
343	1
344	5
345	5
346	8
347	5
348	2
349	6
350	2
351	2
352	1
353	6
354	1
355	3
356	9
357	4
358	8
359	5
360	2
361	7
362	4
363	7
364	1
365	2
366	4
367	2
368	7
369	6
370	8
371	9
372	1
373	2
374	4
375	5
376	4
377	3
378	9
379	5
380	8
381	8
382	7
383	9
384	7
385	6
386	4
387	4
388	9
389	7
390	5
391	8
392	6
393	8
394	2
395	7
396	9
397	2
398	4
399	2
400	5
401	1
BACKHAUL_SECTION
3	17	44	52	53	55	61	63	74	76	79	81	103	118	122	123	126	132	133	137	139	141	160	164	166	170	175	178	180	182	184	185	186	190	208	209	210	212	233	234	236	237	242	248	256	258	259	260	261	267	271	272	287	291	292	298	301	305	307	308	315	327	333	336	340	348	349	357	358	369	376	379	381	384	386	387	393	397	398	400	-1
DEPOT_SECTION
1
-1
EOF
