NAME : n401-0035
COMMENT : "Generated by pyvrp_manuel (OVRPB)"
TYPE : OVRPB
DIMENSION : 401
EDGE_WEIGHT_TYPE : EUC_2D
CAPACITY : 100
VEHICLES : 400
OPEN_ROUTE : YES
NODE_COORD_SECTION
1	810	980
2	598	994
3	415	811
4	683	885
5	51	528
6	619	681
7	661	353
8	175	23
9	889	526
10	94	745
11	236	77
12	540	841
13	61	714
14	147	584
15	354	430
16	811	488
17	205	829
18	134	469
19	933	981
20	80	404
21	865	791
22	213	370
23	379	777
24	610	774
25	879	244
26	651	671
27	831	45
28	588	685
29	397	233
30	375	52
31	494	356
32	156	611
33	23	701
34	581	837
35	150	496
36	533	420
37	192	830
38	606	763
39	339	141
40	618	450
41	5	52
42	858	777
43	967	390
44	26	349
45	364	939
46	2	402
47	603	840
48	251	623
49	284	695
50	103	740
51	849	869
52	763	158
53	838	376
54	551	6
55	289	958
56	404	297
57	301	271
58	760	438
59	332	916
60	476	195
61	14	27
62	371	909
63	146	121
64	446	893
65	269	562
66	549	824
67	343	386
68	533	600
69	899	424
70	500	884
71	400	562
72	215	483
73	833	457
74	241	903
75	634	573
76	282	417
77	263	271
78	44	752
79	53	55
80	21	893
81	470	335
82	989	212
83	843	343
84	356	158
85	380	374
86	487	225
87	302	941
88	922	0
89	730	849
90	671	560
91	566	775
92	945	330
93	652	463
94	300	750
95	578	521
96	119	720
97	994	271
98	116	613
99	510	261
100	578	520
101	130	142
102	965	203
103	46	350
104	889	137
105	739	699
106	558	801
107	499	454
108	459	466
109	342	881
110	812	613
111	248	848
112	358	93
113	548	452
114	504	537
115	189	832
116	624	972
117	406	305
118	241	253
119	261	292
120	150	622
121	327	526
122	947	33
123	266	872
124	172	411
125	861	49
126	977	600
127	356	255
128	75	265
129	585	338
130	455	736
131	80	970
132	875	710
133	868	964
134	920	888
135	185	767
136	137	558
137	215	482
138	478	391
139	763	385
140	509	743
141	156	667
142	507	315
143	704	687
144	766	484
145	803	693
146	187	496
147	698	173
148	336	710
149	846	725
150	768	616
151	855	458
152	691	179
153	545	677
154	976	315
155	577	61
156	512	794
157	584	269
158	527	916
159	806	264
160	351	162
161	977	532
162	291	196
163	46	429
164	461	240
165	233	131
166	783	160
167	596	996
168	817	468
169	920	723
170	87	710
171	391	844
172	615	701
173	305	502
174	8	912
175	756	784
176	838	929
177	339	1
178	729	91
179	865	126
180	257	333
181	81	755
182	928	351
183	431	767
184	829	713
185	433	235
186	465	328
187	441	600
188	13	669
189	67	291
190	966	315
191	156	248
192	425	764
193	346	663
194	36	11
195	604	394
196	865	969
197	515	963
198	571	238
199	161	595
200	168	403
201	243	899
202	400	795
203	437	69
204	500	820
205	940	380
206	362	737
207	977	299
208	819	325
209	886	16
210	339	832
211	600	563
212	207	498
213	691	320
214	754	224
215	538	75
216	479	761
217	903	900
218	560	741
219	427	608
220	504	796
221	928	939
222	696	620
223	225	12
224	892	445
225	66	954
226	363	40
227	547	454
228	676	330
229	161	684
230	855	912
231	46	532
232	299	618
233	480	708
234	705	163
235	874	985
236	522	119
237	439	509
238	463	186
239	747	778
240	839	767
241	743	969
242	341	470
243	297	275
244	870	222
245	830	87
246	793	899
247	72	979
248	150	305
249	778	44
250	481	888
251	513	81
252	598	135
253	742	849
254	21	932
255	277	494
256	963	358
257	680	847
258	249	998
259	104	887
260	851	53
261	624	744
262	931	569
263	439	445
264	155	420
265	385	12
266	918	395
267	588	140
268	728	498
269	859	767
270	258	874
271	570	621
272	666	556
273	537	774
274	262	54
275	604	992
276	472	781
277	287	727
278	647	886
279	75	444
280	376	930
281	492	334
282	824	29
283	197	484
284	518	973
285	148	827
286	61	931
287	151	692
288	278	466
289	876	199
290	523	730
291	199	267
292	402	971
293	141	712
294	220	665
295	419	419
296	136	947
297	947	962
298	575	465
299	955	570
300	796	574
301	334	553
302	988	854
303	506	132
304	139	783
305	484	926
306	128	200
307	131	281
308	93	371
309	339	206
310	454	318
311	931	898
312	51	25
313	253	681
314	111	941
315	822	267
316	759	770
317	831	561
318	457	765
319	962	953
320	162	958
321	240	351
322	879	45
323	378	946
324	38	441
325	483	3
326	719	400
327	263	303
328	643	281
329	719	404
330	90	484
331	66	646
332	703	11
333	167	822
334	998	705
335	264	208
336	790	809
337	881	857
338	725	605
339	594	470
340	757	581
341	624	907
342	993	505
343	918	568
344	559	609
345	791	201
346	548	830
347	22	787
348	801	882
349	600	687
350	815	949
351	229	171
352	72	992
353	966	132
354	955	802
355	604	299
356	11	235
357	892	53
358	380	527
359	170	690
360	571	541
361	326	205
362	202	977
363	520	78
364	517	984
365	999	449
366	217	263
367	928	365
368	468	543
369	143	80
370	883	835
371	153	779
372	967	487
373	303	967
374	501	454
375	933	124
376	693	116
377	879	419
378	233	456
379	190	714
380	962	343
381	934	520
382	533	377
383	888	686
384	613	955
385	147	180
386	947	887
387	685	786
388	366	368
389	863	444
390	777	848
391	400	857
392	963	523
393	625	68
394	268	252
395	375	543
396	653	994
397	442	130
398	461	85
399	280	555
400	453	191
401	478	787
DEMAND_SECTION
1	0
2	4
3	4
4	9
5	5
6	3
7	7
8	6
9	2
10	5
11	4
12	9
13	5
14	5
15	8
16	2
17	2
18	6
19	5
20	3
21	5
22	5
23	5
24	4
25	6
26	7
27	7
28	3
29	6
30	2
31	3
32	1
33	3
34	7
35	4
36	2
37	8
38	3
39	4
40	4
41	7
42	7
43	8
44	9
45	1
46	5
47	4
48	3
49	2
50	6
51	5
52	6
53	1
54	1
55	4
56	4
57	6
58	5
59	9
60	1
61	9
62	7
63	5
64	5
65	7
66	6
67	4
68	9
69	7
70	8
71	7
72	2
73	1
74	4
75	2
76	3
77	5
78	1
79	3
80	6
81	4
82	7
83	9
84	6
85	2
86	8
87	9
88	8
89	5
90	6
91	6
92	7
93	6
94	5
95	3
96	8
97	7
98	1
99	1
100	2
101	2
102	6
103	6
104	4
105	9
106	8
107	7
108	9
109	4
110	5
111	5
112	4
113	8
114	1
115	3
116	3
117	5
118	3
119	2
120	5
121	9
122	8
123	6
124	1
125	2
126	5
127	9
128	6
129	1
130	9
131	4
132	3
133	7
134	1
135	1
136	5
137	4
138	7
139	7
140	1
141	1
142	4
143	1
144	3
145	7
146	2
147	1
148	2
149	8
150	8
151	2
152	7
153	2
154	3
155	2
156	9
157	5
158	6
159	2
160	5
161	3
162	8
163	7
164	3
165	1
166	4
167	4
168	4
169	7
170	4
171	3
172	9
173	2
174	2
175	4
176	4
177	3
178	6
179	4
180	8
181	8
182	8
183	7
184	4
185	2
186	2
187	2
188	8
189	5
190	7
191	7
192	1
193	2
194	8
195	6
196	3
197	7
198	9
199	9
200	4
201	9
202	4
203	2
204	1
205	1
206	9
207	4
208	8
209	1
210	2
211	3
212	8
213	9
214	1
215	8
216	6
217	5
218	6
219	3
220	5
221	7
222	9
223	9
224	8
225	4
226	5
227	6
228	2
229	6
230	6
231	1
232	4
233	4
234	3
235	4
236	2
237	8
238	1
239	4
240	2
241	7
242	2
243	8
244	5
245	9
246	8
247	6
248	8
249	6
250	3
251	3
252	2
253	3
254	5
255	2
256	3
257	6
258	6
259	6
260	2
261	4
262	5
263	9
264	8
265	8
266	1
267	7
268	2
269	4
270	1
271	5
272	1
273	9
274	7
275	6
276	1
277	6
278	4
279	9
280	4
281	1
282	3
283	8
284	5
285	7
286	8
287	4
288	2
289	2
290	6
291	7
292	7
293	6
294	4
295	6
296	5
297	8
298	9
299	6
300	2
301	5
302	2
303	3
304	5
305	2
306	1
307	9
308	4
309	8
310	2
311	2
312	3
313	1
314	8
315	4
316	2
317	9
318	2
319	8
320	8
321	8
322	5
323	1
324	7
325	1
326	5
327	4
328	2
329	2
330	4
331	2
332	9
333	3
334	9
335	8
336	4
337	3
338	8
339	8
340	5
341	4
342	9
343	7
344	6
345	1
346	9
347	1
348	6
349	4
350	1
351	4
352	8
353	9
354	5
355	8
356	3
357	6
358	2
359	3
360	8
361	7
362	6
363	1
364	3
365	9
366	8
367	7
368	3
369	8
370	4
371	8
372	8
373	4
374	5
375	1
376	9
377	3
378	8
379	1
380	9
381	8
382	3
383	1
384	5
385	2
386	4
387	8
388	7
389	3
390	5
391	8
392	6
393	7
394	6
395	6
396	3
397	2
398	5
399	7
400	8
401	3
BACKHAUL_SECTION
3	17	44	52	53	55	61	63	74	76	79	81	103	118	122	123	126	132	133	137	139	141	160	164	166	170	175	178	180	182	184	185	186	190	208	209	210	212	233	234	236	237	242	248	256	258	259	260	261	267	271	272	287	291	292	298	301	305	307	308	315	327	333	336	340	348	349	357	358	369	376	379	381	384	386	387	393	397	398	400	-1
DEPOT_SECTION
1
-1
EOF
