NAME : n401-0004
COMMENT : "Generated by pyvrp_manuel (VRPB)"
TYPE : VRPB
DIMENSION : 401
EDGE_WEIGHT_TYPE : EUC_2D
CAPACITY : 100
VEHICLES : 400
NODE_COORD_SECTION
1	708	494
2	198	588
3	758	141
4	56	756
5	206	652
6	930	972
7	180	345
8	703	373
9	57	910
10	226	877
11	601	167
12	605	768
13	661	109
14	666	24
15	321	848
16	269	592
17	945	562
18	325	124
19	406	509
20	220	336
21	796	937
22	241	138
23	803	224
24	627	12
25	864	58
26	992	270
27	866	399
28	865	406
29	726	143
30	538	860
31	974	674
32	416	73
33	473	57
34	940	885
35	171	35
36	772	658
37	90	473
38	305	722
39	152	819
40	740	774
41	125	701
42	23	382
43	418	522
44	285	208
45	137	907
46	120	872
47	906	301
48	485	567
49	130	168
50	408	375
51	735	124
52	741	536
53	639	822
54	683	28
55	706	186
56	626	227
57	157	750
58	361	866
59	618	420
60	973	614
61	246	452
62	467	123
63	589	5
64	409	904
65	586	742
66	151	316
67	52	547
68	68	564
69	674	560
70	49	51
71	145	942
72	968	735
73	906	248
74	814	635
75	567	664
76	943	150
77	790	151
78	978	572
79	251	973
80	794	696
81	598	540
82	200	213
83	858	214
84	265	639
85	871	138
86	734	377
87	568	737
88	738	355
89	969	122
90	483	107
91	831	106
92	20	2
93	957	749
94	729	106
95	0	18
96	500	88
97	448	822
98	863	26
99	290	706
100	327	492
101	906	835
102	854	805
103	638	488
104	399	787
105	950	821
106	360	998
107	741	446
108	850	255
109	876	227
110	8	955
111	821	879
112	169	728
113	926	961
114	940	398
115	494	558
116	291	254
117	333	325
118	162	755
119	257	308
120	50	930
121	119	646
122	839	795
123	661	753
124	777	464
125	904	919
126	519	385
127	795	413
128	67	45
129	595	500
130	983	621
131	668	161
132	72	722
133	22	907
134	472	716
135	666	445
136	211	914
137	736	472
138	209	963
139	766	143
140	332	966
141	890	285
142	193	679
143	346	930
144	504	587
145	101	65
146	531	454
147	134	496
148	997	158
149	30	819
150	199	255
151	384	107
152	764	937
153	60	522
154	624	597
155	404	690
156	821	305
157	268	630
158	28	234
159	835	133
160	173	473
161	829	611
162	862	205
163	477	394
164	704	985
165	408	489
166	853	926
167	514	897
168	853	581
169	354	269
170	221	134
171	196	205
172	957	112
173	418	430
174	779	956
175	886	291
176	794	199
177	103	368
178	970	84
179	46	409
180	172	727
181	557	610
182	757	288
183	323	651
184	225	4
185	189	306
186	606	297
187	561	879
188	100	888
189	672	213
190	231	1
191	319	292
192	355	131
193	89	38
194	178	439
195	253	272
196	76	370
197	845	567
198	484	732
199	377	352
200	467	907
201	34	354
202	997	636
203	395	56
204	201	745
205	515	916
206	441	436
207	993	688
208	250	594
209	141	274
210	350	925
211	563	255
212	487	872
213	376	153
214	211	71
215	151	10
216	493	122
217	108	330
218	147	221
219	733	70
220	395	824
221	787	231
222	781	833
223	621	745
224	378	414
225	678	428
226	679	826
227	658	590
228	263	344
229	553	437
230	807	764
231	975	672
232	178	937
233	537	45
234	846	182
235	833	575
236	168	826
237	421	126
238	810	197
239	643	772
240	702	638
241	737	107
242	256	755
243	875	593
244	561	104
245	403	248
246	988	995
247	591	899
248	539	356
249	139	923
250	643	419
251	178	860
252	720	215
253	969	130
254	430	533
255	922	591
256	859	173
257	756	910
258	208	369
259	662	600
260	594	424
261	373	824
262	384	651
263	207	135
264	91	951
265	280	213
266	586	928
267	568	685
268	639	905
269	693	103
270	504	925
271	38	349
272	29	56
273	692	935
274	955	320
275	885	129
276	65	884
277	720	563
278	98	480
279	912	285
280	829	262
281	61	947
282	39	269
283	431	890
284	501	389
285	794	400
286	853	951
287	708	553
288	878	23
289	3	628
290	171	70
291	364	179
292	588	217
293	501	763
294	238	913
295	307	892
296	212	162
297	719	975
298	235	48
299	244	790
300	101	354
301	67	470
302	853	511
303	481	428
304	963	593
305	535	592
306	548	874
307	885	634
308	763	95
309	89	506
310	657	597
311	752	953
312	30	2
313	526	180
314	679	619
315	527	556
316	536	37
317	741	675
318	976	596
319	539	528
320	422	670
321	575	982
322	252	216
323	928	762
324	564	926
325	486	663
326	604	513
327	809	224
328	334	876
329	789	688
330	728	821
331	488	996
332	627	392
333	734	674
334	124	520
335	616	859
336	91	135
337	119	780
338	478	33
339	172	926
340	748	873
341	5	300
342	634	730
343	922	33
344	771	584
345	998	71
346	527	20
347	361	763
348	832	40
349	544	915
350	401	415
351	565	468
352	478	950
353	324	46
354	912	314
355	279	327
356	807	528
357	780	174
358	303	155
359	868	44
360	32	794
361	213	923
362	100	486
363	722	807
364	305	375
365	681	246
366	212	770
367	624	56
368	479	689
369	18	267
370	53	6
371	281	944
372	499	470
373	595	599
374	491	708
375	350	997
376	537	319
377	461	799
378	164	958
379	444	459
380	292	792
381	667	681
382	322	193
383	317	641
384	132	627
385	133	388
386	520	255
387	42	770
388	398	586
389	954	429
390	156	308
391	940	824
392	103	241
393	279	751
394	914	769
395	635	535
396	248	793
397	24	113
398	911	377
399	260	719
400	680	475
401	444	901
DEMAND_SECTION
1	0
2	4
3	4
4	4
5	9
6	5
7	5
8	5
9	9
10	6
11	1
12	3
13	1
14	5
15	4
16	7
17	1
18	7
19	2
20	3
21	2
22	6
23	8
24	5
25	8
26	8
27	9
28	8
29	7
30	2
31	5
32	7
33	3
34	1
35	4
36	6
37	2
38	6
39	6
40	7
41	5
42	4
43	2
44	6
45	1
46	6
47	9
48	8
49	2
50	5
51	5
52	6
53	1
54	9
55	4
56	9
57	1
58	3
59	1
60	1
61	1
62	8
63	4
64	8
65	3
66	2
67	7
68	5
69	4
70	5
71	3
72	3
73	5
74	5
75	2
76	9
77	2
78	5
79	9
80	6
81	8
82	6
83	8
84	3
85	7
86	5
87	8
88	5
89	2
90	6
91	4
92	1
93	2
94	3
95	7
96	6
97	5
98	8
99	7
100	1
101	1
102	5
103	7
104	5
105	1
106	3
107	5
108	3
109	3
110	9
111	1
112	7
113	8
114	1
115	9
116	6
117	1
118	6
119	2
120	1
121	9
122	2
123	7
124	5
125	4
126	9
127	9
128	5
129	3
130	2
131	9
132	2
133	5
134	4
135	9
136	4
137	7
138	4
139	2
140	1
141	9
142	9
143	8
144	8
145	7
146	1
147	5
148	8
149	6
150	8
151	4
152	6
153	9
154	6
155	3
156	9
157	4
158	2
159	8
160	3
161	1
162	5
163	1
164	4
165	9
166	1
167	5
168	3
169	6
170	3
171	3
172	8
173	2
174	3
175	9
176	6
177	1
178	8
179	9
180	3
181	5
182	7
183	9
184	4
185	2
186	8
187	7
188	1
189	2
190	9
191	8
192	4
193	7
194	6
195	8
196	4
197	6
198	6
199	1
200	1
201	3
202	8
203	8
204	6
205	5
206	6
207	2
208	6
209	9
210	2
211	5
212	7
213	6
214	9
215	2
216	2
217	1
218	8
219	6
220	4
221	1
222	3
223	1
224	3
225	5
226	9
227	5
228	7
229	7
230	9
231	8
232	1
233	3
234	3
235	8
236	5
237	4
238	7
239	1
240	1
241	9
242	8
243	3
244	2
245	9
246	5
247	4
248	4
249	9
250	4
251	8
252	8
253	2
254	5
255	3
256	7
257	5
258	4
259	3
260	1
261	5
262	5
263	8
264	8
265	7
266	6
267	2
268	1
269	9
270	4
271	8
272	4
273	2
274	9
275	7
276	7
277	4
278	3
279	2
280	2
281	4
282	3
283	3
284	7
285	4
286	4
287	6
288	7
289	4
290	5
291	3
292	9
293	3
294	8
295	8
296	8
297	8
298	1
299	6
300	9
301	2
302	1
303	6
304	2
305	3
306	3
307	6
308	5
309	1
310	8
311	8
312	6
313	7
314	1
315	1
316	8
317	9
318	4
319	2
320	1
321	9
322	4
323	5
324	6
325	4
326	9
327	4
328	8
329	6
330	2
331	2
332	7
333	1
334	6
335	1
336	3
337	6
338	8
339	8
340	7
341	9
342	1
343	9
344	2
345	4
346	9
347	9
348	5
349	9
350	6
351	6
352	5
353	8
354	1
355	2
356	7
357	6
358	7
359	5
360	5
361	5
362	7
363	9
364	1
365	5
366	9
367	4
368	5
369	8
370	1
371	8
372	1
373	5
374	9
375	4
376	9
377	3
378	2
379	5
380	3
381	4
382	1
383	1
384	7
385	8
386	4
387	5
388	3
389	2
390	7
391	7
392	8
393	8
394	8
395	2
396	2
397	4
398	5
399	8
400	6
401	3
BACKHAUL_SECTION
3	4	5	16	20	22	23	27	29	30	32	37	42	52	54	55	58	60	67	73	76	77	87	92	94	98	100	101	102	106	110	121	158	162	164	175	176	178	179	187	188	193	206	213	214	216	220	223	224	228	234	246	247	252	257	259	260	264	265	274	277	283	288	294	300	302	314	318	326	327	328	330	333	343	345	348	349	364	381	387	-1
DEPOT_SECTION
1
-1
EOF
