NAME : n401-0031
COMMENT : "Generated by pyvrp_manuel (VRPB)"
TYPE : VRPB
DIMENSION : 401
EDGE_WEIGHT_TYPE : EUC_2D
CAPACITY : 100
VEHICLES : 400
NODE_COORD_SECTION
1	424	229
2	119	363
3	23	180
4	976	536
5	202	176
6	874	404
7	208	392
8	182	495
9	925	799
10	775	919
11	202	687
12	546	482
13	948	782
14	204	371
15	497	640
16	207	661
17	719	132
18	214	436
19	817	886
20	235	421
21	528	45
22	899	708
23	612	584
24	969	717
25	301	278
26	449	252
27	66	308
28	904	771
29	828	106
30	746	164
31	601	833
32	696	196
33	213	350
34	478	560
35	506	691
36	482	203
37	812	453
38	894	347
39	142	527
40	87	618
41	988	533
42	997	663
43	734	488
44	304	835
45	980	684
46	845	959
47	976	201
48	217	467
49	545	379
50	118	889
51	843	397
52	942	332
53	260	708
54	935	201
55	466	869
56	324	804
57	11	812
58	447	7
59	683	518
60	104	836
61	208	494
62	469	370
63	146	885
64	972	412
65	915	847
66	802	544
67	775	972
68	948	178
69	682	157
70	557	492
71	995	737
72	880	714
73	827	118
74	898	742
75	315	484
76	657	817
77	829	605
78	572	15
79	827	356
80	167	51
81	65	645
82	727	316
83	221	951
84	754	388
85	284	231
86	74	618
87	607	44
88	379	159
89	808	751
90	719	813
91	739	598
92	13	155
93	798	606
94	12	360
95	546	562
96	953	522
97	110	480
98	714	194
99	323	262
100	489	172
101	799	838
102	338	142
103	524	873
104	117	814
105	433	981
106	878	542
107	766	847
108	240	709
109	927	276
110	857	878
111	626	389
112	998	990
113	190	363
114	906	78
115	775	985
116	592	520
117	267	546
118	876	410
119	924	202
120	365	716
121	537	748
122	284	407
123	950	725
124	230	471
125	59	929
126	935	203
127	390	353
128	209	782
129	831	450
130	903	25
131	507	488
132	890	959
133	792	628
134	753	14
135	215	658
136	34	392
137	445	138
138	823	783
139	752	906
140	314	456
141	936	429
142	294	183
143	255	586
144	99	873
145	302	140
146	919	104
147	476	778
148	790	56
149	576	116
150	885	833
151	197	64
152	271	936
153	615	538
154	744	783
155	841	674
156	906	777
157	424	448
158	176	186
159	2	584
160	421	703
161	906	345
162	600	824
163	329	336
164	705	633
165	837	312
166	18	915
167	973	559
168	895	2
169	540	535
170	519	329
171	674	143
172	302	265
173	254	270
174	839	368
175	517	786
176	492	222
177	682	632
178	978	460
179	668	808
180	197	840
181	674	588
182	840	632
183	485	758
184	680	459
185	214	950
186	634	755
187	434	663
188	225	269
189	446	4
190	592	334
191	492	682
192	534	823
193	335	284
194	72	391
195	762	844
196	100	252
197	949	113
198	274	786
199	933	559
200	137	797
201	202	104
202	586	713
203	568	432
204	909	825
205	37	849
206	91	502
207	487	188
208	474	922
209	462	856
210	913	39
211	324	834
212	647	755
213	423	149
214	76	498
215	708	370
216	588	891
217	272	900
218	647	980
219	32	911
220	761	700
221	228	165
222	218	958
223	62	146
224	175	250
225	658	373
226	397	564
227	923	148
228	342	197
229	217	166
230	490	244
231	960	639
232	713	961
233	640	705
234	410	928
235	107	313
236	357	661
237	749	503
238	399	720
239	280	781
240	163	526
241	873	596
242	360	882
243	544	177
244	141	540
245	105	816
246	67	494
247	559	145
248	106	614
249	270	10
250	489	177
251	709	288
252	318	338
253	535	752
254	287	428
255	949	848
256	245	69
257	132	988
258	185	886
259	259	204
260	619	274
261	708	955
262	113	347
263	324	488
264	353	515
265	51	928
266	703	552
267	398	313
268	252	134
269	684	131
270	823	617
271	240	868
272	473	779
273	480	491
274	14	461
275	78	116
276	289	138
277	580	221
278	886	91
279	97	117
280	792	247
281	613	73
282	170	124
283	154	3
284	526	713
285	21	337
286	770	62
287	431	498
288	549	625
289	474	974
290	718	730
291	43	13
292	388	810
293	629	268
294	561	355
295	777	736
296	397	453
297	305	953
298	473	311
299	651	767
300	760	357
301	923	63
302	869	954
303	999	203
304	145	31
305	515	759
306	599	513
307	954	108
308	15	623
309	413	841
310	578	304
311	531	981
312	810	245
313	102	395
314	969	756
315	898	407
316	670	470
317	874	852
318	180	647
319	553	460
320	702	374
321	266	885
322	824	20
323	782	151
324	339	218
325	208	721
326	234	188
327	481	408
328	982	852
329	479	501
330	686	358
331	555	333
332	469	941
333	861	838
334	141	153
335	646	482
336	849	670
337	717	82
338	884	694
339	729	597
340	937	390
341	641	43
342	104	308
343	795	256
344	778	87
345	85	348
346	313	442
347	302	19
348	889	722
349	912	355
350	66	764
351	333	886
352	930	960
353	942	829
354	340	500
355	693	771
356	177	841
357	459	953
358	739	964
359	666	457
360	540	769
361	964	452
362	941	144
363	574	596
364	98	12
365	682	106
366	441	875
367	784	155
368	80	374
369	205	298
370	594	298
371	341	598
372	491	99
373	811	117
374	584	544
375	592	805
376	105	444
377	397	571
378	110	759
379	568	727
380	84	523
381	614	92
382	617	824
383	840	905
384	138	568
385	354	177
386	810	463
387	645	567
388	770	9
389	269	730
390	468	956
391	906	77
392	867	973
393	484	78
394	504	839
395	115	932
396	67	568
397	730	625
398	541	33
399	707	899
400	882	907
401	964	781
DEMAND_SECTION
1	0
2	5
3	1
4	2
5	1
6	6
7	3
8	9
9	3
10	9
11	6
12	1
13	2
14	3
15	9
16	6
17	2
18	2
19	2
20	5
21	9
22	1
23	5
24	8
25	8
26	5
27	9
28	1
29	6
30	5
31	5
32	9
33	2
34	8
35	2
36	6
37	3
38	8
39	4
40	1
41	9
42	5
43	1
44	3
45	3
46	5
47	6
48	4
49	5
50	1
51	8
52	5
53	5
54	3
55	1
56	1
57	8
58	4
59	8
60	9
61	3
62	4
63	7
64	4
65	8
66	7
67	6
68	2
69	5
70	3
71	5
72	9
73	7
74	6
75	7
76	3
77	6
78	8
79	6
80	8
81	3
82	7
83	3
84	1
85	4
86	1
87	8
88	7
89	9
90	8
91	8
92	1
93	5
94	8
95	4
96	7
97	3
98	4
99	6
100	3
101	5
102	8
103	9
104	5
105	6
106	2
107	6
108	8
109	6
110	7
111	1
112	7
113	4
114	5
115	7
116	8
117	8
118	7
119	5
120	2
121	5
122	2
123	8
124	7
125	9
126	8
127	3
128	4
129	7
130	7
131	5
132	8
133	9
134	6
135	8
136	8
137	4
138	1
139	6
140	8
141	7
142	5
143	9
144	2
145	9
146	7
147	7
148	9
149	8
150	4
151	2
152	2
153	8
154	2
155	9
156	4
157	7
158	3
159	6
160	1
161	1
162	5
163	2
164	6
165	2
166	8
167	9
168	5
169	3
170	9
171	4
172	4
173	6
174	4
175	1
176	5
177	3
178	5
179	8
180	2
181	9
182	1
183	7
184	8
185	7
186	5
187	9
188	6
189	1
190	3
191	3
192	1
193	2
194	8
195	8
196	1
197	5
198	6
199	3
200	8
201	2
202	9
203	4
204	8
205	5
206	1
207	7
208	8
209	5
210	9
211	5
212	9
213	2
214	5
215	6
216	3
217	3
218	6
219	9
220	5
221	4
222	2
223	5
224	9
225	5
226	3
227	9
228	6
229	6
230	3
231	9
232	3
233	1
234	3
235	8
236	9
237	7
238	2
239	1
240	6
241	7
242	2
243	4
244	6
245	7
246	8
247	3
248	6
249	5
250	8
251	3
252	8
253	5
254	3
255	7
256	6
257	9
258	2
259	4
260	1
261	9
262	3
263	8
264	8
265	9
266	8
267	3
268	3
269	9
270	5
271	6
272	5
273	8
274	3
275	4
276	1
277	7
278	4
279	9
280	1
281	1
282	5
283	9
284	9
285	5
286	6
287	6
288	5
289	8
290	7
291	7
292	2
293	4
294	1
295	7
296	9
297	8
298	6
299	5
300	6
301	8
302	8
303	4
304	8
305	8
306	8
307	1
308	5
309	9
310	3
311	1
312	5
313	2
314	2
315	3
316	7
317	2
318	7
319	4
320	9
321	8
322	1
323	9
324	5
325	3
326	1
327	8
328	2
329	1
330	3
331	6
332	4
333	2
334	9
335	1
336	6
337	6
338	3
339	7
340	3
341	5
342	7
343	3
344	9
345	2
346	6
347	2
348	9
349	3
350	3
351	4
352	3
353	5
354	8
355	7
356	6
357	8
358	1
359	4
360	1
361	8
362	6
363	8
364	1
365	8
366	7
367	9
368	7
369	9
370	9
371	2
372	4
373	7
374	1
375	1
376	5
377	9
378	6
379	8
380	2
381	9
382	2
383	5
384	2
385	4
386	8
387	3
388	5
389	2
390	7
391	5
392	1
393	9
394	8
395	6
396	1
397	8
398	7
399	8
400	7
401	9
BACKHAUL_SECTION
3	4	5	16	20	22	23	27	29	30	32	37	42	52	54	55	58	60	67	73	76	77	87	92	94	98	100	101	102	106	110	121	158	162	164	175	176	178	179	187	188	193	206	213	214	216	220	223	224	228	234	246	247	252	257	259	260	264	265	274	277	283	288	294	300	302	314	318	326	327	328	330	333	343	345	348	349	364	381	387	-1
DEPOT_SECTION
1
-1
EOF
