NAME : n401-0040
COMMENT : "Generated by pyvrp_manuel (VRPB)"
TYPE : VRPB
DIMENSION : 401
EDGE_WEIGHT_TYPE : EUC_2D
CAPACITY : 100
VEHICLES : 400
NODE_COORD_SECTION
1	584	558
2	131	562
3	737	36
4	27	966
5	642	893
6	651	779
7	889	900
8	815	260
9	434	740
10	475	484
11	474	892
12	544	483
13	511	14
14	760	312
15	17	465
16	51	238
17	441	429
18	115	111
19	709	814
20	150	922
21	465	774
22	222	254
23	356	197
24	322	290
25	444	221
26	256	246
27	310	294
28	52	251
29	914	946
30	672	547
31	379	63
32	443	201
33	174	433
34	628	468
35	465	872
36	11	909
37	792	387
38	580	339
39	557	572
40	582	644
41	38	227
42	820	123
43	676	482
44	23	225
45	955	514
46	948	291
47	735	330
48	775	143
49	859	634
50	418	272
51	21	925
52	69	617
53	988	92
54	592	352
55	278	495
56	858	150
57	757	510
58	140	452
59	35	982
60	603	657
61	693	895
62	837	712
63	353	158
64	234	144
65	194	85
66	742	620
67	952	726
68	848	973
69	640	603
70	970	156
71	867	712
72	517	661
73	212	405
74	321	519
75	250	703
76	777	295
77	594	221
78	881	32
79	180	745
80	84	929
81	334	560
82	709	490
83	130	720
84	594	740
85	345	125
86	789	596
87	659	164
88	571	529
89	999	456
90	879	160
91	535	471
92	840	357
93	985	643
94	202	765
95	846	888
96	236	293
97	549	645
98	429	634
99	399	103
100	151	392
101	949	369
102	213	550
103	742	412
104	563	102
105	444	436
106	557	575
107	165	933
108	377	584
109	808	72
110	573	385
111	475	283
112	314	978
113	535	95
114	925	950
115	138	398
116	48	869
117	404	277
118	880	783
119	230	768
120	302	446
121	18	160
122	905	951
123	809	894
124	19	804
125	379	142
126	873	255
127	118	200
128	713	449
129	144	601
130	739	476
131	390	365
132	464	846
133	216	119
134	414	383
135	447	508
136	787	110
137	564	964
138	767	200
139	892	111
140	706	752
141	588	619
142	120	307
143	500	727
144	948	807
145	268	231
146	830	815
147	440	668
148	263	198
149	805	865
150	369	233
151	849	426
152	117	573
153	836	82
154	585	964
155	12	678
156	675	941
157	548	253
158	86	940
159	483	15
160	500	114
161	465	777
162	425	122
163	276	159
164	744	951
165	227	724
166	878	538
167	803	476
168	84	448
169	6	574
170	66	83
171	102	510
172	190	649
173	403	688
174	128	565
175	51	168
176	548	477
177	178	538
178	469	256
179	86	905
180	272	732
181	958	911
182	523	355
183	54	752
184	762	408
185	245	454
186	333	167
187	266	54
188	259	632
189	156	811
190	879	671
191	898	541
192	922	556
193	659	924
194	864	124
195	435	903
196	55	796
197	914	763
198	838	510
199	578	385
200	684	508
201	354	676
202	941	248
203	182	833
204	845	722
205	583	511
206	545	311
207	596	850
208	233	590
209	770	195
210	493	10
211	116	269
212	802	648
213	438	808
214	198	145
215	922	528
216	85	235
217	459	268
218	479	473
219	220	700
220	230	513
221	812	466
222	163	889
223	172	167
224	982	664
225	747	738
226	217	332
227	910	411
228	489	114
229	700	485
230	331	357
231	325	321
232	166	903
233	140	696
234	825	480
235	741	426
236	738	439
237	288	119
238	617	603
239	619	49
240	772	352
241	126	18
242	320	211
243	949	26
244	947	74
245	112	123
246	934	8
247	672	935
248	810	731
249	667	300
250	758	346
251	907	902
252	139	387
253	719	885
254	819	394
255	762	435
256	551	807
257	852	358
258	716	460
259	656	160
260	275	227
261	242	284
262	117	333
263	851	256
264	251	26
265	139	195
266	152	392
267	892	494
268	361	423
269	861	309
270	843	957
271	360	256
272	373	120
273	465	709
274	778	248
275	774	614
276	830	679
277	855	728
278	760	966
279	537	983
280	440	858
281	879	78
282	411	567
283	371	509
284	513	415
285	400	7
286	281	282
287	488	352
288	464	463
289	448	573
290	145	626
291	672	398
292	691	910
293	35	526
294	592	315
295	535	199
296	102	210
297	563	608
298	502	537
299	687	56
300	462	329
301	861	558
302	644	520
303	215	46
304	506	442
305	879	653
306	779	954
307	136	994
308	876	766
309	625	560
310	323	808
311	545	850
312	128	374
313	883	179
314	584	305
315	113	637
316	933	257
317	776	50
318	500	645
319	726	955
320	237	286
321	435	115
322	653	591
323	970	883
324	252	627
325	140	455
326	631	346
327	457	588
328	235	388
329	52	89
330	224	874
331	77	748
332	765	483
333	297	778
334	108	174
335	395	789
336	422	843
337	60	846
338	152	799
339	374	577
340	761	696
341	978	414
342	524	125
343	794	483
344	264	373
345	730	467
346	80	760
347	31	818
348	708	256
349	136	349
350	562	462
351	916	862
352	550	4
353	885	432
354	20	199
355	934	64
356	66	276
357	938	631
358	762	161
359	329	627
360	759	252
361	979	737
362	701	704
363	705	110
364	464	390
365	587	400
366	26	200
367	944	260
368	405	942
369	199	361
370	351	40
371	324	884
372	41	753
373	164	436
374	453	21
375	341	54
376	319	317
377	454	527
378	809	605
379	816	811
380	953	431
381	270	363
382	558	258
383	871	574
384	789	912
385	226	815
386	452	598
387	310	820
388	490	783
389	343	969
390	279	948
391	540	676
392	813	870
393	92	288
394	710	272
395	882	182
396	679	420
397	820	640
398	720	584
399	497	347
400	128	790
401	205	380
DEMAND_SECTION
1	0
2	4
3	2
4	6
5	3
6	8
7	8
8	7
9	7
10	9
11	5
12	5
13	1
14	1
15	2
16	2
17	8
18	3
19	9
20	4
21	3
22	5
23	7
24	8
25	2
26	8
27	1
28	3
29	5
30	4
31	2
32	7
33	2
34	1
35	6
36	1
37	8
38	9
39	7
40	2
41	8
42	5
43	9
44	8
45	5
46	7
47	3
48	8
49	4
50	2
51	4
52	8
53	7
54	5
55	9
56	3
57	4
58	4
59	5
60	1
61	4
62	9
63	8
64	4
65	7
66	2
67	2
68	7
69	9
70	5
71	7
72	8
73	5
74	6
75	5
76	6
77	3
78	1
79	3
80	1
81	5
82	1
83	9
84	1
85	1
86	8
87	3
88	8
89	4
90	9
91	9
92	1
93	1
94	7
95	8
96	4
97	1
98	4
99	6
100	4
101	7
102	2
103	7
104	7
105	2
106	6
107	5
108	8
109	5
110	9
111	8
112	6
113	6
114	7
115	4
116	7
117	1
118	5
119	9
120	5
121	1
122	6
123	8
124	5
125	4
126	5
127	7
128	5
129	4
130	6
131	6
132	5
133	9
134	5
135	9
136	8
137	8
138	6
139	8
140	1
141	5
142	5
143	2
144	9
145	6
146	6
147	8
148	8
149	7
150	4
151	2
152	3
153	5
154	7
155	8
156	8
157	8
158	3
159	5
160	5
161	3
162	1
163	4
164	9
165	9
166	1
167	8
168	8
169	4
170	4
171	9
172	2
173	2
174	5
175	5
176	4
177	9
178	7
179	3
180	4
181	1
182	8
183	7
184	3
185	7
186	1
187	2
188	8
189	7
190	7
191	1
192	4
193	6
194	5
195	1
196	6
197	1
198	8
199	8
200	7
201	2
202	5
203	6
204	5
205	7
206	9
207	2
208	5
209	7
210	4
211	6
212	3
213	1
214	2
215	7
216	1
217	7
218	5
219	7
220	4
221	8
222	5
223	5
224	8
225	8
226	8
227	3
228	6
229	8
230	3
231	9
232	8
233	8
234	3
235	6
236	8
237	5
238	5
239	6
240	1
241	7
242	6
243	3
244	1
245	2
246	5
247	2
248	6
249	8
250	9
251	9
252	1
253	7
254	6
255	3
256	6
257	6
258	3
259	4
260	2
261	4
262	4
263	6
264	8
265	5
266	4
267	7
268	9
269	7
270	1
271	9
272	4
273	7
274	2
275	1
276	1
277	1
278	3
279	3
280	5
281	2
282	6
283	2
284	1
285	6
286	9
287	1
288	2
289	3
290	1
291	4
292	9
293	5
294	6
295	9
296	3
297	9
298	6
299	5
300	2
301	5
302	1
303	7
304	6
305	5
306	7
307	4
308	1
309	4
310	4
311	4
312	7
313	7
314	9
315	5
316	9
317	8
318	6
319	5
320	6
321	4
322	3
323	1
324	5
325	8
326	2
327	8
328	1
329	3
330	2
331	3
332	4
333	3
334	8
335	9
336	1
337	8
338	7
339	9
340	3
341	1
342	9
343	9
344	3
345	7
346	1
347	9
348	2
349	1
350	8
351	3
352	7
353	3
354	1
355	9
356	3
357	8
358	7
359	6
360	1
361	9
362	8
363	2
364	3
365	4
366	1
367	2
368	7
369	7
370	3
371	1
372	3
373	9
374	2
375	2
376	1
377	9
378	3
379	2
380	9
381	5
382	5
383	5
384	6
385	8
386	6
387	6
388	3
389	9
390	6
391	8
392	1
393	5
394	2
395	8
396	9
397	1
398	5
399	2
400	7
401	8
BACKHAUL_SECTION
3	4	5	16	20	22	23	27	29	30	32	37	42	52	54	55	58	60	67	73	76	77	87	92	94	98	100	101	102	106	110	121	158	162	164	175	176	178	179	187	188	193	206	213	214	216	220	223	224	228	234	246	247	252	257	259	260	264	265	274	277	283	288	294	300	302	314	318	326	327	328	330	333	343	345	348	349	364	381	387	-1
DEPOT_SECTION
1
-1
EOF
