NAME : n501-0026
COMMENT : "Generated by pyvrp_manuel (OVRPB)"
TYPE : OVRPB
DIMENSION : 501
EDGE_WEIGHT_TYPE : EUC_2D
CAPACITY : 100
VEHICLES : 500
OPEN_ROUTE : YES
NODE_COORD_SECTION
1	459	384
2	304	326
3	523	965
4	391	739
5	820	894
6	346	498
7	139	313
8	542	414
9	956	201
10	660	326
11	55	262
12	398	14
13	214	741
14	629	466
15	433	724
16	233	377
17	826	292
18	9	476
19	840	666
20	192	352
21	400	505
22	90	545
23	653	653
24	815	485
25	580	533
26	589	897
27	74	453
28	509	945
29	784	228
30	951	485
31	686	299
32	705	358
33	645	258
34	523	508
35	185	667
36	380	124
37	332	975
38	191	428
39	460	731
40	395	720
41	636	10
42	122	766
43	188	972
44	678	195
45	316	584
46	251	536
47	84	926
48	52	670
49	529	303
50	667	640
51	197	480
52	970	734
53	660	275
54	768	334
55	338	465
56	584	319
57	252	652
58	213	549
59	664	151
60	612	678
61	550	73
62	97	27
63	554	852
64	841	872
65	903	229
66	61	786
67	398	875
68	328	759
69	196	239
70	37	396
71	46	105
72	591	161
73	913	650
74	374	759
75	130	280
76	840	958
77	155	855
78	32	717
79	946	771
80	241	29
81	252	764
82	526	218
83	349	116
84	390	26
85	783	267
86	135	782
87	432	275
88	724	761
89	9	119
90	606	436
91	724	694
92	288	518
93	473	585
94	11	982
95	829	12
96	673	779
97	674	712
98	855	354
99	79	965
100	324	644
101	61	727
102	148	474
103	971	92
104	135	172
105	561	247
106	2	762
107	75	331
108	43	922
109	713	182
110	319	721
111	731	885
112	247	25
113	918	667
114	85	424
115	724	213
116	125	871
117	2	284
118	75	877
119	346	459
120	54	19
121	789	502
122	205	843
123	398	220
124	476	719
125	262	337
126	704	253
127	337	795
128	901	711
129	21	702
130	546	964
131	130	530
132	268	58
133	213	199
134	851	526
135	786	938
136	660	779
137	770	539
138	226	515
139	549	777
140	730	62
141	861	145
142	586	196
143	567	957
144	103	947
145	707	461
146	520	17
147	550	880
148	88	257
149	343	508
150	683	679
151	697	996
152	766	898
153	238	397
154	733	265
155	621	925
156	341	95
157	617	9
158	829	531
159	805	141
160	40	101
161	52	133
162	274	156
163	889	316
164	160	575
165	671	824
166	278	1
167	48	205
168	827	267
169	66	587
170	452	635
171	99	979
172	83	903
173	911	927
174	775	67
175	55	505
176	847	555
177	965	661
178	98	759
179	975	602
180	897	415
181	994	570
182	280	70
183	291	387
184	674	129
185	965	642
186	765	875
187	366	427
188	166	787
189	387	513
190	491	952
191	379	268
192	14	853
193	396	287
194	887	268
195	829	124
196	615	262
197	309	119
198	553	328
199	748	913
200	377	995
201	40	779
202	714	290
203	791	241
204	693	303
205	630	810
206	244	697
207	624	170
208	208	742
209	577	513
210	375	531
211	426	757
212	198	370
213	162	982
214	283	500
215	755	336
216	127	675
217	519	292
218	483	48
219	118	970
220	409	984
221	478	60
222	999	887
223	281	647
224	331	28
225	602	762
226	20	827
227	277	993
228	682	819
229	880	124
230	442	183
231	987	630
232	189	742
233	274	156
234	780	812
235	516	961
236	601	602
237	85	855
238	682	133
239	330	346
240	108	361
241	625	909
242	925	579
243	84	886
244	300	586
245	909	992
246	252	949
247	676	555
248	218	345
249	160	228
250	318	967
251	733	751
252	785	471
253	727	427
254	757	648
255	558	648
256	224	262
257	992	957
258	949	708
259	197	32
260	1	994
261	953	924
262	860	828
263	238	687
264	34	784
265	888	839
266	487	685
267	461	489
268	605	722
269	988	381
270	125	183
271	952	945
272	82	401
273	863	401
274	881	473
275	117	437
276	642	455
277	58	3
278	385	637
279	793	762
280	444	550
281	489	921
282	419	597
283	229	941
284	483	693
285	471	533
286	100	226
287	261	878
288	789	770
289	139	573
290	626	275
291	563	882
292	589	535
293	755	365
294	92	535
295	38	629
296	574	443
297	798	670
298	922	316
299	55	826
300	485	728
301	253	262
302	623	142
303	144	674
304	767	536
305	366	354
306	755	552
307	721	618
308	642	164
309	335	877
310	168	153
311	219	333
312	337	604
313	493	932
314	782	123
315	398	477
316	182	629
317	190	138
318	95	0
319	856	630
320	201	900
321	54	779
322	633	811
323	482	636
324	942	128
325	607	720
326	590	676
327	685	245
328	124	296
329	392	674
330	165	71
331	572	864
332	154	802
333	326	564
334	670	779
335	852	621
336	142	93
337	15	171
338	595	259
339	260	220
340	954	408
341	396	266
342	813	900
343	561	638
344	168	768
345	698	11
346	642	279
347	43	251
348	263	318
349	112	822
350	253	112
351	750	158
352	207	591
353	294	218
354	429	706
355	481	91
356	510	551
357	263	512
358	32	34
359	385	62
360	788	729
361	612	638
362	582	179
363	403	836
364	940	773
365	207	967
366	262	683
367	832	909
368	14	622
369	705	509
370	308	343
371	451	684
372	708	819
373	867	100
374	670	85
375	910	689
376	424	595
377	73	776
378	445	501
379	874	331
380	478	197
381	777	943
382	734	132
383	916	349
384	543	21
385	514	906
386	856	769
387	595	174
388	995	3
389	754	733
390	339	42
391	214	192
392	829	189
393	68	392
394	31	755
395	84	567
396	915	999
397	250	674
398	361	546
399	138	631
400	770	128
401	597	400
402	428	800
403	27	838
404	253	210
405	721	713
406	108	140
407	42	57
408	667	479
409	642	523
410	339	507
411	255	335
412	625	931
413	471	470
414	341	809
415	717	214
416	904	342
417	813	545
418	976	894
419	274	300
420	120	112
421	374	47
422	11	773
423	14	718
424	49	118
425	931	216
426	517	836
427	256	803
428	999	32
429	345	289
430	288	238
431	30	946
432	801	924
433	964	449
434	821	97
435	719	22
436	527	425
437	558	904
438	343	559
439	242	942
440	266	319
441	671	702
442	718	743
443	202	378
444	335	341
445	425	21
446	9	582
447	56	604
448	424	250
449	867	714
450	115	78
451	794	143
452	171	739
453	990	59
454	955	563
455	837	315
456	73	73
457	232	692
458	163	773
459	424	144
460	47	510
461	18	178
462	996	946
463	787	403
464	83	821
465	445	577
466	967	537
467	531	143
468	55	958
469	744	175
470	22	40
471	163	544
472	343	96
473	154	654
474	634	105
475	582	446
476	527	347
477	406	294
478	252	688
479	867	514
480	209	288
481	526	278
482	30	339
483	565	253
484	360	316
485	479	42
486	659	490
487	942	500
488	504	377
489	520	983
490	312	29
491	408	170
492	535	976
493	618	578
494	305	461
495	570	620
496	762	994
497	114	703
498	292	195
499	430	617
500	402	123
501	37	829
DEMAND_SECTION
1	0
2	4
3	2
4	2
5	3
6	6
7	5
8	9
9	6
10	8
11	1
12	4
13	8
14	9
15	2
16	1
17	8
18	8
19	5
20	5
21	5
22	8
23	1
24	3
25	2
26	3
27	3
28	6
29	4
30	5
31	1
32	7
33	7
34	5
35	6
36	9
37	1
38	9
39	6
40	7
41	2
42	9
43	1
44	6
45	3
46	9
47	8
48	3
49	5
50	6
51	1
52	2
53	8
54	2
55	3
56	9
57	9
58	9
59	6
60	7
61	9
62	4
63	3
64	6
65	5
66	6
67	6
68	2
69	4
70	4
71	2
72	6
73	2
74	1
75	9
76	3
77	9
78	3
79	4
80	2
81	6
82	1
83	2
84	6
85	5
86	7
87	7
88	4
89	8
90	9
91	3
92	4
93	4
94	3
95	2
96	7
97	3
98	9
99	1
100	5
101	2
102	1
103	1
104	7
105	7
106	8
107	5
108	6
109	7
110	4
111	7
112	5
113	9
114	7
115	3
116	3
117	7
118	6
119	2
120	8
121	6
122	3
123	6
124	4
125	7
126	8
127	9
128	5
129	6
130	7
131	4
132	1
133	6
134	9
135	6
136	8
137	4
138	6
139	3
140	7
141	9
142	8
143	3
144	1
145	6
146	2
147	9
148	5
149	4
150	9
151	8
152	7
153	9
154	4
155	2
156	1
157	2
158	5
159	9
160	5
161	1
162	2
163	4
164	9
165	2
166	9
167	4
168	8
169	8
170	2
171	8
172	1
173	7
174	8
175	7
176	2
177	4
178	3
179	8
180	1
181	4
182	8
183	3
184	7
185	6
186	5
187	3
188	1
189	7
190	7
191	7
192	9
193	5
194	3
195	1
196	8
197	9
198	8
199	8
200	4
201	4
202	6
203	2
204	5
205	6
206	5
207	4
208	9
209	2
210	7
211	9
212	6
213	5
214	9
215	4
216	2
217	4
218	9
219	9
220	1
221	6
222	8
223	8
224	4
225	9
226	5
227	9
228	5
229	4
230	8
231	9
232	5
233	2
234	7
235	6
236	6
237	1
238	8
239	3
240	5
241	8
242	5
243	5
244	2
245	8
246	5
247	8
248	6
249	1
250	6
251	9
252	4
253	7
254	8
255	1
256	8
257	6
258	1
259	4
260	1
261	2
262	6
263	9
264	5
265	9
266	3
267	5
268	9
269	6
270	9
271	4
272	2
273	2
274	4
275	7
276	4
277	9
278	5
279	6
280	1
281	3
282	2
283	8
284	9
285	8
286	6
287	2
288	8
289	9
290	5
291	2
292	7
293	7
294	2
295	1
296	2
297	2
298	4
299	8
300	4
301	3
302	8
303	9
304	2
305	7
306	9
307	1
308	2
309	7
310	7
311	4
312	2
313	3
314	8
315	2
316	5
317	1
318	2
319	6
320	4
321	5
322	1
323	5
324	5
325	6
326	1
327	3
328	4
329	9
330	9
331	9
332	5
333	2
334	2
335	4
336	9
337	4
338	7
339	3
340	4
341	7
342	8
343	4
344	9
345	7
346	2
347	1
348	6
349	6
350	6
351	5
352	9
353	8
354	5
355	8
356	7
357	8
358	8
359	1
360	4
361	6
362	4
363	6
364	2
365	8
366	5
367	1
368	6
369	3
370	9
371	7
372	8
373	3
374	1
375	5
376	6
377	5
378	1
379	3
380	3
381	6
382	6
383	5
384	2
385	4
386	7
387	7
388	7
389	5
390	9
391	8
392	6
393	9
394	9
395	2
396	9
397	1
398	1
399	3
400	6
401	1
402	6
403	3
404	8
405	3
406	5
407	3
408	3
409	2
410	5
411	8
412	1
413	6
414	7
415	7
416	6
417	2
418	7
419	7
420	7
421	7
422	8
423	7
424	8
425	5
426	6
427	7
428	2
429	3
430	5
431	2
432	6
433	4
434	4
435	8
436	4
437	9
438	9
439	3
440	4
441	9
442	3
443	5
444	6
445	4
446	3
447	1
448	3
449	4
450	5
451	3
452	7
453	4
454	6
455	2
456	1
457	1
458	5
459	9
460	8
461	5
462	6
463	4
464	5
465	2
466	5
467	2
468	2
469	4
470	4
471	6
472	8
473	1
474	6
475	8
476	3
477	1
478	6
479	3
480	1
481	8
482	2
483	3
484	9
485	2
486	2
487	5
488	3
489	7
490	4
491	5
492	8
493	4
494	7
495	7
496	5
497	4
498	8
499	6
500	6
501	6
BACKHAUL_SECTION
5	11	13	14	19	24	27	31	39	42	45	54	57	58	60	61	63	72	74	80	104	110	111	122	126	128	135	138	140	142	143	163	164	170	174	197	202	203	204	210	212	214	215	223	230	232	234	235	238	246	247	254	257	261	262	266	268	287	288	289	290	293	301	306	310	317	324	327	330	337	339	340	351	354	356	358	373	383	384	401	402	405	407	413	417	421	426	429	432	434	438	448	459	469	471	476	481	493	498	500	-1
DEPOT_SECTION
1
-1
EOF
