NAME : n501-0003
COMMENT : "Generated by pyvrp_manuel (OVRPB)"
TYPE : OVRPB
DIMENSION : 501
EDGE_WEIGHT_TYPE : EUC_2D
CAPACITY : 100
VEHICLES : 500
OPEN_ROUTE : YES
NODE_COORD_SECTION
1	752	783
2	533	977
3	499	839
4	864	76
5	466	362
6	675	601
7	985	811
8	312	45
9	992	941
10	634	750
11	517	689
12	347	815
13	92	580
14	684	131
15	411	138
16	596	850
17	783	445
18	531	876
19	686	422
20	127	363
21	832	41
22	147	79
23	280	481
24	191	386
25	191	230
26	44	698
27	253	533
28	244	227
29	803	485
30	682	149
31	872	711
32	687	157
33	792	486
34	914	877
35	612	566
36	253	642
37	899	320
38	155	592
39	84	714
40	103	813
41	673	647
42	718	455
43	671	621
44	305	688
45	728	754
46	500	211
47	442	403
48	747	336
49	491	315
50	38	340
51	101	570
52	367	604
53	890	813
54	271	130
55	328	267
56	68	884
57	83	0
58	624	981
59	850	354
60	663	514
61	648	661
62	344	442
63	1	139
64	959	434
65	128	990
66	412	877
67	468	501
68	785	96
69	390	366
70	138	592
71	614	519
72	514	229
73	310	280
74	317	989
75	99	64
76	279	100
77	444	175
78	985	93
79	185	76
80	795	321
81	43	554
82	650	653
83	400	130
84	370	286
85	919	299
86	962	392
87	215	29
88	454	449
89	433	917
90	827	436
91	546	617
92	345	901
93	632	413
94	183	878
95	773	229
96	768	224
97	285	875
98	260	500
99	388	789
100	661	91
101	802	947
102	232	254
103	89	575
104	876	375
105	614	173
106	530	310
107	236	907
108	263	291
109	839	253
110	85	71
111	999	94
112	50	300
113	556	933
114	216	769
115	932	287
116	768	302
117	191	623
118	132	952
119	870	474
120	602	840
121	482	147
122	479	14
123	231	680
124	707	107
125	130	544
126	224	931
127	159	424
128	360	722
129	916	80
130	626	79
131	328	856
132	800	498
133	101	177
134	130	704
135	439	363
136	459	458
137	801	128
138	143	20
139	58	459
140	814	874
141	81	117
142	1000	852
143	928	598
144	808	658
145	343	526
146	345	834
147	755	7
148	69	739
149	446	366
150	834	202
151	691	758
152	702	779
153	944	272
154	796	213
155	883	449
156	58	13
157	301	399
158	233	33
159	946	138
160	812	169
161	723	965
162	853	729
163	690	341
164	902	32
165	964	432
166	185	338
167	653	944
168	693	698
169	261	981
170	919	333
171	507	587
172	804	10
173	751	619
174	460	985
175	102	311
176	692	687
177	246	36
178	584	120
179	661	839
180	831	289
181	667	151
182	739	853
183	796	250
184	512	631
185	325	858
186	405	119
187	8	606
188	336	20
189	235	153
190	303	910
191	848	940
192	520	124
193	127	535
194	184	954
195	444	327
196	251	764
197	792	149
198	117	151
199	951	199
200	290	968
201	835	878
202	960	518
203	406	595
204	731	99
205	619	142
206	866	321
207	29	691
208	41	235
209	539	49
210	203	237
211	100	904
212	566	597
213	61	108
214	1	762
215	967	236
216	492	692
217	745	759
218	309	743
219	751	101
220	552	873
221	649	619
222	688	381
223	726	843
224	137	4
225	48	963
226	464	275
227	584	605
228	677	154
229	824	858
230	41	375
231	605	530
232	583	81
233	160	925
234	25	297
235	154	184
236	431	303
237	127	220
238	184	71
239	573	872
240	589	236
241	705	140
242	750	990
243	528	809
244	142	784
245	977	543
246	479	234
247	343	315
248	886	647
249	517	751
250	233	464
251	909	512
252	591	217
253	330	944
254	115	585
255	933	203
256	451	227
257	698	180
258	244	515
259	529	102
260	488	400
261	907	452
262	328	221
263	470	576
264	449	992
265	822	525
266	878	664
267	950	383
268	195	486
269	50	872
270	523	378
271	894	84
272	353	984
273	924	581
274	900	911
275	272	62
276	129	21
277	479	801
278	37	85
279	722	612
280	602	279
281	153	248
282	689	147
283	175	109
284	887	869
285	24	730
286	709	150
287	75	637
288	917	945
289	680	732
290	341	480
291	764	743
292	422	100
293	892	652
294	455	115
295	232	392
296	20	260
297	237	173
298	267	225
299	781	115
300	4	839
301	206	268
302	29	819
303	215	750
304	32	487
305	966	127
306	459	755
307	376	856
308	609	910
309	986	166
310	130	960
311	512	430
312	300	244
313	159	911
314	128	558
315	65	492
316	593	952
317	544	310
318	685	300
319	324	866
320	979	551
321	986	687
322	612	164
323	36	175
324	124	971
325	167	371
326	529	382
327	693	437
328	972	534
329	5	981
330	611	907
331	834	664
332	409	35
333	700	924
334	646	725
335	348	939
336	858	102
337	914	386
338	650	567
339	450	396
340	251	297
341	132	883
342	48	437
343	964	889
344	133	103
345	706	774
346	764	815
347	668	906
348	18	881
349	238	107
350	357	383
351	711	885
352	458	154
353	425	533
354	383	83
355	142	210
356	668	485
357	660	265
358	90	942
359	993	968
360	928	494
361	160	198
362	251	895
363	792	304
364	110	464
365	170	621
366	637	947
367	154	401
368	38	575
369	813	746
370	164	804
371	400	646
372	233	105
373	996	207
374	105	683
375	964	918
376	765	387
377	734	276
378	964	953
379	779	249
380	713	742
381	339	815
382	105	378
383	183	405
384	221	394
385	474	319
386	734	522
387	702	639
388	654	466
389	991	814
390	99	365
391	879	143
392	647	665
393	809	984
394	972	842
395	828	838
396	474	910
397	814	544
398	184	432
399	267	55
400	994	941
401	448	878
402	511	622
403	913	389
404	319	141
405	211	461
406	244	811
407	675	829
408	318	511
409	176	490
410	374	765
411	94	101
412	728	434
413	743	413
414	28	522
415	312	779
416	546	442
417	466	84
418	620	490
419	85	328
420	210	424
421	484	511
422	32	369
423	560	870
424	464	907
425	345	134
426	985	831
427	504	775
428	998	536
429	221	488
430	834	591
431	930	778
432	686	495
433	739	438
434	998	285
435	1	257
436	502	435
437	816	797
438	724	741
439	31	299
440	882	398
441	31	277
442	680	400
443	423	91
444	88	257
445	314	0
446	914	604
447	841	592
448	672	421
449	192	478
450	715	610
451	760	444
452	924	562
453	188	848
454	19	832
455	918	676
456	721	225
457	125	253
458	122	153
459	844	988
460	93	141
461	375	280
462	292	145
463	429	142
464	110	610
465	379	754
466	303	354
467	641	535
468	600	540
469	510	161
470	597	531
471	428	763
472	686	351
473	310	664
474	443	591
475	319	281
476	921	607
477	335	948
478	635	205
479	808	422
480	466	598
481	224	238
482	304	56
483	195	7
484	192	526
485	721	17
486	933	9
487	138	147
488	471	461
489	348	377
490	867	915
491	945	96
492	825	81
493	137	139
494	396	148
495	626	797
496	365	971
497	700	928
498	318	387
499	829	806
500	654	721
501	894	892
DEMAND_SECTION
1	0
2	3
3	7
4	9
5	1
6	7
7	6
8	9
9	5
10	2
11	8
12	2
13	2
14	3
15	8
16	9
17	4
18	4
19	8
20	1
21	5
22	4
23	1
24	5
25	4
26	3
27	2
28	7
29	4
30	5
31	7
32	4
33	1
34	9
35	4
36	3
37	2
38	5
39	5
40	6
41	6
42	7
43	1
44	9
45	8
46	4
47	1
48	5
49	7
50	9
51	6
52	8
53	7
54	2
55	9
56	5
57	4
58	9
59	2
60	3
61	5
62	4
63	9
64	8
65	2
66	4
67	2
68	6
69	8
70	6
71	4
72	6
73	3
74	9
75	8
76	9
77	8
78	9
79	5
80	7
81	7
82	6
83	3
84	9
85	8
86	4
87	4
88	9
89	4
90	5
91	2
92	7
93	1
94	9
95	9
96	4
97	3
98	1
99	8
100	6
101	4
102	4
103	8
104	5
105	2
106	2
107	7
108	3
109	7
110	9
111	5
112	1
113	9
114	4
115	5
116	8
117	3
118	1
119	5
120	1
121	8
122	4
123	9
124	6
125	3
126	3
127	8
128	8
129	8
130	6
131	9
132	7
133	7
134	6
135	1
136	4
137	2
138	5
139	1
140	8
141	9
142	2
143	8
144	9
145	5
146	4
147	4
148	4
149	6
150	7
151	3
152	4
153	4
154	1
155	8
156	6
157	4
158	5
159	8
160	6
161	1
162	2
163	6
164	8
165	6
166	8
167	3
168	4
169	9
170	3
171	2
172	3
173	7
174	6
175	1
176	5
177	8
178	7
179	1
180	5
181	6
182	7
183	6
184	1
185	1
186	3
187	5
188	8
189	4
190	1
191	7
192	1
193	5
194	4
195	5
196	5
197	5
198	8
199	2
200	7
201	3
202	4
203	6
204	6
205	3
206	7
207	6
208	2
209	9
210	8
211	5
212	1
213	9
214	3
215	2
216	2
217	8
218	6
219	3
220	9
221	6
222	6
223	9
224	4
225	2
226	2
227	3
228	8
229	2
230	3
231	8
232	5
233	1
234	1
235	3
236	7
237	5
238	1
239	4
240	5
241	6
242	3
243	5
244	3
245	2
246	7
247	8
248	9
249	5
250	1
251	2
252	2
253	1
254	1
255	6
256	2
257	7
258	3
259	6
260	8
261	1
262	9
263	4
264	2
265	3
266	6
267	9
268	5
269	5
270	9
271	9
272	2
273	3
274	8
275	9
276	2
277	5
278	3
279	1
280	9
281	3
282	3
283	9
284	6
285	3
286	7
287	6
288	1
289	8
290	6
291	7
292	7
293	3
294	4
295	1
296	8
297	7
298	8
299	7
300	4
301	6
302	1
303	1
304	8
305	2
306	8
307	3
308	5
309	4
310	5
311	8
312	4
313	7
314	6
315	6
316	7
317	9
318	4
319	8
320	2
321	2
322	1
323	4
324	6
325	9
326	3
327	9
328	8
329	5
330	9
331	5
332	8
333	2
334	9
335	4
336	4
337	6
338	2
339	1
340	8
341	6
342	9
343	6
344	4
345	8
346	6
347	6
348	2
349	3
350	2
351	4
352	4
353	8
354	4
355	5
356	8
357	7
358	3
359	2
360	6
361	6
362	3
363	6
364	6
365	6
366	5
367	4
368	3
369	2
370	8
371	7
372	2
373	1
374	2
375	6
376	9
377	5
378	3
379	9
380	9
381	2
382	9
383	3
384	5
385	5
386	8
387	5
388	4
389	8
390	4
391	8
392	9
393	7
394	4
395	4
396	5
397	4
398	8
399	6
400	8
401	7
402	8
403	6
404	9
405	7
406	8
407	9
408	9
409	4
410	4
411	5
412	2
413	8
414	7
415	2
416	4
417	5
418	6
419	2
420	8
421	1
422	3
423	9
424	4
425	8
426	6
427	5
428	2
429	6
430	7
431	6
432	6
433	9
434	9
435	4
436	8
437	2
438	7
439	3
440	5
441	9
442	7
443	8
444	4
445	7
446	5
447	1
448	8
449	2
450	3
451	8
452	5
453	4
454	6
455	7
456	2
457	8
458	5
459	1
460	9
461	2
462	7
463	3
464	1
465	3
466	7
467	9
468	4
469	4
470	4
471	8
472	3
473	7
474	4
475	4
476	7
477	6
478	9
479	8
480	5
481	6
482	4
483	7
484	8
485	3
486	6
487	2
488	5
489	5
490	2
491	9
492	9
493	3
494	2
495	8
496	8
497	8
498	5
499	1
500	9
501	8
BACKHAUL_SECTION
5	11	13	14	19	24	27	31	39	42	45	54	57	58	60	61	63	72	74	80	104	110	111	122	126	128	135	138	140	142	143	163	164	170	174	197	202	203	204	210	212	214	215	223	230	232	234	235	238	246	247	254	257	261	262	266	268	287	288	289	290	293	301	306	310	317	324	327	330	337	339	340	351	354	356	358	373	383	384	401	402	405	407	413	417	421	426	429	432	434	438	448	459	469	471	476	481	493	498	500	-1
DEPOT_SECTION
1
-1
EOF
