NAME : n501-0032
COMMENT : "Generated by pyvrp_manuel (OVRPB)"
TYPE : OVRPB
DIMENSION : 501
EDGE_WEIGHT_TYPE : EUC_2D
CAPACITY : 100
VEHICLES : 500
OPEN_ROUTE : YES
NODE_COORD_SECTION
1	880	427
2	445	972
3	803	900
4	392	93
5	172	485
6	781	864
7	791	274
8	968	536
9	108	659
10	937	342
11	980	48
12	865	847
13	416	321
14	727	808
15	378	148
16	552	684
17	338	237
18	327	441
19	243	632
20	159	983
21	543	500
22	588	669
23	592	161
24	890	246
25	373	610
26	942	600
27	673	739
28	940	848
29	334	649
30	601	501
31	435	608
32	980	266
33	561	202
34	474	416
35	737	313
36	566	728
37	985	245
38	381	429
39	658	266
40	433	932
41	746	108
42	415	239
43	999	104
44	463	368
45	319	345
46	923	708
47	234	213
48	512	213
49	930	565
50	588	165
51	849	307
52	889	810
53	758	865
54	767	32
55	919	819
56	151	393
57	215	639
58	61	615
59	417	244
60	50	625
61	430	549
62	369	879
63	469	555
64	898	700
65	341	327
66	71	432
67	123	225
68	863	883
69	622	758
70	895	93
71	140	57
72	4	660
73	401	220
74	812	531
75	294	135
76	416	225
77	906	130
78	938	806
79	263	287
80	316	155
81	248	869
82	59	245
83	292	450
84	111	125
85	346	28
86	799	152
87	246	2
88	323	415
89	668	378
90	129	961
91	511	588
92	179	69
93	555	147
94	163	497
95	468	92
96	574	969
97	212	364
98	601	307
99	124	143
100	17	718
101	60	407
102	562	820
103	660	932
104	935	339
105	918	120
106	636	51
107	615	871
108	328	443
109	441	374
110	725	999
111	654	58
112	544	740
113	822	212
114	588	462
115	321	213
116	104	216
117	536	986
118	739	75
119	917	202
120	548	358
121	621	204
122	856	276
123	394	827
124	318	200
125	865	240
126	311	118
127	645	253
128	138	460
129	8	217
130	197	802
131	378	531
132	303	335
133	747	520
134	307	480
135	117	913
136	508	869
137	157	641
138	850	872
139	551	529
140	235	850
141	925	815
142	166	76
143	986	341
144	446	310
145	860	338
146	594	476
147	670	869
148	673	920
149	1000	350
150	101	995
151	952	244
152	179	956
153	981	334
154	70	239
155	971	913
156	557	858
157	864	343
158	94	173
159	361	634
160	58	63
161	5	788
162	249	183
163	530	347
164	697	607
165	309	261
166	241	748
167	412	684
168	819	875
169	255	772
170	746	891
171	595	612
172	387	722
173	729	454
174	378	260
175	420	845
176	618	229
177	486	311
178	628	811
179	904	389
180	129	798
181	791	962
182	235	623
183	594	140
184	201	959
185	251	176
186	3	994
187	530	40
188	447	905
189	335	545
190	516	103
191	33	927
192	681	964
193	683	482
194	516	304
195	431	252
196	564	899
197	521	426
198	746	266
199	392	739
200	116	426
201	810	42
202	605	140
203	291	959
204	689	914
205	758	920
206	496	377
207	663	880
208	332	943
209	769	362
210	419	527
211	634	428
212	472	50
213	287	981
214	113	945
215	913	741
216	75	258
217	543	869
218	45	73
219	539	772
220	175	812
221	56	597
222	831	61
223	728	422
224	476	775
225	366	798
226	81	439
227	457	507
228	105	799
229	144	216
230	241	141
231	818	738
232	369	27
233	746	485
234	556	950
235	830	353
236	280	377
237	229	697
238	134	196
239	67	638
240	13	97
241	602	53
242	639	995
243	485	180
244	479	105
245	87	207
246	980	494
247	591	839
248	930	999
249	193	825
250	550	643
251	533	488
252	444	677
253	2	387
254	618	318
255	545	771
256	732	598
257	834	424
258	565	138
259	166	513
260	691	922
261	324	928
262	858	828
263	612	780
264	234	797
265	667	271
266	526	229
267	300	71
268	704	174
269	430	828
270	700	60
271	422	562
272	931	606
273	963	183
274	391	104
275	757	796
276	57	726
277	372	781
278	111	156
279	467	858
280	621	999
281	153	811
282	623	910
283	179	451
284	545	221
285	235	392
286	380	335
287	202	989
288	140	863
289	832	601
290	411	377
291	270	495
292	178	585
293	772	380
294	81	187
295	243	998
296	772	641
297	590	921
298	973	753
299	831	135
300	8	739
301	747	311
302	498	484
303	269	710
304	237	326
305	576	77
306	11	113
307	479	844
308	284	776
309	539	60
310	633	994
311	675	777
312	648	19
313	384	406
314	827	251
315	815	176
316	522	390
317	166	912
318	674	986
319	27	698
320	874	851
321	749	863
322	213	4
323	857	779
324	342	335
325	332	483
326	492	678
327	511	316
328	484	587
329	677	631
330	896	979
331	442	975
332	827	866
333	237	533
334	898	924
335	593	33
336	949	246
337	653	609
338	446	12
339	273	923
340	44	438
341	860	415
342	676	712
343	430	639
344	932	445
345	894	184
346	422	815
347	867	532
348	545	265
349	668	167
350	641	583
351	252	108
352	993	177
353	671	652
354	382	262
355	186	124
356	675	439
357	585	792
358	857	831
359	107	515
360	490	55
361	499	236
362	366	313
363	405	622
364	772	242
365	544	995
366	317	68
367	566	226
368	221	677
369	187	966
370	473	322
371	777	985
372	491	133
373	678	610
374	397	368
375	194	156
376	532	559
377	496	136
378	637	874
379	375	272
380	814	97
381	258	957
382	888	592
383	950	894
384	778	104
385	705	989
386	740	102
387	665	479
388	788	922
389	933	868
390	734	788
391	553	577
392	838	673
393	512	899
394	698	168
395	859	23
396	731	751
397	402	544
398	63	292
399	7	534
400	560	935
401	377	461
402	343	267
403	828	27
404	392	68
405	723	612
406	636	305
407	725	474
408	211	968
409	12	589
410	907	690
411	369	545
412	126	509
413	574	173
414	951	58
415	138	234
416	830	194
417	343	973
418	451	616
419	362	198
420	248	65
421	416	133
422	231	259
423	767	397
424	279	714
425	664	665
426	873	764
427	699	369
428	458	304
429	134	168
430	925	801
431	580	500
432	328	193
433	408	188
434	630	233
435	848	575
436	57	36
437	609	926
438	445	951
439	596	703
440	985	687
441	732	556
442	841	949
443	697	947
444	971	487
445	492	577
446	221	619
447	373	355
448	361	514
449	634	404
450	937	49
451	16	909
452	928	915
453	21	733
454	803	957
455	486	708
456	876	317
457	880	721
458	357	555
459	570	125
460	143	269
461	190	187
462	896	842
463	771	737
464	341	474
465	318	87
466	480	867
467	642	825
468	974	684
469	598	653
470	408	555
471	747	988
472	905	105
473	128	827
474	475	809
475	98	489
476	580	404
477	88	525
478	670	350
479	496	156
480	76	513
481	500	73
482	595	486
483	620	948
484	967	939
485	215	818
486	801	418
487	539	406
488	963	977
489	223	363
490	94	461
491	44	410
492	15	460
493	769	307
494	784	805
495	590	688
496	362	683
497	683	43
498	903	842
499	590	830
500	372	643
501	215	410
DEMAND_SECTION
1	0
2	2
3	1
4	2
5	5
6	8
7	6
8	3
9	8
10	1
11	7
12	9
13	3
14	3
15	9
16	1
17	8
18	6
19	2
20	8
21	2
22	3
23	3
24	5
25	6
26	9
27	5
28	8
29	6
30	5
31	7
32	3
33	4
34	1
35	8
36	1
37	7
38	9
39	7
40	5
41	2
42	4
43	4
44	4
45	4
46	3
47	5
48	8
49	1
50	9
51	3
52	3
53	4
54	7
55	8
56	6
57	5
58	9
59	9
60	1
61	2
62	2
63	4
64	1
65	7
66	7
67	8
68	3
69	4
70	2
71	7
72	7
73	5
74	2
75	1
76	8
77	8
78	9
79	1
80	3
81	2
82	3
83	5
84	7
85	8
86	6
87	4
88	5
89	5
90	5
91	1
92	8
93	8
94	6
95	7
96	6
97	9
98	1
99	5
100	5
101	6
102	9
103	8
104	4
105	6
106	3
107	7
108	6
109	4
110	8
111	8
112	4
113	8
114	8
115	1
116	5
117	3
118	3
119	2
120	6
121	6
122	6
123	9
124	2
125	1
126	5
127	8
128	2
129	4
130	9
131	7
132	8
133	1
134	5
135	1
136	2
137	7
138	6
139	7
140	3
141	1
142	4
143	2
144	1
145	6
146	9
147	5
148	9
149	4
150	8
151	6
152	3
153	3
154	5
155	4
156	1
157	7
158	5
159	5
160	3
161	9
162	8
163	2
164	2
165	4
166	8
167	3
168	6
169	1
170	8
171	6
172	7
173	9
174	1
175	3
176	4
177	8
178	9
179	7
180	3
181	9
182	2
183	6
184	4
185	9
186	1
187	8
188	2
189	3
190	3
191	8
192	2
193	6
194	6
195	3
196	4
197	1
198	3
199	9
200	6
201	7
202	6
203	5
204	9
205	7
206	2
207	8
208	5
209	3
210	6
211	8
212	1
213	6
214	4
215	2
216	3
217	9
218	7
219	4
220	9
221	3
222	7
223	2
224	7
225	8
226	8
227	9
228	3
229	3
230	3
231	2
232	3
233	7
234	2
235	7
236	5
237	7
238	6
239	9
240	5
241	7
242	4
243	4
244	1
245	1
246	7
247	7
248	7
249	5
250	3
251	8
252	6
253	1
254	6
255	6
256	9
257	7
258	9
259	2
260	8
261	1
262	3
263	1
264	2
265	5
266	5
267	1
268	1
269	8
270	4
271	7
272	1
273	3
274	4
275	4
276	6
277	7
278	1
279	6
280	7
281	9
282	9
283	1
284	9
285	7
286	8
287	5
288	3
289	7
290	7
291	7
292	1
293	3
294	7
295	8
296	2
297	6
298	3
299	9
300	5
301	9
302	9
303	1
304	6
305	2
306	7
307	6
308	8
309	2
310	4
311	8
312	5
313	3
314	2
315	7
316	6
317	1
318	1
319	1
320	8
321	4
322	7
323	1
324	9
325	7
326	9
327	2
328	7
329	6
330	1
331	5
332	8
333	6
334	5
335	1
336	8
337	1
338	6
339	3
340	1
341	7
342	7
343	3
344	3
345	2
346	6
347	7
348	5
349	9
350	5
351	9
352	5
353	1
354	7
355	3
356	8
357	1
358	8
359	9
360	8
361	4
362	9
363	4
364	1
365	9
366	6
367	7
368	6
369	1
370	9
371	2
372	7
373	8
374	8
375	6
376	9
377	5
378	5
379	6
380	7
381	1
382	9
383	8
384	9
385	8
386	7
387	7
388	5
389	8
390	2
391	1
392	9
393	8
394	9
395	6
396	5
397	9
398	7
399	2
400	4
401	3
402	2
403	4
404	4
405	7
406	4
407	4
408	5
409	3
410	6
411	7
412	4
413	2
414	2
415	9
416	3
417	7
418	1
419	5
420	3
421	1
422	2
423	1
424	3
425	9
426	7
427	3
428	6
429	2
430	5
431	3
432	9
433	2
434	5
435	6
436	6
437	1
438	4
439	2
440	5
441	4
442	5
443	6
444	2
445	1
446	8
447	3
448	1
449	1
450	5
451	3
452	4
453	8
454	9
455	6
456	6
457	1
458	4
459	3
460	9
461	9
462	4
463	4
464	3
465	8
466	2
467	8
468	9
469	3
470	1
471	8
472	3
473	8
474	7
475	9
476	4
477	2
478	4
479	7
480	2
481	9
482	4
483	4
484	5
485	6
486	7
487	5
488	5
489	5
490	8
491	9
492	3
493	7
494	7
495	7
496	5
497	5
498	9
499	3
500	7
501	5
BACKHAUL_SECTION
5	11	13	14	19	24	27	31	39	42	45	54	57	58	60	61	63	72	74	80	104	110	111	122	126	128	135	138	140	142	143	163	164	170	174	197	202	203	204	210	212	214	215	223	230	232	234	235	238	246	247	254	257	261	262	266	268	287	288	289	290	293	301	306	310	317	324	327	330	337	339	340	351	354	356	358	373	383	384	401	402	405	407	413	417	421	426	429	432	434	438	448	459	469	471	476	481	493	498	500	-1
DEPOT_SECTION
1
-1
EOF
