NAME : n1001-0014
COMMENT : "Generated by pyvrp_manuel (VRPBL)"
TYPE : VRPBL
DIMENSION : 1001
EDGE_WEIGHT_TYPE : EUC_2D
CAPACITY : 150
VEHICLES : 1000
DISTANCE : 3000
NODE_COORD_SECTION
1	763	767
2	92	247
3	303	331
4	201	147
5	204	16
6	741	70
7	978	456
8	249	912
9	844	555
10	266	935
11	820	467
12	537	500
13	342	416
14	988	275
15	652	163
16	608	631
17	89	566
18	660	121
19	198	441
20	371	402
21	744	169
22	926	72
23	56	345
24	362	674
25	501	342
26	211	94
27	428	85
28	289	747
29	988	281
30	556	541
31	745	912
32	112	645
33	717	998
34	509	429
35	612	19
36	192	175
37	991	632
38	163	673
39	283	86
40	856	124
41	373	612
42	451	272
43	121	609
44	639	904
45	54	157
46	513	274
47	540	724
48	996	204
49	55	223
50	63	118
51	58	192
52	650	672
53	479	671
54	171	101
55	497	115
56	780	838
57	501	710
58	538	432
59	47	390
60	654	327
61	865	996
62	563	664
63	333	196
64	218	941
65	476	644
66	800	627
67	876	490
68	537	286
69	722	373
70	769	882
71	34	587
72	42	317
73	802	563
74	991	284
75	76	635
76	772	368
77	472	154
78	86	455
79	613	278
80	173	283
81	621	454
82	128	340
83	964	385
84	504	52
85	44	923
86	808	780
87	626	920
88	31	216
89	151	801
90	797	994
91	628	531
92	735	484
93	494	23
94	618	854
95	361	950
96	136	804
97	33	273
98	632	949
99	1	48
100	351	661
101	561	385
102	23	635
103	604	963
104	595	698
105	730	425
106	723	622
107	535	751
108	167	705
109	625	230
110	651	910
111	803	872
112	958	852
113	608	901
114	869	12
115	49	948
116	280	510
117	919	332
118	317	399
119	936	574
120	988	462
121	894	59
122	709	326
123	355	483
124	794	405
125	811	37
126	958	284
127	314	996
128	257	965
129	402	460
130	512	603
131	334	138
132	29	568
133	66	157
134	74	527
135	250	940
136	394	481
137	296	646
138	312	232
139	359	894
140	495	821
141	22	246
142	341	407
143	504	576
144	13	84
145	513	870
146	894	577
147	442	481
148	182	796
149	174	736
150	556	905
151	349	302
152	171	134
153	683	125
154	219	762
155	328	609
156	37	320
157	574	992
158	933	195
159	465	274
160	379	461
161	962	951
162	541	273
163	970	488
164	830	599
165	537	931
166	440	170
167	280	533
168	46	418
169	453	60
170	577	511
171	606	819
172	862	22
173	105	868
174	133	956
175	807	577
176	572	951
177	101	347
178	858	863
179	322	841
180	571	48
181	637	415
182	879	558
183	212	246
184	76	813
185	862	549
186	628	180
187	150	214
188	945	477
189	311	925
190	385	349
191	306	684
192	470	332
193	249	934
194	158	943
195	298	695
196	530	882
197	673	727
198	31	62
199	456	822
200	868	76
201	469	456
202	26	28
203	731	913
204	379	901
205	64	214
206	711	316
207	60	298
208	211	538
209	473	630
210	968	153
211	555	991
212	155	847
213	784	421
214	57	395
215	472	941
216	369	592
217	919	835
218	753	928
219	898	539
220	373	98
221	472	759
222	261	239
223	476	432
224	964	119
225	532	132
226	721	638
227	147	747
228	733	742
229	121	538
230	572	762
231	766	72
232	825	250
233	443	683
234	589	35
235	696	278
236	791	53
237	221	610
238	857	552
239	297	902
240	580	286
241	973	494
242	799	262
243	173	928
244	881	52
245	980	734
246	766	396
247	64	422
248	848	323
249	528	555
250	627	529
251	957	47
252	64	127
253	942	755
254	60	17
255	40	463
256	543	671
257	772	982
258	530	696
259	463	577
260	857	581
261	623	47
262	833	742
263	320	401
264	136	375
265	380	763
266	402	580
267	719	547
268	96	955
269	548	570
270	796	424
271	330	928
272	488	767
273	132	998
274	30	645
275	331	293
276	76	680
277	383	66
278	245	528
279	697	955
280	774	754
281	239	522
282	644	135
283	804	23
284	20	350
285	864	573
286	207	208
287	889	279
288	110	62
289	105	364
290	756	863
291	767	224
292	680	325
293	590	694
294	952	813
295	206	630
296	86	560
297	355	608
298	371	726
299	414	797
300	875	570
301	365	878
302	664	109
303	699	692
304	524	797
305	140	631
306	879	237
307	50	600
308	757	2
309	776	224
310	84	675
311	741	809
312	11	633
313	458	585
314	365	557
315	274	110
316	372	914
317	206	520
318	526	241
319	189	803
320	210	656
321	926	140
322	891	72
323	254	131
324	813	97
325	151	951
326	773	450
327	201	614
328	192	26
329	898	226
330	478	630
331	986	629
332	885	727
333	726	460
334	487	77
335	486	876
336	512	784
337	327	849
338	545	557
339	519	344
340	685	236
341	411	719
342	561	629
343	562	827
344	747	8
345	144	178
346	904	547
347	596	759
348	356	212
349	194	589
350	875	7
351	760	379
352	108	577
353	376	589
354	595	266
355	595	153
356	348	919
357	6	202
358	705	880
359	416	334
360	369	366
361	987	502
362	879	775
363	431	615
364	688	916
365	83	118
366	473	73
367	594	130
368	603	907
369	890	946
370	844	395
371	546	97
372	625	715
373	814	744
374	714	498
375	924	287
376	348	15
377	953	644
378	624	704
379	918	876
380	876	143
381	299	518
382	730	331
383	723	710
384	958	568
385	470	405
386	234	174
387	281	817
388	14	551
389	913	817
390	275	931
391	558	304
392	538	945
393	887	109
394	49	438
395	253	196
396	964	991
397	317	509
398	25	485
399	136	558
400	737	992
401	758	787
402	208	339
403	184	337
404	87	785
405	119	938
406	288	416
407	593	874
408	749	882
409	211	379
410	491	60
411	994	504
412	449	480
413	149	204
414	39	861
415	72	742
416	992	970
417	854	409
418	464	234
419	924	116
420	168	216
421	892	930
422	46	952
423	849	576
424	712	903
425	765	754
426	515	182
427	265	513
428	442	214
429	819	622
430	293	461
431	439	591
432	847	928
433	995	435
434	940	83
435	605	578
436	27	56
437	443	214
438	985	66
439	770	582
440	172	201
441	822	743
442	153	890
443	894	442
444	440	686
445	449	743
446	227	451
447	125	596
448	646	237
449	324	267
450	232	421
451	593	323
452	108	219
453	277	848
454	719	753
455	105	26
456	600	652
457	27	699
458	727	978
459	406	333
460	794	466
461	281	480
462	270	455
463	322	735
464	953	340
465	840	356
466	999	489
467	759	591
468	757	575
469	199	198
470	353	705
471	334	955
472	473	237
473	518	225
474	697	365
475	290	637
476	340	202
477	666	729
478	432	801
479	804	511
480	851	565
481	388	249
482	141	513
483	212	111
484	527	198
485	825	861
486	538	634
487	705	381
488	42	206
489	336	260
490	175	293
491	743	971
492	395	835
493	128	434
494	930	382
495	891	648
496	148	188
497	948	5
498	132	196
499	321	519
500	736	707
501	495	692
502	871	661
503	494	200
504	187	963
505	464	235
506	731	89
507	531	73
508	391	229
509	818	521
510	410	708
511	219	118
512	91	728
513	351	220
514	76	759
515	840	137
516	697	737
517	749	47
518	374	355
519	994	453
520	728	31
521	641	59
522	96	273
523	163	55
524	80	250
525	69	766
526	273	690
527	841	487
528	20	187
529	30	536
530	593	563
531	148	948
532	690	699
533	927	225
534	137	66
535	590	251
536	772	460
537	337	949
538	246	223
539	627	856
540	881	742
541	844	46
542	935	867
543	855	593
544	224	98
545	382	891
546	146	638
547	630	299
548	175	866
549	325	303
550	232	284
551	680	326
552	834	105
553	886	945
554	945	912
555	364	532
556	883	427
557	460	853
558	717	210
559	207	312
560	785	301
561	64	12
562	875	808
563	873	858
564	456	866
565	811	998
566	621	626
567	244	700
568	135	238
569	53	188
570	510	487
571	510	92
572	426	289
573	503	54
574	786	484
575	85	715
576	718	509
577	276	605
578	184	347
579	760	498
580	153	427
581	514	521
582	632	888
583	900	422
584	736	505
585	250	824
586	149	233
587	981	325
588	590	844
589	84	929
590	897	828
591	875	31
592	742	491
593	962	356
594	179	342
595	933	347
596	769	77
597	138	208
598	933	479
599	837	498
600	584	838
601	830	708
602	180	997
603	115	774
604	168	477
605	410	330
606	878	712
607	118	642
608	301	533
609	102	363
610	832	829
611	985	109
612	892	286
613	661	856
614	988	599
615	307	899
616	240	18
617	85	939
618	28	318
619	422	343
620	879	836
621	10	994
622	19	520
623	457	721
624	451	164
625	723	155
626	393	308
627	301	147
628	512	846
629	221	27
630	484	717
631	647	785
632	649	616
633	336	964
634	3	672
635	153	784
636	130	18
637	25	550
638	379	84
639	215	638
640	297	954
641	23	199
642	350	527
643	635	748
644	597	418
645	432	480
646	334	872
647	53	272
648	483	228
649	848	602
650	416	276
651	475	376
652	462	558
653	435	957
654	457	386
655	482	129
656	744	366
657	536	505
658	302	507
659	891	819
660	780	847
661	35	939
662	894	73
663	475	707
664	518	639
665	820	935
666	849	564
667	890	116
668	38	434
669	340	804
670	47	16
671	969	921
672	23	796
673	742	786
674	730	4
675	525	959
676	346	615
677	33	772
678	824	949
679	669	211
680	694	87
681	623	125
682	15	265
683	206	661
684	930	530
685	797	697
686	297	752
687	106	765
688	588	986
689	600	37
690	755	257
691	197	697
692	265	259
693	748	839
694	951	166
695	156	703
696	403	993
697	312	797
698	548	80
699	508	978
700	759	83
701	566	557
702	813	266
703	199	892
704	449	987
705	228	689
706	321	474
707	608	72
708	473	991
709	854	396
710	515	254
711	499	373
712	51	166
713	549	513
714	521	321
715	706	659
716	363	974
717	253	364
718	19	268
719	154	136
720	592	168
721	458	301
722	898	926
723	568	1000
724	548	698
725	33	530
726	555	360
727	695	150
728	834	404
729	509	119
730	748	740
731	288	752
732	991	167
733	315	451
734	201	364
735	400	629
736	544	227
737	276	407
738	579	97
739	836	72
740	720	429
741	619	708
742	155	278
743	543	875
744	338	389
745	493	730
746	844	943
747	502	874
748	885	577
749	450	465
750	516	444
751	637	94
752	889	858
753	849	484
754	56	345
755	372	646
756	22	974
757	872	510
758	318	870
759	762	227
760	107	774
761	226	282
762	522	592
763	189	526
764	643	490
765	630	910
766	419	379
767	401	895
768	518	946
769	751	702
770	234	41
771	607	937
772	29	586
773	920	397
774	493	663
775	639	282
776	876	647
777	929	835
778	399	662
779	883	209
780	439	727
781	521	229
782	110	549
783	877	813
784	66	405
785	373	114
786	416	416
787	950	597
788	754	659
789	644	856
790	723	131
791	41	206
792	713	800
793	318	155
794	294	199
795	811	106
796	849	73
797	904	738
798	372	689
799	332	907
800	752	369
801	597	583
802	327	967
803	690	197
804	732	846
805	307	154
806	434	518
807	832	130
808	583	940
809	432	167
810	513	83
811	811	935
812	995	692
813	962	901
814	424	129
815	487	662
816	133	122
817	502	393
818	62	665
819	655	610
820	271	86
821	620	945
822	554	869
823	321	985
824	201	27
825	158	776
826	795	586
827	124	135
828	746	84
829	371	852
830	409	468
831	323	343
832	851	196
833	825	554
834	450	521
835	784	371
836	546	291
837	74	320
838	819	562
839	322	957
840	180	925
841	570	283
842	4	424
843	791	858
844	451	678
845	556	553
846	649	437
847	107	48
848	130	295
849	806	944
850	15	215
851	726	207
852	709	724
853	922	1
854	418	876
855	106	702
856	694	449
857	767	484
858	496	510
859	681	408
860	558	756
861	476	718
862	117	934
863	689	775
864	953	984
865	49	601
866	581	895
867	163	39
868	31	442
869	807	961
870	866	702
871	414	230
872	228	694
873	138	962
874	726	717
875	841	855
876	689	830
877	939	968
878	692	143
879	512	2
880	619	959
881	455	751
882	105	642
883	877	301
884	126	879
885	682	122
886	225	390
887	480	76
888	227	283
889	429	623
890	104	634
891	270	531
892	463	786
893	213	482
894	724	946
895	571	736
896	901	238
897	378	552
898	780	860
899	22	920
900	655	941
901	344	465
902	833	185
903	788	679
904	87	348
905	496	87
906	238	339
907	187	389
908	937	629
909	186	789
910	398	98
911	768	157
912	671	768
913	324	194
914	519	418
915	942	759
916	946	184
917	493	503
918	604	27
919	600	243
920	977	519
921	822	390
922	667	503
923	261	436
924	952	972
925	543	67
926	63	614
927	498	716
928	469	583
929	363	675
930	219	167
931	685	44
932	849	466
933	435	295
934	324	803
935	449	904
936	639	727
937	531	190
938	955	724
939	364	655
940	893	907
941	981	98
942	509	732
943	47	469
944	435	914
945	857	290
946	404	974
947	289	917
948	963	904
949	157	134
950	859	43
951	326	362
952	98	576
953	925	230
954	7	432
955	912	395
956	707	737
957	476	534
958	851	980
959	783	287
960	405	671
961	51	549
962	602	106
963	280	995
964	623	220
965	193	444
966	883	951
967	320	216
968	232	556
969	930	362
970	925	668
971	828	366
972	51	293
973	366	282
974	864	236
975	97	986
976	92	145
977	356	187
978	996	602
979	929	7
980	694	309
981	190	894
982	536	973
983	386	95
984	922	794
985	185	351
986	843	939
987	4	726
988	258	894
989	325	39
990	903	462
991	787	252
992	590	160
993	991	471
994	531	211
995	954	433
996	700	738
997	938	238
998	724	422
999	213	218
1000	532	777
1001	295	759
DEMAND_SECTION
1	0
2	4
3	2
4	7
5	6
6	7
7	1
8	5
9	9
10	7
11	7
12	4
13	1
14	4
15	8
16	5
17	5
18	5
19	2
20	6
21	8
22	8
23	8
24	7
25	1
26	2
27	3
28	8
29	5
30	6
31	8
32	8
33	1
34	1
35	6
36	3
37	9
38	1
39	3
40	7
41	1
42	4
43	1
44	5
45	7
46	2
47	8
48	4
49	5
50	3
51	5
52	7
53	9
54	1
55	8
56	8
57	2
58	8
59	7
60	7
61	6
62	5
63	4
64	2
65	2
66	9
67	3
68	1
69	9
70	6
71	5
72	1
73	4
74	8
75	8
76	4
77	9
78	8
79	6
80	3
81	6
82	7
83	7
84	2
85	3
86	7
87	9
88	5
89	3
90	5
91	6
92	2
93	9
94	6
95	2
96	8
97	3
98	1
99	6
100	3
101	7
102	7
103	4
104	5
105	6
106	2
107	6
108	7
109	5
110	3
111	1
112	6
113	7
114	8
115	5
116	4
117	1
118	5
119	8
120	9
121	8
122	1
123	5
124	6
125	3
126	7
127	4
128	8
129	4
130	7
131	2
132	5
133	2
134	8
135	8
136	2
137	8
138	8
139	4
140	8
141	8
142	7
143	9
144	2
145	4
146	4
147	8
148	3
149	7
150	4
151	6
152	5
153	6
154	8
155	1
156	6
157	5
158	3
159	6
160	9
161	8
162	2
163	6
164	7
165	9
166	3
167	7
168	7
169	8
170	7
171	7
172	2
173	8
174	2
175	5
176	5
177	2
178	6
179	2
180	7
181	7
182	2
183	8
184	9
185	6
186	8
187	5
188	1
189	3
190	9
191	1
192	2
193	8
194	6
195	5
196	9
197	8
198	9
199	6
200	6
201	8
202	1
203	5
204	5
205	3
206	1
207	3
208	4
209	5
210	9
211	2
212	2
213	1
214	6
215	5
216	7
217	4
218	2
219	5
220	8
221	8
222	3
223	6
224	1
225	3
226	5
227	4
228	6
229	4
230	8
231	4
232	9
233	8
234	7
235	3
236	6
237	1
238	7
239	9
240	9
241	4
242	1
243	6
244	5
245	1
246	1
247	2
248	5
249	4
250	2
251	8
252	7
253	4
254	6
255	6
256	1
257	3
258	8
259	7
260	2
261	5
262	8
263	3
264	9
265	9
266	8
267	6
268	3
269	4
270	7
271	6
272	4
273	2
274	5
275	6
276	7
277	1
278	4
279	1
280	1
281	7
282	6
283	8
284	8
285	5
286	4
287	7
288	2
289	5
290	3
291	4
292	9
293	8
294	6
295	8
296	2
297	9
298	5
299	9
300	8
301	6
302	3
303	2
304	3
305	4
306	8
307	4
308	1
309	9
310	2
311	7
312	7
313	9
314	3
315	8
316	1
317	5
318	6
319	4
320	6
321	2
322	9
323	1
324	4
325	6
326	7
327	6
328	6
329	4
330	3
331	2
332	2
333	5
334	4
335	2
336	9
337	6
338	9
339	6
340	8
341	8
342	7
343	5
344	1
345	7
346	1
347	9
348	8
349	3
350	1
351	1
352	5
353	4
354	1
355	9
356	6
357	5
358	5
359	1
360	3
361	3
362	3
363	4
364	1
365	1
366	4
367	9
368	7
369	9
370	9
371	4
372	4
373	4
374	4
375	2
376	8
377	2
378	4
379	2
380	2
381	4
382	4
383	4
384	4
385	4
386	7
387	4
388	3
389	3
390	9
391	5
392	1
393	4
394	6
395	7
396	3
397	8
398	7
399	7
400	2
401	6
402	4
403	6
404	2
405	7
406	5
407	6
408	8
409	7
410	8
411	1
412	6
413	7
414	6
415	3
416	7
417	2
418	3
419	9
420	9
421	1
422	5
423	5
424	1
425	4
426	3
427	9
428	2
429	9
430	4
431	4
432	3
433	5
434	4
435	9
436	1
437	5
438	9
439	9
440	2
441	3
442	3
443	7
444	7
445	4
446	8
447	5
448	4
449	7
450	4
451	7
452	2
453	5
454	3
455	1
456	7
457	3
458	6
459	6
460	2
461	8
462	1
463	8
464	1
465	9
466	8
467	1
468	7
469	7
470	4
471	9
472	9
473	9
474	9
475	6
476	9
477	8
478	7
479	9
480	2
481	6
482	8
483	7
484	7
485	1
486	1
487	3
488	6
489	9
490	3
491	7
492	6
493	3
494	9
495	6
496	5
497	4
498	9
499	2
500	6
501	2
502	9
503	7
504	4
505	2
506	3
507	2
508	9
509	7
510	5
511	9
512	4
513	4
514	7
515	2
516	9
517	5
518	7
519	4
520	4
521	9
522	2
523	9
524	7
525	3
526	8
527	7
528	7
529	6
530	9
531	4
532	5
533	8
534	5
535	7
536	3
537	9
538	4
539	4
540	8
541	5
542	8
543	1
544	7
545	3
546	4
547	6
548	4
549	7
550	9
551	7
552	2
553	9
554	9
555	7
556	6
557	1
558	6
559	4
560	6
561	5
562	8
563	6
564	7
565	2
566	1
567	7
568	3
569	7
570	5
571	5
572	5
573	6
574	4
575	5
576	8
577	6
578	5
579	5
580	6
581	2
582	6
583	4
584	7
585	6
586	7
587	4
588	8
589	9
590	5
591	4
592	4
593	1
594	3
595	6
596	7
597	5
598	5
599	3
600	8
601	9
602	9
603	5
604	3
605	3
606	8
607	9
608	1
609	7
610	2
611	4
612	3
613	7
614	6
615	2
616	3
617	3
618	5
619	6
620	5
621	5
622	2
623	7
624	5
625	8
626	3
627	5
628	9
629	7
630	4
631	2
632	3
633	7
634	1
635	9
636	3
637	5
638	9
639	8
640	7
641	4
642	7
643	9
644	8
645	2
646	2
647	1
648	2
649	2
650	2
651	6
652	6
653	2
654	4
655	1
656	9
657	6
658	5
659	4
660	7
661	4
662	6
663	9
664	9
665	8
666	7
667	2
668	5
669	4
670	9
671	8
672	1
673	1
674	4
675	2
676	3
677	4
678	9
679	4
680	4
681	4
682	9
683	2
684	9
685	9
686	1
687	3
688	9
689	7
690	9
691	4
692	6
693	8
694	4
695	2
696	6
697	6
698	6
699	5
700	2
701	9
702	8
703	3
704	4
705	4
706	7
707	3
708	8
709	5
710	9
711	7
712	7
713	7
714	1
715	2
716	4
717	3
718	9
719	4
720	8
721	9
722	5
723	8
724	1
725	9
726	1
727	5
728	9
729	9
730	1
731	7
732	8
733	6
734	9
735	1
736	2
737	4
738	1
739	1
740	4
741	3
742	8
743	9
744	2
745	4
746	6
747	9
748	6
749	4
750	8
751	1
752	6
753	8
754	7
755	8
756	6
757	1
758	8
759	4
760	8
761	1
762	7
763	7
764	7
765	8
766	2
767	7
768	3
769	9
770	9
771	9
772	6
773	3
774	6
775	6
776	5
777	2
778	4
779	2
780	5
781	9
782	1
783	2
784	7
785	1
786	2
787	5
788	3
789	7
790	9
791	6
792	2
793	2
794	8
795	1
796	5
797	9
798	1
799	5
800	4
801	9
802	2
803	3
804	7
805	4
806	7
807	5
808	3
809	5
810	5
811	3
812	6
813	8
814	6
815	4
816	4
817	3
818	9
819	5
820	9
821	8
822	2
823	4
824	5
825	1
826	7
827	3
828	5
829	5
830	4
831	4
832	9
833	9
834	8
835	9
836	1
837	6
838	1
839	2
840	1
841	9
842	7
843	5
844	4
845	4
846	8
847	6
848	9
849	4
850	7
851	3
852	5
853	3
854	6
855	6
856	4
857	8
858	7
859	7
860	3
861	5
862	9
863	7
864	6
865	7
866	1
867	7
868	5
869	4
870	8
871	7
872	4
873	7
874	4
875	2
876	8
877	2
878	6
879	3
880	1
881	1
882	6
883	8
884	5
885	4
886	6
887	9
888	7
889	5
890	9
891	6
892	7
893	7
894	5
895	9
896	8
897	4
898	9
899	1
900	7
901	2
902	7
903	1
904	9
905	4
906	2
907	7
908	2
909	7
910	7
911	3
912	3
913	2
914	9
915	2
916	7
917	3
918	8
919	9
920	7
921	6
922	6
923	9
924	5
925	9
926	2
927	1
928	1
929	6
930	9
931	5
932	2
933	4
934	8
935	9
936	1
937	4
938	9
939	5
940	5
941	5
942	4
943	4
944	9
945	1
946	9
947	4
948	7
949	7
950	6
951	9
952	4
953	2
954	4
955	5
956	7
957	4
958	3
959	8
960	8
961	9
962	4
963	1
964	5
965	3
966	9
967	9
968	4
969	8
970	5
971	4
972	6
973	7
974	1
975	7
976	6
977	7
978	2
979	9
980	8
981	8
982	4
983	5
984	9
985	5
986	8
987	7
988	2
989	8
990	8
991	4
992	5
993	5
994	5
995	5
996	3
997	1
998	4
999	4
1000	9
1001	3
BACKHAUL_SECTION
2	6	10	15	19	27	30	38	41	42	53	55	57	58	62	67	68	82	85	92	95	104	107	108	115	116	122	125	128	138	143	148	158	171	178	183	189	193	205	206	207	210	211	214	217	230	233	241	243	266	267	270	277	284	285	296	305	306	307	308	310	312	326	330	332	333	342	347	354	362	366	370	385	400	405	413	414	418	420	421	428	438	444	450	452	455	456	459	460	463	464	467	474	481	486	503	504	511	518	519	521	522	523	524	527	530	533	534	536	542	547	558	562	563	568	572	573	576	578	579	584	587	590	594	603	605	610	614	615	617	635	637	638	639	645	657	667	668	671	679	680	685	686	694	697	698	709	728	731	734	736	737	739	740	745	746	749	762	764	771	776	781	789	798	799	802	804	807	813	828	840	841	848	855	863	867	875	876	879	881	890	895	897	912	934	936	941	942	948	951	969	970	973	974	975	979	984	989	991	998	-1
DEPOT_SECTION
1
-1
EOF
