NAME : n1001-0004
COMMENT : "Generated by pyvrp_manuel (VRPBL)"
TYPE : VRPBL
DIMENSION : 1001
EDGE_WEIGHT_TYPE : EUC_2D
CAPACITY : 150
VEHICLES : 1000
DISTANCE : 3000
NODE_COORD_SECTION
1	162	855
2	501	267
3	209	474
4	930	689
5	331	254
6	719	842
7	844	57
8	957	740
9	468	308
10	408	747
11	298	588
12	632	626
13	42	829
14	330	963
15	208	515
16	252	387
17	367	985
18	704	486
19	797	961
20	248	171
21	632	486
22	815	271
23	888	118
24	182	685
25	86	329
26	628	354
27	852	123
28	982	415
29	149	671
30	713	566
31	320	995
32	802	232
33	712	615
34	800	631
35	408	730
36	667	666
37	31	624
38	579	769
39	345	614
40	857	226
41	362	615
42	712	48
43	435	179
44	64	460
45	848	827
46	350	826
47	789	208
48	21	762
49	495	575
50	606	841
51	174	831
52	668	981
53	65	707
54	945	294
55	99	267
56	749	124
57	43	747
58	299	880
59	674	999
60	656	700
61	881	110
62	24	501
63	608	758
64	547	1
65	487	222
66	653	952
67	440	361
68	622	291
69	897	784
70	686	481
71	431	824
72	982	587
73	523	764
74	219	554
75	244	525
76	401	263
77	960	84
78	938	559
79	858	422
80	380	602
81	893	297
82	215	760
83	858	255
84	269	332
85	963	55
86	177	687
87	990	212
88	958	924
89	647	208
90	372	485
91	442	809
92	673	457
93	515	592
94	611	889
95	88	436
96	509	843
97	536	587
98	967	626
99	285	891
100	635	425
101	99	904
102	461	97
103	812	652
104	944	73
105	393	596
106	401	828
107	358	557
108	334	881
109	86	805
110	428	291
111	236	491
112	358	881
113	284	179
114	893	301
115	917	151
116	107	406
117	632	307
118	141	829
119	553	263
120	747	232
121	629	93
122	327	64
123	38	363
124	375	562
125	841	524
126	162	479
127	529	73
128	243	433
129	851	968
130	558	127
131	393	463
132	719	621
133	841	327
134	494	495
135	352	685
136	209	154
137	37	356
138	761	256
139	510	150
140	104	941
141	857	51
142	70	332
143	977	967
144	95	561
145	452	72
146	698	125
147	374	460
148	970	760
149	201	340
150	929	228
151	199	133
152	262	996
153	816	540
154	226	634
155	186	819
156	562	908
157	514	38
158	506	878
159	464	14
160	600	611
161	340	451
162	905	786
163	125	437
164	328	296
165	886	896
166	847	581
167	506	388
168	472	946
169	370	548
170	293	940
171	702	605
172	337	145
173	6	174
174	824	152
175	885	636
176	71	729
177	592	326
178	78	359
179	806	816
180	855	497
181	224	464
182	439	503
183	774	410
184	616	70
185	590	842
186	202	268
187	148	488
188	950	258
189	433	101
190	635	20
191	392	262
192	25	203
193	554	310
194	429	803
195	785	116
196	205	678
197	1	260
198	568	64
199	930	638
200	230	262
201	734	345
202	211	712
203	113	571
204	131	200
205	298	666
206	991	32
207	917	423
208	484	917
209	132	106
210	619	379
211	700	550
212	484	261
213	708	581
214	50	374
215	199	746
216	150	535
217	75	726
218	329	67
219	34	377
220	306	797
221	443	820
222	226	531
223	621	810
224	361	707
225	448	453
226	893	695
227	78	893
228	5	26
229	801	692
230	77	2
231	548	624
232	923	890
233	355	827
234	73	292
235	921	591
236	180	285
237	413	778
238	990	254
239	720	352
240	844	998
241	282	423
242	259	287
243	814	78
244	405	716
245	562	47
246	701	545
247	283	510
248	190	270
249	355	246
250	420	963
251	733	185
252	857	404
253	485	205
254	562	299
255	195	366
256	419	580
257	819	95
258	751	434
259	151	559
260	144	714
261	966	542
262	904	775
263	831	639
264	261	194
265	551	308
266	493	271
267	228	503
268	422	91
269	14	398
270	735	223
271	113	495
272	176	459
273	344	826
274	978	192
275	640	75
276	980	946
277	179	640
278	7	609
279	203	698
280	727	680
281	282	864
282	718	568
283	333	429
284	365	861
285	495	488
286	570	229
287	249	326
288	118	287
289	521	970
290	226	98
291	106	41
292	971	280
293	344	951
294	643	776
295	292	549
296	493	468
297	979	891
298	516	473
299	920	155
300	121	639
301	92	481
302	488	901
303	511	857
304	749	401
305	349	458
306	206	891
307	195	301
308	279	687
309	936	676
310	517	941
311	437	438
312	745	249
313	937	653
314	353	419
315	809	913
316	722	282
317	626	107
318	625	899
319	419	965
320	71	90
321	78	951
322	931	881
323	285	397
324	222	608
325	46	721
326	364	890
327	135	563
328	551	9
329	75	676
330	669	277
331	229	352
332	102	962
333	366	16
334	336	51
335	567	805
336	965	337
337	692	590
338	148	814
339	185	392
340	14	219
341	405	80
342	759	188
343	268	165
344	881	646
345	352	504
346	584	259
347	508	369
348	403	768
349	856	476
350	234	128
351	23	83
352	303	328
353	113	335
354	450	916
355	913	732
356	853	708
357	699	237
358	917	474
359	503	375
360	856	922
361	55	963
362	750	810
363	235	545
364	189	557
365	237	905
366	366	94
367	580	631
368	615	111
369	289	123
370	85	352
371	381	51
372	950	704
373	858	837
374	191	544
375	925	388
376	400	22
377	373	55
378	138	125
379	452	182
380	406	133
381	643	623
382	193	53
383	874	51
384	132	86
385	625	50
386	89	527
387	635	135
388	65	109
389	188	649
390	461	360
391	303	875
392	925	777
393	775	534
394	815	212
395	795	723
396	18	705
397	847	914
398	483	86
399	676	217
400	472	335
401	817	976
402	797	909
403	375	599
404	969	767
405	795	6
406	23	569
407	604	148
408	311	583
409	398	95
410	483	773
411	496	970
412	755	193
413	826	803
414	934	894
415	189	31
416	451	258
417	338	11
418	897	159
419	183	529
420	229	916
421	110	3
422	870	184
423	906	950
424	425	78
425	378	796
426	807	469
427	735	811
428	176	299
429	898	956
430	763	663
431	427	533
432	5	348
433	560	422
434	836	984
435	374	294
436	187	147
437	636	759
438	19	93
439	966	429
440	546	846
441	488	14
442	205	185
443	535	417
444	536	60
445	588	841
446	15	207
447	446	663
448	133	113
449	909	989
450	876	897
451	611	468
452	688	812
453	636	418
454	764	606
455	133	351
456	704	775
457	783	525
458	864	98
459	527	268
460	210	522
461	801	141
462	649	336
463	555	25
464	900	882
465	193	585
466	639	640
467	513	913
468	700	325
469	941	83
470	317	421
471	282	628
472	551	751
473	420	834
474	276	889
475	426	822
476	213	947
477	903	817
478	233	2
479	283	189
480	818	729
481	937	455
482	948	949
483	499	132
484	204	765
485	944	445
486	869	708
487	275	972
488	372	770
489	679	271
490	201	723
491	480	757
492	302	686
493	503	971
494	257	374
495	145	853
496	825	313
497	964	422
498	466	449
499	861	917
500	705	300
501	157	613
502	310	785
503	768	850
504	313	193
505	701	532
506	907	799
507	255	547
508	557	340
509	438	741
510	688	77
511	265	563
512	927	299
513	628	912
514	839	871
515	750	765
516	691	310
517	986	808
518	718	159
519	8	498
520	292	240
521	636	835
522	136	735
523	452	223
524	800	507
525	154	96
526	929	415
527	772	485
528	993	331
529	708	706
530	975	171
531	319	907
532	722	257
533	694	37
534	110	360
535	340	718
536	978	963
537	629	526
538	346	622
539	610	370
540	910	867
541	484	79
542	437	839
543	894	903
544	550	527
545	831	173
546	581	179
547	524	368
548	979	710
549	228	10
550	128	739
551	672	518
552	206	790
553	15	461
554	79	960
555	781	401
556	274	696
557	912	974
558	944	692
559	382	824
560	352	251
561	617	407
562	501	934
563	563	293
564	386	941
565	841	911
566	523	235
567	429	299
568	78	800
569	12	797
570	994	522
571	310	920
572	54	953
573	967	996
574	622	924
575	562	414
576	522	787
577	264	997
578	974	705
579	169	757
580	193	923
581	674	70
582	617	247
583	912	136
584	547	295
585	126	252
586	950	950
587	130	704
588	898	401
589	637	209
590	231	176
591	62	960
592	562	908
593	213	992
594	512	107
595	331	929
596	911	435
597	995	986
598	397	902
599	538	89
600	44	684
601	760	958
602	219	892
603	666	386
604	700	732
605	443	602
606	764	203
607	781	937
608	13	322
609	687	858
610	764	900
611	637	667
612	234	593
613	563	994
614	156	826
615	663	87
616	816	565
617	62	230
618	873	126
619	22	187
620	680	222
621	289	850
622	353	71
623	190	929
624	488	12
625	636	496
626	328	351
627	933	634
628	169	278
629	388	329
630	155	355
631	821	685
632	165	919
633	63	460
634	482	840
635	866	531
636	812	586
637	795	743
638	871	186
639	475	403
640	483	219
641	742	296
642	180	264
643	887	84
644	8	434
645	824	57
646	287	180
647	747	202
648	776	536
649	574	336
650	390	725
651	392	660
652	41	909
653	294	851
654	404	914
655	259	68
656	788	260
657	82	741
658	591	366
659	761	70
660	882	442
661	797	69
662	18	685
663	44	237
664	880	796
665	131	903
666	657	490
667	111	443
668	412	740
669	242	21
670	932	636
671	473	803
672	370	711
673	812	233
674	511	335
675	704	832
676	967	124
677	428	96
678	408	184
679	184	265
680	474	391
681	391	392
682	885	352
683	102	67
684	134	892
685	695	753
686	571	610
687	845	234
688	987	183
689	770	657
690	142	316
691	190	444
692	891	248
693	874	613
694	702	690
695	69	390
696	306	40
697	386	440
698	622	910
699	791	908
700	882	760
701	18	606
702	885	804
703	561	792
704	412	137
705	868	73
706	404	121
707	527	120
708	266	741
709	633	629
710	940	81
711	969	423
712	116	449
713	83	934
714	140	725
715	931	957
716	179	924
717	918	230
718	263	65
719	74	539
720	165	174
721	415	492
722	641	910
723	231	54
724	755	160
725	895	539
726	838	345
727	684	307
728	95	773
729	54	933
730	983	537
731	908	806
732	192	5
733	52	977
734	373	666
735	1000	814
736	812	18
737	297	381
738	882	712
739	175	956
740	882	503
741	906	994
742	640	569
743	183	452
744	539	896
745	222	637
746	92	892
747	921	969
748	365	42
749	495	406
750	343	938
751	431	760
752	455	521
753	158	545
754	443	202
755	654	549
756	3	313
757	545	702
758	296	969
759	97	212
760	105	301
761	263	288
762	851	63
763	544	685
764	743	630
765	902	281
766	945	936
767	163	628
768	309	837
769	912	493
770	144	196
771	802	282
772	335	300
773	594	649
774	464	775
775	122	834
776	898	881
777	609	742
778	519	768
779	193	209
780	131	705
781	832	20
782	683	92
783	635	292
784	11	92
785	599	447
786	685	48
787	470	253
788	236	459
789	18	550
790	174	529
791	287	128
792	772	453
793	639	111
794	928	864
795	494	753
796	138	350
797	207	506
798	867	172
799	526	802
800	331	913
801	745	493
802	35	34
803	845	562
804	256	989
805	218	544
806	835	157
807	255	332
808	525	912
809	44	294
810	155	25
811	493	15
812	206	276
813	422	400
814	563	359
815	962	459
816	815	728
817	102	554
818	496	923
819	380	57
820	593	666
821	559	305
822	196	527
823	256	905
824	90	669
825	395	92
826	619	350
827	906	20
828	748	301
829	656	969
830	50	948
831	563	303
832	721	645
833	865	678
834	669	286
835	340	276
836	902	755
837	6	373
838	599	105
839	350	313
840	972	23
841	793	981
842	854	433
843	90	288
844	733	141
845	202	905
846	335	184
847	369	501
848	762	330
849	541	94
850	294	787
851	383	987
852	761	838
853	34	385
854	148	640
855	182	247
856	296	51
857	141	305
858	825	808
859	243	379
860	212	53
861	970	927
862	482	945
863	590	449
864	68	638
865	490	621
866	951	87
867	422	263
868	896	407
869	633	856
870	643	817
871	635	295
872	226	830
873	450	468
874	622	874
875	413	614
876	776	885
877	558	215
878	601	693
879	721	266
880	204	691
881	303	900
882	392	11
883	658	443
884	954	993
885	617	278
886	670	972
887	984	882
888	179	867
889	213	105
890	753	104
891	753	478
892	271	195
893	23	183
894	541	471
895	626	522
896	685	566
897	514	703
898	104	382
899	524	402
900	564	458
901	977	824
902	881	143
903	274	688
904	709	293
905	51	420
906	306	304
907	912	845
908	824	763
909	279	849
910	277	847
911	359	486
912	749	306
913	98	442
914	388	483
915	628	161
916	618	972
917	502	593
918	387	425
919	386	261
920	390	136
921	324	64
922	430	924
923	395	480
924	994	122
925	587	830
926	208	612
927	215	708
928	378	114
929	692	241
930	18	248
931	134	794
932	770	56
933	118	263
934	511	732
935	737	982
936	894	423
937	380	803
938	423	601
939	774	684
940	215	908
941	568	208
942	865	728
943	724	378
944	257	734
945	907	433
946	605	990
947	245	717
948	104	492
949	47	88
950	169	966
951	638	491
952	220	481
953	69	296
954	979	525
955	520	164
956	140	96
957	815	579
958	432	351
959	64	251
960	600	217
961	873	98
962	572	407
963	143	313
964	646	947
965	915	199
966	954	573
967	120	92
968	269	616
969	732	982
970	827	134
971	240	612
972	40	214
973	558	443
974	38	505
975	116	80
976	506	733
977	144	124
978	255	365
979	464	987
980	328	270
981	353	56
982	320	476
983	987	230
984	544	649
985	928	818
986	444	254
987	472	945
988	569	674
989	749	110
990	263	685
991	171	357
992	0	734
993	200	40
994	648	538
995	561	738
996	325	700
997	663	653
998	304	38
999	173	956
1000	164	357
1001	816	742
DEMAND_SECTION
1	0
2	7
3	4
4	5
5	8
6	4
7	8
8	3
9	1
10	8
11	4
12	4
13	3
14	3
15	2
16	1
17	8
18	4
19	7
20	3
21	9
22	8
23	5
24	1
25	3
26	2
27	4
28	7
29	8
30	8
31	3
32	4
33	6
34	4
35	2
36	2
37	6
38	2
39	7
40	2
41	2
42	8
43	8
44	1
45	9
46	3
47	9
48	9
49	7
50	2
51	9
52	9
53	7
54	3
55	1
56	5
57	8
58	3
59	9
60	5
61	7
62	6
63	7
64	8
65	5
66	8
67	4
68	1
69	3
70	4
71	2
72	7
73	2
74	4
75	6
76	5
77	5
78	4
79	6
80	6
81	4
82	8
83	1
84	3
85	3
86	7
87	5
88	5
89	6
90	2
91	2
92	6
93	3
94	7
95	5
96	1
97	7
98	2
99	5
100	9
101	5
102	9
103	6
104	2
105	4
106	4
107	3
108	4
109	2
110	5
111	3
112	6
113	7
114	8
115	5
116	2
117	9
118	8
119	2
120	4
121	5
122	5
123	8
124	1
125	1
126	3
127	9
128	4
129	2
130	8
131	5
132	3
133	2
134	9
135	6
136	8
137	6
138	2
139	3
140	9
141	1
142	5
143	1
144	5
145	7
146	6
147	6
148	1
149	8
150	3
151	5
152	4
153	5
154	4
155	8
156	8
157	2
158	6
159	2
160	8
161	2
162	9
163	8
164	5
165	1
166	7
167	7
168	4
169	3
170	7
171	8
172	9
173	4
174	3
175	9
176	9
177	3
178	7
179	1
180	1
181	4
182	2
183	7
184	4
185	9
186	6
187	3
188	1
189	2
190	5
191	7
192	6
193	1
194	6
195	3
196	2
197	3
198	8
199	7
200	7
201	2
202	2
203	8
204	8
205	5
206	3
207	9
208	9
209	5
210	7
211	6
212	1
213	3
214	9
215	8
216	8
217	5
218	8
219	5
220	4
221	7
222	6
223	2
224	8
225	3
226	1
227	4
228	5
229	8
230	8
231	4
232	7
233	7
234	3
235	2
236	8
237	5
238	7
239	3
240	8
241	3
242	1
243	5
244	6
245	4
246	8
247	6
248	1
249	1
250	4
251	1
252	9
253	1
254	6
255	5
256	7
257	1
258	7
259	7
260	3
261	7
262	5
263	2
264	9
265	7
266	4
267	9
268	4
269	8
270	2
271	1
272	2
273	6
274	9
275	2
276	5
277	9
278	8
279	2
280	6
281	8
282	6
283	3
284	1
285	5
286	5
287	9
288	7
289	9
290	5
291	2
292	9
293	4
294	3
295	1
296	2
297	9
298	1
299	9
300	7
301	7
302	9
303	2
304	5
305	4
306	6
307	2
308	1
309	5
310	9
311	8
312	9
313	7
314	9
315	6
316	8
317	6
318	7
319	1
320	4
321	8
322	5
323	1
324	7
325	3
326	5
327	8
328	5
329	3
330	9
331	5
332	6
333	3
334	7
335	9
336	1
337	6
338	3
339	1
340	3
341	5
342	2
343	9
344	2
345	3
346	3
347	5
348	6
349	6
350	4
351	6
352	5
353	1
354	8
355	1
356	1
357	6
358	6
359	8
360	2
361	9
362	1
363	9
364	4
365	3
366	1
367	8
368	2
369	5
370	5
371	8
372	7
373	2
374	9
375	4
376	4
377	6
378	2
379	8
380	7
381	2
382	7
383	7
384	3
385	5
386	2
387	5
388	1
389	5
390	2
391	7
392	4
393	3
394	8
395	4
396	6
397	9
398	5
399	7
400	6
401	8
402	5
403	5
404	1
405	2
406	3
407	6
408	2
409	6
410	6
411	9
412	7
413	6
414	6
415	8
416	1
417	9
418	4
419	7
420	8
421	5
422	2
423	2
424	1
425	5
426	8
427	5
428	9
429	2
430	1
431	2
432	8
433	3
434	8
435	5
436	7
437	5
438	7
439	4
440	9
441	3
442	8
443	6
444	6
445	6
446	8
447	1
448	2
449	2
450	7
451	1
452	1
453	2
454	8
455	9
456	2
457	3
458	2
459	9
460	4
461	6
462	4
463	3
464	8
465	8
466	4
467	9
468	4
469	6
470	5
471	7
472	6
473	7
474	5
475	2
476	2
477	4
478	7
479	8
480	4
481	7
482	5
483	9
484	4
485	7
486	4
487	3
488	8
489	7
490	9
491	7
492	8
493	3
494	3
495	3
496	8
497	9
498	1
499	4
500	2
501	8
502	6
503	2
504	1
505	3
506	2
507	2
508	8
509	4
510	8
511	5
512	6
513	8
514	8
515	6
516	5
517	9
518	6
519	3
520	5
521	2
522	1
523	5
524	4
525	1
526	2
527	6
528	8
529	3
530	4
531	3
532	3
533	5
534	4
535	7
536	7
537	1
538	1
539	6
540	2
541	7
542	5
543	8
544	1
545	8
546	8
547	6
548	7
549	4
550	7
551	8
552	2
553	3
554	1
555	6
556	1
557	3
558	6
559	1
560	7
561	4
562	4
563	9
564	1
565	1
566	8
567	5
568	2
569	8
570	6
571	2
572	1
573	6
574	6
575	3
576	4
577	9
578	3
579	3
580	4
581	4
582	2
583	5
584	3
585	2
586	8
587	6
588	5
589	3
590	7
591	9
592	3
593	9
594	3
595	8
596	9
597	2
598	2
599	3
600	9
601	4
602	8
603	4
604	5
605	1
606	8
607	2
608	2
609	9
610	9
611	6
612	2
613	8
614	8
615	1
616	7
617	6
618	9
619	3
620	2
621	6
622	9
623	1
624	2
625	2
626	6
627	1
628	2
629	4
630	3
631	1
632	1
633	6
634	9
635	9
636	2
637	1
638	7
639	5
640	3
641	7
642	8
643	3
644	9
645	2
646	9
647	5
648	2
649	3
650	1
651	1
652	9
653	8
654	3
655	4
656	5
657	9
658	1
659	5
660	1
661	3
662	9
663	1
664	5
665	9
666	7
667	7
668	1
669	2
670	1
671	4
672	2
673	8
674	2
675	9
676	1
677	4
678	6
679	3
680	5
681	3
682	3
683	6
684	4
685	5
686	4
687	6
688	4
689	2
690	1
691	9
692	2
693	5
694	7
695	3
696	5
697	5
698	1
699	9
700	1
701	4
702	5
703	5
704	4
705	1
706	7
707	2
708	8
709	7
710	6
711	6
712	9
713	6
714	5
715	5
716	9
717	6
718	7
719	1
720	3
721	7
722	3
723	1
724	3
725	2
726	8
727	6
728	9
729	8
730	2
731	5
732	7
733	5
734	5
735	2
736	5
737	6
738	4
739	6
740	3
741	7
742	6
743	4
744	2
745	4
746	7
747	5
748	4
749	4
750	7
751	1
752	8
753	7
754	5
755	9
756	2
757	8
758	7
759	7
760	6
761	6
762	7
763	4
764	7
765	7
766	9
767	8
768	3
769	1
770	1
771	7
772	5
773	8
774	2
775	4
776	3
777	9
778	2
779	7
780	8
781	5
782	6
783	5
784	4
785	7
786	2
787	2
788	6
789	6
790	2
791	1
792	8
793	3
794	1
795	4
796	1
797	4
798	8
799	5
800	2
801	6
802	2
803	6
804	2
805	4
806	3
807	8
808	8
809	3
810	8
811	2
812	5
813	3
814	6
815	4
816	1
817	4
818	8
819	4
820	9
821	9
822	3
823	2
824	5
825	7
826	4
827	8
828	7
829	2
830	6
831	4
832	8
833	3
834	7
835	9
836	5
837	9
838	3
839	1
840	4
841	1
842	2
843	8
844	1
845	9
846	4
847	3
848	8
849	4
850	8
851	2
852	3
853	1
854	5
855	4
856	4
857	8
858	3
859	2
860	5
861	5
862	2
863	8
864	9
865	8
866	9
867	1
868	4
869	7
870	8
871	8
872	7
873	1
874	5
875	4
876	1
877	4
878	2
879	8
880	4
881	9
882	1
883	3
884	5
885	4
886	1
887	9
888	6
889	7
890	7
891	6
892	8
893	2
894	8
895	3
896	9
897	5
898	6
899	9
900	8
901	3
902	3
903	9
904	7
905	1
906	4
907	2
908	9
909	7
910	9
911	1
912	1
913	2
914	7
915	1
916	1
917	3
918	5
919	5
920	5
921	3
922	2
923	4
924	4
925	3
926	6
927	1
928	3
929	1
930	1
931	7
932	8
933	6
934	8
935	9
936	5
937	2
938	3
939	3
940	1
941	5
942	2
943	5
944	5
945	5
946	8
947	1
948	6
949	8
950	6
951	7
952	6
953	8
954	7
955	5
956	9
957	9
958	9
959	7
960	8
961	2
962	8
963	9
964	1
965	2
966	8
967	2
968	2
969	8
970	3
971	5
972	8
973	2
974	7
975	4
976	2
977	4
978	1
979	9
980	7
981	9
982	2
983	3
984	3
985	6
986	1
987	3
988	8
989	2
990	2
991	3
992	5
993	3
994	6
995	4
996	8
997	6
998	3
999	3
1000	2
1001	2
BACKHAUL_SECTION
2	6	10	15	19	27	30	38	41	42	53	55	57	58	62	67	68	82	85	92	95	104	107	108	115	116	122	125	128	138	143	148	158	171	178	183	189	193	205	206	207	210	211	214	217	230	233	241	243	266	267	270	277	284	285	296	305	306	307	308	310	312	326	330	332	333	342	347	354	362	366	370	385	400	405	413	414	418	420	421	428	438	444	450	452	455	456	459	460	463	464	467	474	481	486	503	504	511	518	519	521	522	523	524	527	530	533	534	536	542	547	558	562	563	568	572	573	576	578	579	584	587	590	594	603	605	610	614	615	617	635	637	638	639	645	657	667	668	671	679	680	685	686	694	697	698	709	728	731	734	736	737	739	740	745	746	749	762	764	771	776	781	789	798	799	802	804	807	813	828	840	841	848	855	863	867	875	876	879	881	890	895	897	912	934	936	941	942	948	951	969	970	973	974	975	979	984	989	991	998	-1
DEPOT_SECTION
1
-1
EOF
