NAME : n1001-0034
COMMENT : "Generated by pyvrp_manuel (VRPBL)"
TYPE : VRPBL
DIMENSION : 1001
EDGE_WEIGHT_TYPE : EUC_2D
CAPACITY : 150
VEHICLES : 1000
DISTANCE : 3000
NODE_COORD_SECTION
1	939	416
2	767	549
3	74	742
4	155	290
5	716	594
6	264	696
7	85	670
8	86	970
9	954	675
10	475	863
11	682	292
12	174	435
13	721	227
14	130	471
15	361	135
16	264	987
17	718	518
18	41	635
19	941	693
20	357	176
21	801	808
22	163	500
23	670	158
24	361	866
25	716	933
26	858	843
27	599	258
28	188	878
29	947	757
30	859	294
31	377	685
32	719	55
33	22	963
34	418	335
35	776	920
36	29	869
37	932	473
38	866	223
39	977	911
40	524	631
41	25	338
42	16	35
43	417	282
44	539	732
45	864	55
46	832	529
47	171	371
48	860	147
49	532	932
50	481	654
51	794	151
52	586	348
53	804	687
54	780	343
55	445	246
56	669	37
57	238	190
58	707	229
59	838	686
60	581	982
61	972	952
62	814	465
63	599	122
64	845	171
65	347	535
66	191	718
67	568	206
68	715	546
69	254	1
70	275	970
71	836	357
72	679	809
73	104	269
74	27	904
75	967	672
76	201	551
77	156	814
78	226	467
79	587	144
80	568	973
81	325	521
82	758	573
83	467	962
84	244	24
85	624	819
86	439	277
87	452	284
88	300	294
89	125	298
90	43	673
91	560	831
92	356	201
93	646	520
94	856	330
95	814	415
96	158	158
97	846	310
98	496	944
99	537	992
100	598	589
101	847	22
102	84	309
103	390	575
104	688	285
105	263	703
106	577	153
107	566	357
108	549	215
109	262	957
110	963	931
111	354	211
112	588	326
113	566	615
114	337	148
115	585	502
116	837	790
117	422	740
118	562	122
119	251	755
120	379	222
121	314	907
122	413	174
123	494	297
124	956	470
125	48	940
126	533	981
127	613	183
128	957	737
129	545	126
130	190	330
131	488	670
132	477	84
133	341	466
134	15	174
135	383	712
136	558	465
137	320	310
138	775	286
139	616	874
140	415	908
141	8	320
142	73	709
143	721	752
144	443	79
145	608	996
146	478	206
147	950	900
148	137	792
149	656	369
150	641	615
151	286	313
152	618	861
153	637	520
154	994	946
155	171	904
156	150	592
157	804	909
158	189	780
159	513	277
160	122	496
161	351	209
162	184	398
163	376	918
164	405	279
165	498	567
166	12	697
167	858	790
168	39	163
169	156	310
170	427	931
171	507	624
172	853	153
173	544	86
174	898	549
175	424	940
176	134	991
177	203	227
178	417	736
179	322	71
180	695	905
181	251	142
182	642	343
183	432	102
184	747	601
185	111	401
186	489	378
187	388	331
188	221	561
189	265	274
190	366	629
191	601	334
192	921	270
193	121	154
194	297	226
195	390	414
196	245	760
197	34	962
198	224	571
199	552	595
200	290	52
201	725	828
202	574	88
203	807	852
204	712	985
205	689	66
206	266	888
207	980	298
208	633	302
209	29	686
210	487	182
211	836	358
212	196	359
213	223	496
214	88	732
215	374	937
216	678	236
217	261	745
218	116	16
219	604	862
220	746	474
221	367	906
222	747	870
223	934	189
224	632	247
225	23	508
226	451	795
227	175	931
228	974	672
229	365	705
230	739	619
231	975	651
232	317	802
233	847	792
234	707	54
235	238	660
236	211	143
237	585	991
238	916	48
239	54	110
240	708	209
241	55	272
242	301	221
243	24	125
244	51	160
245	639	774
246	265	762
247	737	409
248	305	547
249	59	859
250	755	495
251	391	90
252	703	515
253	161	358
254	556	648
255	222	715
256	421	943
257	625	41
258	755	444
259	959	802
260	879	93
261	1	494
262	334	443
263	979	559
264	986	15
265	484	343
266	937	756
267	39	848
268	388	935
269	215	426
270	721	331
271	691	274
272	569	630
273	399	202
274	754	306
275	446	862
276	832	570
277	705	765
278	669	423
279	73	314
280	618	718
281	141	889
282	241	617
283	137	589
284	320	718
285	684	618
286	560	569
287	47	929
288	1	739
289	396	780
290	175	574
291	753	943
292	500	220
293	420	190
294	806	430
295	88	432
296	623	868
297	205	768
298	233	617
299	558	291
300	270	404
301	12	404
302	643	939
303	611	692
304	452	119
305	261	687
306	84	331
307	864	769
308	117	8
309	131	339
310	739	352
311	1	665
312	310	162
313	774	904
314	911	154
315	202	655
316	713	925
317	348	857
318	639	73
319	726	643
320	183	26
321	995	792
322	382	504
323	502	331
324	383	7
325	85	513
326	929	157
327	925	626
328	22	320
329	234	479
330	516	775
331	351	593
332	954	11
333	883	12
334	118	896
335	584	332
336	356	376
337	999	870
338	603	324
339	748	701
340	974	310
341	821	807
342	942	567
343	732	111
344	262	6
345	381	406
346	558	422
347	466	76
348	183	878
349	296	647
350	848	282
351	121	511
352	359	784
353	305	959
354	938	34
355	834	825
356	639	433
357	90	122
358	461	508
359	798	960
360	19	295
361	296	872
362	172	689
363	790	344
364	624	520
365	955	337
366	330	754
367	545	362
368	220	428
369	884	303
370	741	404
371	787	853
372	222	22
373	130	563
374	681	176
375	23	351
376	915	572
377	27	190
378	546	230
379	78	7
380	17	272
381	152	427
382	975	581
383	259	876
384	887	787
385	626	222
386	448	67
387	865	631
388	660	639
389	264	57
390	615	424
391	839	850
392	974	939
393	277	550
394	798	235
395	995	187
396	553	321
397	611	133
398	71	796
399	356	353
400	133	704
401	793	7
402	586	989
403	377	964
404	562	610
405	327	523
406	53	752
407	336	750
408	191	430
409	997	226
410	512	515
411	41	896
412	421	602
413	427	459
414	326	635
415	71	751
416	129	945
417	929	375
418	452	938
419	64	468
420	702	169
421	330	803
422	952	569
423	143	936
424	287	3
425	875	931
426	309	250
427	589	81
428	997	444
429	786	120
430	55	659
431	534	556
432	322	121
433	169	848
434	645	137
435	974	454
436	433	117
437	619	246
438	776	352
439	64	24
440	450	173
441	579	840
442	644	239
443	467	521
444	501	19
445	961	902
446	524	98
447	400	227
448	889	588
449	147	95
450	4	860
451	196	137
452	940	91
453	650	254
454	655	893
455	387	177
456	62	81
457	505	451
458	283	660
459	307	491
460	550	971
461	852	75
462	871	605
463	660	960
464	67	711
465	831	82
466	827	882
467	481	186
468	19	763
469	42	75
470	205	555
471	64	555
472	268	663
473	328	417
474	522	11
475	854	181
476	324	517
477	240	862
478	456	494
479	474	686
480	991	933
481	482	676
482	378	8
483	54	347
484	838	40
485	490	647
486	766	694
487	375	208
488	460	813
489	858	767
490	43	190
491	687	734
492	870	893
493	326	518
494	923	9
495	30	610
496	603	948
497	439	758
498	356	360
499	794	771
500	431	30
501	813	416
502	802	694
503	871	223
504	737	147
505	497	460
506	82	158
507	829	601
508	171	80
509	765	612
510	765	726
511	424	600
512	73	997
513	23	933
514	152	591
515	566	417
516	407	192
517	173	880
518	342	97
519	273	83
520	551	280
521	136	749
522	37	678
523	776	616
524	882	267
525	97	466
526	80	549
527	758	316
528	660	961
529	480	217
530	453	894
531	609	86
532	832	888
533	691	70
534	562	763
535	507	741
536	968	857
537	726	448
538	760	159
539	900	104
540	587	985
541	449	105
542	677	795
543	724	230
544	543	256
545	193	431
546	855	998
547	338	157
548	148	402
549	869	458
550	704	414
551	644	977
552	507	826
553	802	119
554	487	222
555	203	849
556	980	549
557	852	51
558	842	699
559	528	715
560	281	781
561	618	762
562	336	856
563	563	136
564	704	12
565	937	136
566	177	985
567	668	635
568	1000	901
569	644	703
570	879	767
571	489	577
572	180	805
573	629	412
574	760	261
575	621	524
576	790	116
577	516	299
578	900	270
579	382	722
580	792	398
581	732	839
582	875	557
583	145	27
584	623	728
585	567	827
586	782	19
587	498	408
588	695	789
589	466	195
590	368	85
591	992	142
592	112	986
593	554	874
594	148	529
595	468	796
596	275	61
597	60	201
598	460	611
599	457	617
600	479	850
601	854	200
602	241	920
603	956	435
604	287	826
605	752	884
606	177	20
607	187	779
608	114	60
609	525	250
610	70	54
611	777	7
612	765	872
613	600	344
614	757	487
615	686	181
616	282	296
617	381	122
618	545	173
619	158	858
620	395	458
621	97	985
622	657	216
623	911	41
624	616	117
625	144	113
626	369	391
627	331	210
628	395	727
629	489	536
630	549	848
631	254	906
632	197	557
633	115	135
634	13	398
635	93	24
636	590	359
637	298	402
638	870	472
639	508	720
640	350	697
641	955	761
642	588	506
643	497	442
644	280	823
645	403	650
646	712	868
647	954	173
648	809	808
649	595	619
650	242	321
651	78	490
652	132	125
653	756	128
654	841	659
655	571	543
656	669	522
657	37	939
658	306	767
659	826	170
660	644	64
661	236	78
662	315	521
663	362	809
664	396	371
665	328	128
666	711	854
667	262	867
668	705	451
669	410	352
670	458	772
671	818	544
672	429	406
673	600	770
674	352	416
675	29	778
676	867	426
677	940	955
678	196	73
679	362	209
680	800	53
681	794	941
682	224	585
683	832	293
684	754	686
685	582	226
686	961	339
687	418	984
688	522	222
689	146	455
690	640	900
691	964	917
692	628	945
693	230	159
694	315	433
695	274	536
696	479	796
697	895	877
698	347	598
699	198	487
700	560	787
701	114	227
702	396	880
703	751	670
704	663	875
705	451	202
706	348	112
707	643	539
708	40	208
709	800	109
710	469	499
711	454	415
712	683	437
713	714	889
714	126	121
715	142	714
716	806	518
717	731	465
718	429	538
719	919	191
720	424	779
721	582	126
722	165	704
723	808	943
724	540	675
725	865	415
726	417	680
727	107	746
728	603	624
729	823	81
730	978	780
731	104	53
732	142	390
733	521	103
734	966	336
735	234	412
736	164	396
737	561	653
738	861	656
739	537	756
740	675	271
741	653	9
742	262	577
743	905	884
744	83	644
745	387	769
746	319	177
747	22	144
748	486	594
749	892	527
750	936	420
751	364	745
752	179	472
753	725	215
754	759	160
755	544	632
756	15	133
757	718	785
758	372	465
759	100	453
760	669	936
761	604	459
762	867	726
763	183	100
764	106	387
765	989	433
766	664	281
767	21	273
768	852	673
769	796	134
770	949	690
771	528	104
772	493	473
773	870	531
774	526	964
775	240	538
776	20	575
777	588	335
778	375	11
779	502	362
780	260	879
781	470	813
782	641	953
783	39	163
784	745	20
785	695	674
786	752	415
787	903	901
788	655	543
789	12	853
790	548	156
791	392	74
792	525	682
793	943	873
794	608	513
795	130	808
796	234	482
797	248	97
798	989	952
799	293	446
800	353	368
801	731	351
802	935	465
803	190	479
804	618	160
805	443	736
806	303	139
807	293	389
808	246	265
809	451	291
810	998	430
811	798	270
812	611	569
813	504	970
814	760	341
815	52	491
816	788	91
817	407	294
818	638	219
819	968	591
820	527	432
821	234	617
822	173	289
823	780	262
824	684	612
825	259	803
826	138	277
827	690	445
828	439	222
829	777	673
830	408	721
831	131	4
832	474	371
833	168	493
834	256	951
835	659	626
836	21	824
837	700	985
838	725	912
839	620	645
840	699	129
841	934	68
842	692	474
843	965	382
844	156	674
845	909	263
846	96	306
847	721	403
848	132	228
849	64	74
850	768	478
851	833	376
852	88	148
853	321	193
854	508	86
855	930	977
856	489	345
857	263	943
858	728	627
859	906	863
860	531	155
861	962	41
862	111	953
863	82	892
864	122	195
865	501	504
866	486	732
867	478	127
868	785	846
869	92	919
870	74	968
871	420	81
872	788	270
873	610	233
874	956	400
875	297	885
876	544	594
877	145	619
878	446	165
879	878	575
880	137	41
881	474	714
882	660	465
883	301	98
884	585	148
885	505	192
886	717	958
887	279	884
888	189	647
889	37	223
890	284	439
891	738	741
892	8	485
893	358	743
894	692	532
895	89	979
896	957	87
897	170	174
898	770	40
899	281	543
900	792	177
901	98	602
902	843	130
903	915	53
904	994	353
905	822	918
906	872	780
907	641	244
908	823	50
909	340	447
910	204	555
911	414	293
912	567	337
913	596	288
914	442	752
915	13	81
916	317	664
917	505	325
918	532	202
919	377	419
920	963	565
921	550	169
922	595	30
923	271	93
924	328	830
925	995	455
926	65	352
927	587	842
928	343	285
929	946	447
930	985	258
931	809	931
932	644	851
933	385	558
934	129	297
935	512	277
936	136	664
937	50	976
938	450	117
939	663	37
940	647	895
941	731	212
942	841	379
943	390	671
944	787	337
945	872	519
946	623	945
947	0	685
948	483	861
949	392	14
950	793	781
951	89	440
952	965	471
953	346	98
954	592	857
955	880	909
956	791	968
957	262	858
958	589	558
959	254	409
960	301	324
961	538	162
962	858	654
963	911	686
964	519	904
965	195	640
966	486	365
967	586	651
968	156	599
969	894	177
970	812	921
971	827	162
972	544	605
973	618	718
974	419	785
975	154	802
976	997	163
977	840	597
978	691	670
979	72	951
980	869	969
981	693	588
982	631	626
983	793	123
984	239	147
985	910	15
986	369	726
987	580	780
988	568	251
989	792	543
990	180	85
991	455	842
992	147	244
993	512	505
994	20	997
995	92	509
996	659	755
997	80	346
998	610	170
999	912	669
1000	933	646
1001	257	875
DEMAND_SECTION
1	0
2	5
3	2
4	6
5	4
6	4
7	5
8	5
9	5
10	3
11	4
12	4
13	3
14	5
15	5
16	1
17	1
18	4
19	4
20	7
21	8
22	5
23	1
24	4
25	5
26	2
27	1
28	7
29	1
30	3
31	8
32	5
33	6
34	8
35	4
36	9
37	3
38	3
39	7
40	8
41	3
42	6
43	5
44	9
45	8
46	2
47	1
48	9
49	4
50	3
51	9
52	6
53	9
54	2
55	9
56	2
57	6
58	3
59	4
60	2
61	2
62	3
63	3
64	3
65	9
66	1
67	8
68	4
69	3
70	8
71	6
72	9
73	5
74	8
75	5
76	7
77	2
78	8
79	3
80	6
81	3
82	9
83	5
84	6
85	3
86	2
87	3
88	1
89	6
90	6
91	1
92	6
93	8
94	8
95	2
96	5
97	9
98	7
99	7
100	9
101	9
102	8
103	1
104	4
105	3
106	3
107	1
108	3
109	9
110	9
111	3
112	3
113	1
114	7
115	3
116	9
117	3
118	6
119	4
120	1
121	5
122	6
123	2
124	4
125	8
126	7
127	8
128	2
129	3
130	4
131	8
132	8
133	7
134	6
135	8
136	4
137	9
138	7
139	7
140	2
141	6
142	8
143	8
144	5
145	8
146	6
147	6
148	9
149	4
150	4
151	4
152	1
153	4
154	7
155	6
156	3
157	8
158	1
159	1
160	5
161	4
162	2
163	5
164	2
165	6
166	8
167	9
168	6
169	5
170	5
171	8
172	1
173	8
174	9
175	2
176	5
177	3
178	7
179	7
180	7
181	8
182	9
183	3
184	7
185	1
186	4
187	8
188	3
189	2
190	9
191	6
192	6
193	5
194	6
195	3
196	3
197	9
198	2
199	4
200	2
201	4
202	4
203	7
204	5
205	4
206	1
207	9
208	3
209	8
210	3
211	8
212	9
213	6
214	4
215	8
216	4
217	2
218	5
219	7
220	7
221	2
222	8
223	3
224	4
225	2
226	1
227	9
228	5
229	9
230	4
231	8
232	2
233	8
234	2
235	6
236	8
237	1
238	5
239	8
240	9
241	6
242	3
243	2
244	7
245	2
246	7
247	5
248	3
249	1
250	4
251	3
252	2
253	4
254	7
255	2
256	7
257	8
258	2
259	9
260	3
261	5
262	5
263	9
264	5
265	2
266	7
267	3
268	9
269	4
270	3
271	6
272	6
273	4
274	4
275	8
276	3
277	1
278	9
279	9
280	3
281	8
282	6
283	5
284	6
285	7
286	9
287	1
288	5
289	2
290	4
291	2
292	2
293	1
294	1
295	5
296	7
297	3
298	1
299	3
300	2
301	9
302	4
303	9
304	8
305	4
306	1
307	1
308	8
309	5
310	8
311	7
312	5
313	2
314	6
315	1
316	5
317	3
318	8
319	1
320	5
321	9
322	8
323	6
324	2
325	6
326	8
327	6
328	2
329	4
330	6
331	5
332	5
333	2
334	5
335	9
336	1
337	3
338	8
339	8
340	5
341	6
342	5
343	5
344	7
345	4
346	2
347	1
348	5
349	8
350	8
351	5
352	3
353	2
354	5
355	8
356	2
357	1
358	4
359	7
360	8
361	5
362	6
363	8
364	8
365	6
366	1
367	9
368	7
369	9
370	5
371	2
372	6
373	4
374	5
375	5
376	7
377	8
378	4
379	7
380	8
381	9
382	6
383	9
384	4
385	9
386	3
387	4
388	5
389	3
390	1
391	9
392	3
393	8
394	1
395	1
396	4
397	4
398	8
399	6
400	8
401	1
402	4
403	3
404	7
405	9
406	4
407	7
408	9
409	1
410	7
411	3
412	2
413	4
414	8
415	3
416	1
417	8
418	2
419	6
420	3
421	8
422	4
423	2
424	8
425	6
426	1
427	8
428	3
429	6
430	3
431	8
432	9
433	1
434	2
435	4
436	5
437	7
438	1
439	6
440	3
441	6
442	1
443	8
444	7
445	3
446	4
447	2
448	9
449	5
450	7
451	2
452	9
453	4
454	9
455	3
456	6
457	7
458	5
459	2
460	2
461	6
462	2
463	1
464	8
465	3
466	4
467	1
468	3
469	9
470	8
471	9
472	8
473	1
474	9
475	3
476	5
477	8
478	8
479	3
480	2
481	4
482	2
483	2
484	7
485	3
486	6
487	4
488	5
489	7
490	8
491	1
492	2
493	9
494	2
495	5
496	8
497	7
498	8
499	2
500	7
501	6
502	3
503	3
504	6
505	9
506	6
507	9
508	4
509	2
510	8
511	7
512	7
513	5
514	8
515	2
516	7
517	7
518	4
519	1
520	8
521	7
522	2
523	8
524	2
525	7
526	1
527	3
528	1
529	1
530	3
531	1
532	4
533	1
534	7
535	3
536	6
537	4
538	4
539	1
540	4
541	1
542	5
543	1
544	1
545	3
546	5
547	5
548	5
549	2
550	1
551	3
552	4
553	5
554	3
555	9
556	4
557	1
558	8
559	6
560	9
561	9
562	6
563	6
564	5
565	4
566	4
567	4
568	7
569	1
570	2
571	4
572	8
573	8
574	8
575	4
576	5
577	9
578	8
579	1
580	1
581	4
582	2
583	8
584	1
585	7
586	4
587	5
588	6
589	2
590	8
591	2
592	9
593	4
594	6
595	3
596	9
597	3
598	9
599	4
600	1
601	2
602	6
603	1
604	7
605	1
606	5
607	7
608	3
609	3
610	6
611	8
612	2
613	2
614	1
615	5
616	2
617	8
618	6
619	3
620	4
621	1
622	4
623	7
624	5
625	2
626	9
627	3
628	1
629	7
630	7
631	8
632	8
633	8
634	1
635	6
636	9
637	3
638	7
639	5
640	2
641	1
642	7
643	9
644	8
645	7
646	5
647	7
648	8
649	6
650	1
651	2
652	3
653	6
654	6
655	8
656	2
657	8
658	7
659	6
660	1
661	3
662	8
663	8
664	8
665	5
666	7
667	7
668	2
669	9
670	5
671	6
672	1
673	4
674	3
675	1
676	6
677	7
678	8
679	1
680	4
681	9
682	6
683	3
684	8
685	9
686	8
687	7
688	3
689	3
690	5
691	7
692	1
693	6
694	7
695	1
696	8
697	1
698	9
699	5
700	1
701	3
702	1
703	9
704	7
705	9
706	9
707	2
708	8
709	8
710	7
711	4
712	8
713	2
714	2
715	7
716	5
717	8
718	7
719	3
720	6
721	3
722	4
723	8
724	8
725	1
726	4
727	3
728	4
729	7
730	5
731	1
732	1
733	3
734	8
735	1
736	9
737	9
738	4
739	4
740	1
741	7
742	4
743	9
744	7
745	5
746	9
747	1
748	7
749	7
750	6
751	3
752	8
753	4
754	8
755	8
756	2
757	8
758	5
759	9
760	3
761	7
762	4
763	8
764	1
765	7
766	7
767	5
768	4
769	3
770	7
771	9
772	3
773	3
774	6
775	1
776	4
777	7
778	9
779	7
780	1
781	1
782	7
783	9
784	8
785	4
786	5
787	6
788	6
789	6
790	3
791	4
792	1
793	8
794	6
795	7
796	3
797	7
798	5
799	3
800	8
801	7
802	7
803	3
804	7
805	6
806	3
807	6
808	7
809	5
810	1
811	1
812	2
813	2
814	2
815	4
816	2
817	7
818	6
819	8
820	4
821	3
822	3
823	8
824	7
825	2
826	3
827	4
828	3
829	8
830	5
831	2
832	8
833	3
834	4
835	9
836	5
837	2
838	7
839	1
840	7
841	2
842	6
843	9
844	6
845	6
846	2
847	6
848	6
849	1
850	9
851	6
852	8
853	8
854	5
855	9
856	4
857	7
858	6
859	9
860	9
861	7
862	9
863	8
864	8
865	8
866	7
867	3
868	7
869	2
870	7
871	8
872	1
873	1
874	3
875	5
876	2
877	8
878	8
879	8
880	3
881	3
882	4
883	8
884	6
885	9
886	7
887	4
888	6
889	9
890	3
891	6
892	1
893	4
894	9
895	2
896	8
897	5
898	5
899	9
900	7
901	8
902	4
903	7
904	7
905	7
906	1
907	5
908	8
909	1
910	2
911	9
912	2
913	7
914	9
915	8
916	8
917	6
918	8
919	3
920	2
921	6
922	5
923	2
924	1
925	5
926	1
927	5
928	4
929	2
930	5
931	7
932	1
933	4
934	4
935	5
936	7
937	8
938	2
939	5
940	5
941	4
942	9
943	3
944	9
945	2
946	3
947	1
948	7
949	1
950	2
951	2
952	2
953	3
954	8
955	8
956	1
957	1
958	8
959	2
960	1
961	8
962	5
963	1
964	1
965	5
966	9
967	6
968	5
969	7
970	2
971	4
972	7
973	9
974	5
975	2
976	1
977	9
978	7
979	1
980	2
981	2
982	8
983	8
984	8
985	2
986	6
987	9
988	1
989	2
990	2
991	3
992	3
993	6
994	1
995	9
996	9
997	2
998	7
999	2
1000	1
1001	4
BACKHAUL_SECTION
2	6	10	15	19	27	30	38	41	42	53	55	57	58	62	67	68	82	85	92	95	104	107	108	115	116	122	125	128	138	143	148	158	171	178	183	189	193	205	206	207	210	211	214	217	230	233	241	243	266	267	270	277	284	285	296	305	306	307	308	310	312	326	330	332	333	342	347	354	362	366	370	385	400	405	413	414	418	420	421	428	438	444	450	452	455	456	459	460	463	464	467	474	481	486	503	504	511	518	519	521	522	523	524	527	530	533	534	536	542	547	558	562	563	568	572	573	576	578	579	584	587	590	594	603	605	610	614	615	617	635	637	638	639	645	657	667	668	671	679	680	685	686	694	697	698	709	728	731	734	736	737	739	740	745	746	749	762	764	771	776	781	789	798	799	802	804	807	813	828	840	841	848	855	863	867	875	876	879	881	890	895	897	912	934	936	941	942	948	951	969	970	973	974	975	979	984	989	991	998	-1
DEPOT_SECTION
1
-1
EOF
