NAME : n1001-0007
COMMENT : "Generated by pyvrp_manuel (VRPBL)"
TYPE : VRPBL
DIMENSION : 1001
EDGE_WEIGHT_TYPE : EUC_2D
CAPACITY : 150
VEHICLES : 1000
DISTANCE : 3000
NODE_COORD_SECTION
1	771	535
2	750	771
3	561	817
4	833	678
5	232	99
6	219	535
7	357	661
8	118	127
9	745	196
10	593	355
11	364	378
12	259	899
13	632	406
14	745	827
15	523	75
16	569	96
17	138	322
18	30	671
19	638	923
20	284	8
21	756	711
22	908	558
23	773	571
24	235	236
25	734	284
26	713	440
27	574	558
28	381	328
29	345	947
30	288	901
31	319	26
32	963	2
33	645	460
34	174	541
35	360	10
36	687	338
37	911	818
38	773	117
39	373	699
40	423	369
41	787	396
42	112	679
43	585	491
44	301	612
45	440	112
46	61	110
47	752	149
48	127	196
49	184	143
50	230	197
51	159	870
52	560	411
53	514	596
54	488	94
55	180	641
56	563	162
57	419	931
58	841	972
59	845	787
60	578	402
61	346	381
62	172	217
63	670	998
64	543	738
65	549	477
66	458	724
67	427	229
68	620	514
69	867	419
70	82	525
71	528	824
72	814	23
73	179	610
74	233	915
75	569	126
76	323	277
77	472	442
78	647	809
79	708	11
80	543	365
81	225	318
82	124	607
83	325	654
84	732	241
85	974	452
86	640	847
87	303	662
88	864	847
89	581	773
90	225	855
91	752	244
92	884	713
93	289	316
94	39	488
95	34	547
96	543	51
97	929	390
98	154	375
99	649	270
100	436	130
101	917	285
102	336	518
103	618	637
104	649	382
105	193	770
106	926	42
107	446	961
108	102	201
109	977	476
110	625	561
111	887	804
112	788	173
113	897	172
114	556	673
115	336	416
116	826	459
117	812	109
118	71	147
119	204	398
120	159	141
121	899	168
122	837	260
123	340	736
124	44	416
125	638	770
126	709	981
127	269	485
128	958	724
129	334	494
130	761	318
131	376	600
132	494	624
133	881	90
134	103	783
135	295	720
136	459	380
137	17	576
138	491	555
139	7	489
140	764	353
141	824	900
142	180	742
143	965	799
144	21	21
145	789	452
146	623	275
147	304	109
148	999	314
149	517	785
150	613	398
151	454	871
152	45	533
153	76	239
154	672	907
155	6	783
156	267	685
157	493	743
158	956	873
159	125	47
160	776	402
161	218	747
162	309	261
163	67	255
164	151	939
165	378	99
166	36	828
167	685	133
168	72	315
169	395	141
170	36	776
171	828	240
172	164	606
173	576	400
174	136	163
175	469	281
176	962	695
177	121	39
178	127	342
179	975	163
180	165	861
181	717	747
182	964	690
183	848	69
184	925	694
185	216	13
186	916	692
187	399	549
188	957	647
189	51	491
190	235	798
191	822	240
192	144	725
193	294	343
194	153	775
195	55	493
196	831	826
197	378	439
198	368	268
199	489	681
200	958	500
201	883	68
202	491	8
203	355	76
204	280	40
205	700	672
206	805	313
207	347	102
208	400	381
209	656	78
210	919	751
211	94	6
212	323	50
213	299	855
214	701	273
215	815	635
216	692	949
217	329	689
218	887	198
219	762	113
220	494	166
221	314	596
222	343	565
223	236	227
224	262	118
225	597	753
226	804	694
227	288	277
228	803	798
229	848	473
230	816	34
231	101	930
232	923	782
233	718	641
234	485	394
235	443	959
236	197	386
237	285	363
238	240	466
239	288	228
240	563	360
241	561	121
242	362	827
243	563	458
244	695	942
245	706	757
246	46	594
247	488	471
248	216	590
249	754	189
250	687	267
251	349	585
252	772	386
253	668	231
254	290	696
255	951	85
256	77	459
257	767	344
258	644	788
259	257	169
260	93	622
261	196	256
262	485	6
263	356	747
264	997	997
265	117	783
266	61	151
267	277	498
268	754	3
269	68	695
270	562	780
271	915	880
272	340	35
273	293	395
274	646	566
275	763	735
276	547	60
277	356	71
278	950	410
279	244	309
280	945	807
281	565	40
282	694	481
283	597	992
284	53	542
285	506	834
286	517	204
287	769	334
288	286	101
289	962	144
290	98	571
291	324	210
292	900	746
293	116	532
294	604	551
295	257	974
296	255	652
297	611	143
298	444	256
299	21	890
300	17	620
301	959	13
302	381	757
303	410	689
304	782	801
305	69	105
306	150	466
307	362	198
308	506	565
309	994	52
310	762	385
311	197	139
312	37	794
313	420	57
314	742	524
315	379	433
316	877	45
317	111	94
318	872	888
319	624	99
320	775	570
321	899	513
322	42	865
323	431	81
324	549	273
325	373	489
326	397	530
327	624	701
328	269	333
329	752	549
330	46	636
331	438	569
332	384	256
333	420	403
334	389	756
335	216	250
336	788	576
337	64	269
338	552	720
339	95	326
340	499	789
341	538	520
342	709	963
343	876	620
344	964	134
345	432	97
346	183	233
347	87	663
348	739	500
349	600	568
350	449	915
351	718	588
352	358	839
353	829	751
354	373	200
355	416	539
356	226	609
357	32	965
358	75	474
359	778	876
360	910	344
361	787	422
362	363	665
363	899	754
364	952	90
365	687	202
366	738	721
367	205	34
368	819	922
369	660	336
370	247	923
371	936	377
372	452	987
373	177	499
374	638	387
375	421	867
376	780	733
377	683	345
378	269	251
379	624	168
380	789	587
381	150	792
382	589	162
383	298	162
384	734	202
385	232	807
386	894	328
387	765	289
388	89	754
389	406	994
390	97	457
391	370	750
392	455	995
393	935	826
394	14	844
395	399	779
396	329	289
397	72	286
398	391	310
399	487	381
400	559	475
401	892	947
402	727	789
403	111	424
404	385	927
405	569	706
406	680	342
407	228	955
408	235	773
409	996	321
410	63	44
411	525	530
412	860	883
413	879	334
414	61	472
415	854	831
416	674	290
417	416	476
418	234	796
419	20	221
420	134	987
421	863	959
422	221	98
423	531	752
424	328	886
425	530	991
426	514	870
427	434	233
428	916	3
429	521	826
430	293	294
431	761	984
432	361	873
433	158	892
434	132	546
435	599	681
436	902	89
437	644	103
438	847	837
439	847	128
440	504	732
441	241	967
442	367	924
443	445	729
444	207	836
445	337	850
446	499	1000
447	364	50
448	903	755
449	32	122
450	544	74
451	879	53
452	763	995
453	404	63
454	53	689
455	731	526
456	588	371
457	230	906
458	368	167
459	173	464
460	474	510
461	305	566
462	679	77
463	433	542
464	220	962
465	644	887
466	275	20
467	866	853
468	645	502
469	132	274
470	207	986
471	858	10
472	559	632
473	494	197
474	593	250
475	631	211
476	124	213
477	671	404
478	445	822
479	947	638
480	609	282
481	292	371
482	715	380
483	862	429
484	845	348
485	990	204
486	62	597
487	89	424
488	154	441
489	74	245
490	106	752
491	531	209
492	258	910
493	932	983
494	952	34
495	989	703
496	303	677
497	710	273
498	783	845
499	443	365
500	494	146
501	980	94
502	236	435
503	39	579
504	726	587
505	152	911
506	597	367
507	448	726
508	389	262
509	941	478
510	720	674
511	811	326
512	418	887
513	709	402
514	971	342
515	381	533
516	634	700
517	927	625
518	909	493
519	118	563
520	453	971
521	234	508
522	716	84
523	476	681
524	910	11
525	754	34
526	926	176
527	354	15
528	490	946
529	347	548
530	432	37
531	889	304
532	543	491
533	94	737
534	748	36
535	434	987
536	747	948
537	790	855
538	281	22
539	455	135
540	891	893
541	830	508
542	610	379
543	218	775
544	85	244
545	92	99
546	830	435
547	45	639
548	289	813
549	600	737
550	4	178
551	32	232
552	30	612
553	409	380
554	502	639
555	934	814
556	346	119
557	450	694
558	932	103
559	711	73
560	519	290
561	20	67
562	498	749
563	225	340
564	677	3
565	469	141
566	482	303
567	66	590
568	388	750
569	99	199
570	474	431
571	375	224
572	938	291
573	582	550
574	73	806
575	187	538
576	515	805
577	677	621
578	999	754
579	543	198
580	548	118
581	306	569
582	386	304
583	942	14
584	421	609
585	864	610
586	260	620
587	893	811
588	715	823
589	543	139
590	715	974
591	85	819
592	308	461
593	1000	842
594	34	290
595	411	760
596	402	923
597	591	554
598	822	570
599	744	889
600	463	968
601	660	235
602	650	142
603	226	329
604	825	668
605	96	431
606	770	461
607	591	208
608	162	236
609	273	851
610	401	184
611	90	56
612	99	652
613	120	81
614	285	161
615	878	700
616	421	350
617	812	849
618	44	522
619	374	258
620	947	170
621	487	227
622	230	121
623	767	528
624	182	824
625	695	217
626	370	245
627	607	344
628	740	666
629	520	394
630	684	173
631	0	517
632	348	739
633	51	744
634	505	983
635	606	398
636	748	166
637	802	753
638	432	367
639	319	17
640	158	190
641	560	334
642	369	32
643	864	404
644	20	480
645	951	307
646	517	739
647	527	152
648	456	988
649	774	247
650	215	536
651	70	695
652	476	610
653	71	776
654	171	918
655	87	901
656	984	36
657	891	213
658	599	434
659	507	998
660	784	872
661	645	798
662	77	899
663	447	651
664	421	96
665	938	163
666	238	686
667	277	817
668	710	552
669	620	198
670	634	44
671	269	756
672	59	6
673	908	841
674	742	873
675	38	867
676	49	7
677	700	359
678	122	213
679	658	244
680	744	767
681	637	471
682	588	563
683	828	487
684	222	612
685	365	155
686	978	401
687	403	270
688	845	899
689	413	77
690	705	820
691	128	481
692	942	68
693	553	137
694	186	996
695	736	490
696	30	707
697	994	814
698	880	640
699	455	52
700	900	732
701	684	163
702	304	702
703	139	612
704	829	778
705	702	328
706	113	182
707	409	401
708	728	580
709	285	903
710	276	623
711	67	380
712	370	126
713	887	188
714	618	811
715	707	178
716	559	870
717	917	116
718	680	440
719	871	567
720	461	847
721	46	20
722	162	766
723	90	45
724	860	65
725	652	409
726	340	658
727	834	518
728	859	452
729	270	514
730	127	798
731	402	916
732	577	951
733	684	637
734	815	883
735	218	126
736	94	710
737	480	122
738	982	581
739	529	87
740	53	729
741	911	293
742	604	904
743	805	133
744	588	926
745	570	982
746	599	620
747	406	206
748	308	708
749	457	737
750	210	374
751	359	580
752	399	761
753	467	68
754	833	342
755	237	208
756	891	322
757	804	197
758	196	990
759	16	869
760	367	670
761	376	870
762	913	281
763	639	763
764	184	119
765	533	742
766	397	155
767	650	940
768	207	852
769	431	240
770	341	160
771	735	440
772	40	398
773	402	579
774	693	432
775	610	229
776	246	80
777	660	599
778	835	581
779	495	790
780	616	318
781	676	621
782	61	555
783	959	8
784	678	935
785	82	621
786	859	152
787	562	119
788	628	169
789	685	474
790	178	998
791	886	797
792	808	621
793	701	757
794	766	351
795	785	735
796	143	561
797	546	539
798	201	880
799	463	996
800	370	879
801	54	798
802	886	106
803	227	434
804	842	764
805	189	321
806	325	436
807	951	442
808	294	665
809	429	203
810	152	876
811	560	481
812	672	275
813	13	552
814	964	610
815	641	642
816	147	708
817	715	66
818	333	448
819	135	206
820	31	283
821	263	113
822	208	176
823	688	990
824	546	797
825	973	344
826	771	516
827	825	677
828	36	533
829	813	167
830	277	168
831	516	463
832	61	788
833	719	118
834	284	437
835	682	480
836	555	808
837	948	551
838	464	540
839	939	402
840	341	888
841	69	581
842	556	484
843	15	809
844	714	455
845	223	22
846	157	554
847	619	71
848	50	423
849	818	419
850	372	544
851	218	703
852	663	858
853	377	220
854	136	161
855	241	374
856	816	214
857	400	642
858	760	50
859	961	520
860	357	303
861	498	845
862	478	76
863	484	822
864	904	119
865	42	686
866	551	424
867	13	135
868	997	893
869	359	473
870	983	845
871	444	190
872	473	307
873	404	521
874	41	397
875	369	918
876	328	713
877	360	579
878	940	582
879	282	348
880	352	32
881	666	70
882	155	134
883	622	641
884	41	563
885	272	382
886	927	341
887	391	220
888	850	494
889	109	612
890	180	135
891	301	666
892	376	84
893	271	312
894	714	603
895	793	747
896	799	486
897	716	88
898	460	659
899	559	27
900	40	168
901	670	162
902	723	391
903	54	347
904	417	339
905	859	752
906	360	406
907	987	566
908	49	616
909	639	714
910	66	257
911	200	327
912	217	804
913	525	439
914	455	850
915	986	559
916	956	923
917	275	780
918	313	799
919	696	35
920	248	863
921	68	336
922	493	63
923	224	991
924	968	448
925	409	270
926	668	60
927	905	725
928	865	951
929	310	23
930	181	444
931	220	122
932	445	728
933	269	427
934	357	656
935	656	784
936	180	880
937	473	118
938	598	296
939	496	971
940	122	363
941	602	885
942	640	3
943	155	766
944	71	221
945	31	551
946	902	966
947	458	629
948	546	746
949	782	283
950	117	888
951	939	787
952	228	987
953	361	620
954	235	163
955	159	115
956	440	263
957	405	413
958	282	810
959	158	772
960	284	863
961	495	584
962	869	631
963	761	933
964	427	710
965	952	858
966	161	108
967	69	365
968	435	259
969	704	101
970	861	827
971	911	675
972	782	470
973	132	740
974	751	754
975	29	834
976	516	632
977	707	38
978	118	274
979	798	484
980	358	318
981	403	75
982	614	140
983	920	250
984	808	623
985	118	983
986	384	455
987	570	708
988	205	85
989	785	394
990	442	78
991	112	855
992	801	799
993	952	469
994	100	330
995	621	516
996	162	253
997	108	757
998	923	830
999	222	803
1000	833	373
1001	879	161
DEMAND_SECTION
1	0
2	5
3	6
4	8
5	2
6	8
7	5
8	9
9	7
10	2
11	7
12	2
13	4
14	6
15	8
16	9
17	4
18	7
19	1
20	6
21	4
22	7
23	8
24	4
25	7
26	1
27	4
28	9
29	8
30	1
31	6
32	5
33	9
34	7
35	8
36	7
37	2
38	3
39	9
40	3
41	2
42	7
43	7
44	1
45	2
46	1
47	3
48	2
49	7
50	4
51	5
52	1
53	3
54	6
55	4
56	9
57	3
58	8
59	8
60	2
61	6
62	2
63	4
64	1
65	5
66	3
67	1
68	1
69	9
70	4
71	3
72	5
73	5
74	6
75	3
76	2
77	2
78	8
79	3
80	9
81	4
82	9
83	5
84	6
85	9
86	9
87	7
88	5
89	9
90	2
91	2
92	9
93	1
94	1
95	7
96	1
97	7
98	5
99	3
100	9
101	9
102	9
103	4
104	4
105	1
106	3
107	1
108	1
109	8
110	8
111	2
112	6
113	1
114	7
115	3
116	7
117	8
118	5
119	1
120	7
121	1
122	5
123	1
124	2
125	2
126	2
127	9
128	1
129	3
130	2
131	4
132	1
133	8
134	6
135	9
136	1
137	5
138	1
139	4
140	3
141	1
142	3
143	5
144	8
145	5
146	2
147	8
148	1
149	8
150	7
151	8
152	8
153	6
154	3
155	2
156	2
157	6
158	5
159	1
160	7
161	2
162	4
163	1
164	1
165	4
166	2
167	7
168	5
169	1
170	8
171	3
172	4
173	5
174	4
175	2
176	8
177	9
178	6
179	2
180	3
181	2
182	3
183	9
184	7
185	6
186	2
187	1
188	6
189	4
190	8
191	5
192	9
193	4
194	7
195	9
196	4
197	7
198	9
199	6
200	2
201	3
202	2
203	2
204	1
205	9
206	8
207	2
208	6
209	8
210	1
211	8
212	7
213	6
214	5
215	7
216	3
217	6
218	1
219	9
220	1
221	6
222	9
223	9
224	4
225	7
226	1
227	7
228	2
229	7
230	8
231	7
232	4
233	2
234	2
235	1
236	9
237	4
238	4
239	1
240	1
241	1
242	6
243	8
244	9
245	3
246	2
247	5
248	9
249	1
250	9
251	4
252	8
253	1
254	1
255	1
256	3
257	3
258	5
259	7
260	1
261	8
262	9
263	7
264	1
265	3
266	1
267	8
268	3
269	2
270	2
271	3
272	9
273	3
274	9
275	2
276	8
277	9
278	4
279	2
280	5
281	5
282	9
283	1
284	7
285	5
286	3
287	6
288	8
289	5
290	4
291	1
292	4
293	9
294	6
295	1
296	3
297	8
298	5
299	3
300	9
301	5
302	4
303	6
304	7
305	2
306	7
307	5
308	6
309	9
310	1
311	6
312	3
313	3
314	9
315	6
316	4
317	5
318	3
319	1
320	2
321	4
322	8
323	6
324	6
325	4
326	2
327	5
328	9
329	8
330	6
331	4
332	2
333	8
334	8
335	8
336	8
337	6
338	6
339	7
340	5
341	9
342	2
343	4
344	4
345	9
346	7
347	7
348	1
349	5
350	5
351	4
352	7
353	7
354	7
355	6
356	6
357	3
358	8
359	9
360	7
361	3
362	8
363	7
364	8
365	6
366	2
367	4
368	6
369	6
370	8
371	5
372	3
373	5
374	5
375	4
376	8
377	7
378	7
379	2
380	7
381	9
382	9
383	1
384	5
385	2
386	1
387	5
388	4
389	3
390	1
391	6
392	7
393	4
394	1
395	9
396	6
397	1
398	4
399	1
400	5
401	5
402	5
403	6
404	7
405	1
406	5
407	2
408	5
409	2
410	1
411	4
412	9
413	9
414	8
415	2
416	2
417	2
418	6
419	5
420	4
421	2
422	9
423	8
424	9
425	3
426	1
427	7
428	4
429	8
430	2
431	5
432	1
433	5
434	4
435	8
436	5
437	5
438	4
439	5
440	5
441	2
442	5
443	8
444	4
445	2
446	9
447	6
448	1
449	8
450	1
451	2
452	9
453	7
454	4
455	3
456	4
457	9
458	1
459	8
460	7
461	1
462	8
463	7
464	6
465	8
466	7
467	7
468	1
469	4
470	6
471	6
472	2
473	8
474	8
475	9
476	4
477	9
478	1
479	8
480	9
481	9
482	3
483	1
484	6
485	6
486	9
487	5
488	8
489	4
490	3
491	1
492	3
493	3
494	4
495	5
496	4
497	4
498	7
499	6
500	2
501	6
502	3
503	3
504	5
505	2
506	6
507	9
508	6
509	5
510	9
511	3
512	2
513	4
514	3
515	7
516	1
517	2
518	5
519	5
520	1
521	3
522	1
523	9
524	7
525	7
526	7
527	1
528	8
529	7
530	8
531	2
532	8
533	2
534	2
535	6
536	1
537	5
538	1
539	8
540	1
541	1
542	1
543	6
544	9
545	1
546	9
547	9
548	2
549	2
550	2
551	3
552	2
553	7
554	5
555	5
556	8
557	8
558	4
559	6
560	4
561	2
562	4
563	6
564	9
565	2
566	7
567	3
568	3
569	1
570	5
571	3
572	3
573	9
574	8
575	5
576	3
577	6
578	3
579	1
580	8
581	2
582	5
583	2
584	3
585	5
586	4
587	9
588	2
589	3
590	8
591	2
592	3
593	5
594	1
595	1
596	6
597	4
598	7
599	6
600	5
601	1
602	2
603	7
604	1
605	7
606	1
607	4
608	7
609	9
610	7
611	2
612	1
613	9
614	7
615	7
616	1
617	8
618	1
619	8
620	7
621	1
622	7
623	1
624	7
625	8
626	1
627	6
628	6
629	1
630	9
631	9
632	9
633	3
634	9
635	5
636	2
637	2
638	3
639	2
640	6
641	6
642	4
643	6
644	1
645	6
646	6
647	7
648	6
649	6
650	3
651	1
652	8
653	4
654	3
655	4
656	1
657	7
658	3
659	9
660	3
661	2
662	9
663	9
664	4
665	9
666	5
667	2
668	5
669	6
670	9
671	8
672	9
673	3
674	7
675	3
676	7
677	9
678	6
679	3
680	5
681	6
682	5
683	2
684	8
685	4
686	2
687	9
688	1
689	2
690	1
691	5
692	9
693	8
694	2
695	2
696	3
697	3
698	3
699	3
700	4
701	6
702	7
703	9
704	8
705	6
706	9
707	7
708	5
709	9
710	4
711	1
712	1
713	2
714	3
715	8
716	6
717	8
718	6
719	9
720	4
721	3
722	8
723	8
724	6
725	1
726	3
727	8
728	2
729	2
730	9
731	9
732	5
733	5
734	2
735	9
736	7
737	9
738	4
739	1
740	8
741	9
742	9
743	8
744	3
745	5
746	5
747	7
748	9
749	9
750	6
751	7
752	3
753	9
754	7
755	2
756	3
757	8
758	9
759	2
760	4
761	6
762	3
763	4
764	8
765	9
766	5
767	1
768	5
769	8
770	1
771	1
772	5
773	9
774	3
775	6
776	3
777	7
778	1
779	6
780	7
781	7
782	1
783	7
784	8
785	5
786	4
787	4
788	6
789	1
790	9
791	1
792	6
793	2
794	3
795	9
796	1
797	7
798	4
799	7
800	4
801	5
802	6
803	5
804	8
805	1
806	6
807	1
808	3
809	3
810	5
811	7
812	7
813	9
814	2
815	5
816	3
817	7
818	7
819	6
820	5
821	1
822	3
823	6
824	9
825	2
826	9
827	9
828	1
829	2
830	9
831	4
832	6
833	7
834	9
835	4
836	2
837	3
838	2
839	5
840	4
841	4
842	1
843	8
844	2
845	8
846	4
847	2
848	4
849	2
850	9
851	5
852	6
853	3
854	1
855	9
856	2
857	4
858	5
859	7
860	4
861	4
862	3
863	4
864	8
865	6
866	9
867	3
868	6
869	2
870	5
871	1
872	9
873	4
874	8
875	9
876	4
877	3
878	3
879	5
880	8
881	1
882	5
883	7
884	8
885	5
886	7
887	5
888	7
889	3
890	9
891	1
892	2
893	1
894	6
895	7
896	5
897	9
898	5
899	5
900	3
901	4
902	2
903	8
904	7
905	3
906	7
907	2
908	2
909	3
910	9
911	1
912	3
913	7
914	2
915	1
916	7
917	8
918	5
919	2
920	2
921	7
922	8
923	3
924	7
925	6
926	4
927	5
928	9
929	9
930	8
931	3
932	4
933	6
934	2
935	4
936	4
937	9
938	5
939	2
940	7
941	8
942	1
943	1
944	8
945	8
946	7
947	4
948	4
949	8
950	4
951	5
952	1
953	8
954	4
955	6
956	2
957	9
958	4
959	1
960	2
961	1
962	4
963	1
964	3
965	9
966	7
967	7
968	1
969	5
970	2
971	1
972	3
973	6
974	7
975	9
976	8
977	5
978	1
979	3
980	5
981	5
982	7
983	2
984	2
985	1
986	3
987	5
988	6
989	5
990	4
991	6
992	7
993	1
994	6
995	1
996	6
997	4
998	4
999	7
1000	1
1001	1
BACKHAUL_SECTION
2	6	10	15	19	27	30	38	41	42	53	55	57	58	62	67	68	82	85	92	95	104	107	108	115	116	122	125	128	138	143	148	158	171	178	183	189	193	205	206	207	210	211	214	217	230	233	241	243	266	267	270	277	284	285	296	305	306	307	308	310	312	326	330	332	333	342	347	354	362	366	370	385	400	405	413	414	418	420	421	428	438	444	450	452	455	456	459	460	463	464	467	474	481	486	503	504	511	518	519	521	522	523	524	527	530	533	534	536	542	547	558	562	563	568	572	573	576	578	579	584	587	590	594	603	605	610	614	615	617	635	637	638	639	645	657	667	668	671	679	680	685	686	694	697	698	709	728	731	734	736	737	739	740	745	746	749	762	764	771	776	781	789	798	799	802	804	807	813	828	840	841	848	855	863	867	875	876	879	881	890	895	897	912	934	936	941	942	948	951	969	970	973	974	975	979	984	989	991	998	-1
DEPOT_SECTION
1
-1
EOF
