NAME : n1001-0043
COMMENT : "Generated by pyvrp_manuel (VRPBL)"
TYPE : VRPBL
DIMENSION : 1001
EDGE_WEIGHT_TYPE : EUC_2D
CAPACITY : 150
VEHICLES : 1000
DISTANCE : 3000
NODE_COORD_SECTION
1	619	610
2	20	217
3	694	94
4	642	668
5	730	626
6	300	571
7	708	577
8	74	168
9	366	981
10	816	987
11	234	222
12	927	461
13	394	931
14	377	136
15	222	408
16	795	423
17	388	149
18	572	429
19	74	366
20	660	94
21	357	73
22	232	742
23	371	9
24	296	617
25	582	490
26	262	13
27	230	733
28	806	316
29	385	344
30	489	252
31	859	821
32	952	372
33	578	167
34	42	852
35	721	206
36	164	332
37	567	809
38	773	642
39	481	900
40	768	134
41	712	847
42	460	631
43	171	132
44	728	806
45	687	236
46	272	539
47	100	310
48	687	465
49	839	21
50	108	33
51	528	97
52	321	976
53	172	75
54	957	20
55	991	611
56	305	895
57	517	244
58	256	134
59	643	702
60	923	464
61	46	248
62	355	319
63	840	97
64	994	90
65	318	532
66	958	449
67	402	555
68	501	335
69	535	75
70	858	840
71	529	914
72	533	192
73	615	866
74	267	428
75	979	116
76	427	671
77	30	270
78	77	155
79	831	124
80	406	307
81	748	53
82	388	806
83	31	773
84	559	733
85	960	619
86	545	267
87	985	571
88	544	849
89	195	285
90	488	432
91	217	304
92	364	306
93	249	841
94	702	345
95	193	497
96	185	727
97	701	384
98	426	112
99	707	170
100	963	940
101	71	296
102	336	740
103	910	377
104	966	781
105	170	76
106	131	984
107	137	627
108	461	615
109	370	286
110	721	532
111	24	570
112	98	911
113	586	718
114	154	973
115	961	81
116	439	113
117	194	444
118	214	766
119	983	126
120	913	595
121	647	846
122	477	564
123	733	771
124	89	731
125	696	493
126	808	285
127	70	386
128	762	774
129	685	557
130	908	637
131	109	780
132	590	308
133	201	872
134	802	554
135	438	877
136	797	910
137	149	176
138	705	982
139	250	434
140	971	728
141	481	229
142	882	388
143	690	869
144	305	885
145	554	48
146	293	273
147	190	66
148	799	120
149	693	940
150	975	264
151	205	734
152	720	1
153	698	425
154	250	249
155	299	430
156	106	820
157	857	434
158	602	791
159	265	549
160	427	298
161	106	763
162	419	743
163	811	351
164	12	889
165	163	914
166	705	0
167	925	436
168	21	685
169	542	31
170	61	150
171	135	640
172	850	335
173	829	664
174	564	881
175	68	132
176	689	762
177	246	628
178	182	70
179	510	322
180	236	173
181	218	617
182	595	593
183	870	819
184	541	140
185	357	659
186	961	969
187	718	751
188	836	43
189	788	398
190	940	200
191	253	465
192	538	491
193	526	148
194	862	952
195	659	868
196	83	63
197	736	147
198	8	79
199	150	356
200	434	783
201	188	289
202	838	546
203	163	496
204	531	770
205	385	870
206	557	727
207	592	199
208	527	712
209	94	16
210	93	683
211	301	745
212	460	67
213	536	503
214	914	221
215	953	874
216	256	514
217	240	889
218	248	607
219	557	543
220	105	246
221	159	651
222	365	665
223	890	148
224	921	154
225	343	246
226	283	398
227	157	698
228	543	630
229	354	156
230	716	364
231	47	766
232	908	885
233	867	285
234	846	981
235	519	168
236	562	323
237	104	855
238	879	703
239	983	569
240	79	618
241	393	208
242	9	232
243	972	806
244	569	996
245	787	3
246	575	545
247	193	109
248	262	721
249	596	811
250	757	224
251	510	129
252	537	832
253	617	975
254	362	389
255	179	744
256	151	977
257	644	687
258	566	753
259	337	33
260	49	110
261	781	638
262	526	187
263	84	488
264	82	846
265	870	637
266	653	920
267	8	584
268	828	190
269	473	902
270	12	696
271	333	861
272	192	817
273	858	979
274	93	295
275	417	818
276	262	593
277	866	357
278	172	24
279	187	904
280	545	212
281	709	751
282	281	991
283	991	223
284	28	723
285	14	398
286	978	745
287	351	200
288	537	199
289	456	42
290	136	572
291	644	15
292	617	775
293	810	289
294	628	638
295	882	326
296	275	701
297	486	326
298	382	987
299	507	14
300	24	898
301	980	254
302	479	675
303	265	747
304	485	196
305	780	724
306	253	614
307	740	299
308	666	880
309	942	446
310	480	563
311	947	383
312	832	856
313	542	842
314	253	823
315	854	392
316	705	339
317	97	186
318	265	100
319	36	985
320	396	797
321	679	562
322	99	311
323	407	293
324	594	312
325	929	955
326	507	558
327	683	98
328	41	770
329	359	475
330	103	944
331	522	315
332	502	355
333	568	472
334	289	157
335	712	848
336	261	157
337	591	493
338	41	769
339	954	959
340	844	16
341	687	829
342	853	956
343	134	496
344	9	450
345	157	99
346	825	781
347	857	929
348	874	341
349	317	293
350	16	764
351	468	283
352	689	520
353	196	28
354	356	319
355	90	541
356	418	960
357	716	170
358	316	624
359	827	283
360	543	204
361	321	506
362	292	869
363	377	155
364	914	701
365	376	910
366	803	39
367	646	781
368	985	698
369	972	135
370	396	294
371	365	157
372	501	986
373	947	594
374	714	416
375	652	280
376	460	168
377	380	854
378	252	382
379	565	853
380	883	280
381	694	843
382	604	979
383	530	292
384	167	447
385	20	482
386	275	108
387	35	104
388	262	64
389	30	481
390	372	466
391	820	135
392	509	85
393	649	262
394	214	498
395	460	226
396	960	296
397	676	757
398	879	483
399	931	762
400	591	870
401	87	890
402	860	505
403	475	138
404	127	595
405	718	412
406	949	982
407	714	887
408	85	113
409	453	299
410	942	850
411	147	432
412	923	397
413	916	884
414	46	961
415	460	997
416	154	809
417	113	958
418	106	889
419	3	140
420	810	317
421	278	827
422	257	910
423	941	395
424	724	27
425	25	502
426	448	76
427	276	922
428	27	895
429	421	454
430	539	547
431	970	153
432	101	464
433	728	296
434	263	290
435	346	573
436	6	73
437	526	97
438	444	18
439	70	948
440	286	84
441	562	160
442	135	121
443	792	977
444	486	831
445	897	921
446	333	393
447	333	552
448	884	482
449	880	164
450	301	260
451	748	469
452	784	315
453	426	416
454	231	883
455	392	501
456	97	883
457	862	990
458	428	111
459	277	187
460	143	330
461	396	650
462	895	843
463	918	459
464	810	177
465	904	452
466	543	662
467	617	135
468	507	730
469	114	124
470	745	120
471	507	986
472	340	812
473	195	128
474	44	762
475	16	599
476	818	774
477	426	232
478	430	317
479	695	498
480	38	437
481	377	660
482	840	362
483	881	902
484	420	924
485	681	769
486	301	981
487	75	745
488	178	430
489	501	213
490	876	213
491	985	107
492	117	769
493	814	868
494	299	391
495	483	142
496	228	400
497	984	378
498	649	88
499	984	233
500	362	942
501	214	253
502	191	884
503	667	581
504	199	698
505	140	494
506	129	356
507	274	404
508	955	949
509	470	427
510	658	328
511	621	780
512	762	302
513	585	206
514	143	578
515	433	998
516	343	391
517	562	146
518	491	378
519	724	327
520	758	221
521	960	833
522	279	866
523	676	872
524	483	158
525	775	488
526	561	46
527	809	825
528	794	367
529	900	543
530	568	259
531	242	594
532	724	974
533	334	443
534	711	860
535	333	605
536	444	796
537	18	205
538	390	717
539	118	836
540	481	869
541	423	749
542	226	273
543	10	866
544	333	964
545	804	293
546	47	418
547	116	744
548	226	282
549	845	89
550	982	448
551	939	459
552	876	13
553	540	39
554	938	406
555	37	995
556	290	717
557	530	358
558	402	109
559	825	610
560	756	845
561	734	940
562	589	762
563	275	392
564	263	27
565	441	637
566	268	336
567	393	751
568	823	56
569	699	628
570	826	72
571	339	684
572	980	447
573	431	742
574	323	994
575	796	642
576	987	934
577	519	25
578	262	12
579	7	608
580	521	952
581	637	881
582	763	526
583	113	78
584	263	554
585	618	354
586	892	807
587	478	614
588	380	166
589	72	115
590	912	674
591	229	515
592	306	567
593	745	394
594	478	742
595	573	688
596	762	126
597	685	502
598	233	728
599	61	3
600	872	718
601	539	847
602	404	485
603	420	443
604	954	59
605	240	778
606	966	193
607	730	796
608	749	313
609	570	995
610	977	364
611	87	322
612	21	600
613	150	51
614	170	837
615	10	307
616	920	688
617	85	394
618	633	543
619	50	603
620	736	646
621	556	446
622	51	422
623	957	429
624	883	151
625	99	777
626	9	398
627	601	929
628	116	869
629	614	252
630	920	866
631	568	158
632	399	332
633	222	899
634	177	851
635	115	166
636	232	434
637	722	110
638	696	908
639	360	440
640	654	906
641	995	801
642	884	660
643	512	571
644	305	738
645	691	950
646	342	568
647	689	236
648	385	115
649	565	624
650	9	788
651	873	772
652	754	896
653	972	815
654	522	128
655	948	218
656	218	463
657	318	661
658	441	447
659	651	417
660	673	481
661	201	202
662	921	277
663	633	821
664	219	337
665	903	950
666	329	573
667	492	754
668	332	432
669	338	544
670	404	350
671	303	343
672	603	134
673	770	583
674	135	357
675	283	9
676	310	777
677	143	181
678	528	196
679	511	647
680	898	448
681	451	566
682	671	210
683	15	780
684	456	277
685	539	443
686	142	88
687	824	190
688	326	732
689	791	882
690	189	574
691	733	363
692	810	498
693	24	670
694	479	164
695	53	293
696	426	866
697	9	880
698	517	794
699	691	711
700	823	966
701	48	281
702	196	708
703	512	981
704	260	84
705	916	307
706	909	398
707	613	995
708	816	642
709	392	793
710	490	323
711	79	188
712	393	190
713	647	52
714	299	671
715	388	534
716	251	376
717	690	488
718	56	533
719	201	233
720	817	874
721	352	963
722	274	729
723	187	736
724	775	445
725	120	512
726	908	410
727	62	11
728	734	689
729	361	200
730	612	941
731	146	878
732	231	41
733	492	299
734	555	711
735	631	362
736	645	923
737	610	410
738	253	958
739	359	198
740	964	758
741	434	32
742	926	520
743	322	387
744	343	580
745	329	991
746	395	188
747	794	795
748	489	256
749	82	342
750	797	427
751	72	200
752	393	576
753	96	20
754	516	291
755	880	855
756	519	86
757	812	138
758	839	615
759	133	800
760	578	115
761	886	578
762	72	831
763	857	207
764	551	173
765	595	347
766	531	277
767	117	820
768	304	252
769	353	572
770	23	782
771	869	47
772	540	845
773	543	572
774	107	996
775	440	661
776	980	695
777	519	421
778	677	690
779	157	34
780	400	697
781	798	860
782	973	485
783	427	630
784	41	266
785	618	509
786	954	190
787	231	648
788	52	257
789	678	119
790	139	103
791	23	720
792	128	788
793	705	46
794	479	987
795	407	233
796	394	698
797	114	90
798	917	375
799	870	817
800	633	471
801	698	16
802	365	700
803	299	482
804	226	909
805	976	373
806	740	17
807	299	814
808	884	354
809	697	640
810	733	202
811	48	279
812	16	940
813	786	98
814	702	999
815	384	941
816	591	235
817	452	997
818	663	132
819	689	904
820	231	674
821	247	281
822	378	348
823	646	135
824	536	190
825	664	443
826	606	429
827	608	499
828	965	506
829	50	987
830	784	637
831	35	21
832	732	233
833	862	474
834	136	874
835	786	408
836	415	871
837	663	240
838	51	532
839	800	975
840	808	367
841	983	909
842	95	313
843	598	664
844	898	578
845	83	417
846	564	908
847	564	504
848	783	525
849	8	316
850	605	160
851	171	242
852	234	250
853	15	517
854	73	632
855	30	175
856	225	64
857	39	47
858	516	370
859	829	738
860	27	348
861	223	674
862	272	941
863	175	678
864	372	750
865	91	601
866	506	65
867	34	494
868	755	446
869	354	791
870	155	418
871	297	311
872	605	91
873	323	180
874	771	578
875	936	647
876	57	14
877	4	114
878	819	216
879	41	866
880	391	727
881	414	815
882	399	814
883	486	447
884	786	700
885	155	202
886	957	474
887	384	620
888	452	975
889	892	758
890	604	64
891	806	68
892	188	511
893	214	472
894	962	530
895	35	581
896	332	605
897	930	812
898	502	888
899	985	414
900	248	513
901	889	920
902	402	147
903	236	420
904	659	744
905	833	841
906	540	447
907	185	374
908	685	366
909	817	916
910	274	774
911	238	896
912	679	844
913	894	884
914	84	69
915	10	713
916	298	730
917	541	588
918	336	695
919	114	146
920	109	333
921	606	343
922	936	633
923	856	520
924	911	629
925	809	312
926	609	979
927	374	903
928	994	623
929	547	693
930	296	322
931	534	901
932	219	683
933	903	505
934	318	389
935	783	823
936	267	925
937	415	934
938	6	182
939	853	211
940	442	650
941	253	804
942	113	935
943	973	177
944	571	232
945	393	452
946	631	679
947	693	999
948	947	280
949	723	675
950	965	184
951	147	152
952	357	336
953	595	752
954	678	30
955	942	449
956	48	962
957	879	610
958	495	681
959	654	137
960	384	250
961	679	269
962	8	73
963	470	725
964	125	209
965	455	648
966	772	570
967	706	424
968	402	996
969	224	930
970	1	844
971	590	30
972	456	113
973	278	838
974	891	772
975	696	948
976	626	756
977	32	766
978	919	263
979	552	514
980	638	606
981	333	817
982	27	818
983	314	329
984	640	593
985	547	367
986	138	106
987	279	825
988	902	71
989	590	802
990	403	652
991	367	95
992	36	257
993	420	607
994	914	935
995	231	458
996	651	827
997	30	479
998	543	987
999	376	226
1000	194	817
1001	844	29
DEMAND_SECTION
1	0
2	7
3	7
4	7
5	3
6	3
7	9
8	9
9	3
10	5
11	9
12	9
13	4
14	8
15	2
16	5
17	1
18	1
19	8
20	3
21	9
22	8
23	4
24	8
25	7
26	9
27	1
28	8
29	5
30	4
31	9
32	4
33	5
34	8
35	7
36	2
37	7
38	2
39	8
40	2
41	2
42	9
43	4
44	5
45	1
46	1
47	3
48	8
49	7
50	3
51	7
52	8
53	2
54	5
55	1
56	7
57	1
58	5
59	5
60	9
61	6
62	6
63	6
64	2
65	5
66	5
67	1
68	7
69	5
70	8
71	2
72	1
73	4
74	4
75	2
76	3
77	2
78	2
79	5
80	3
81	4
82	6
83	5
84	6
85	3
86	7
87	7
88	4
89	4
90	8
91	3
92	6
93	5
94	9
95	8
96	1
97	9
98	7
99	9
100	3
101	8
102	5
103	6
104	9
105	2
106	4
107	7
108	5
109	9
110	4
111	6
112	4
113	9
114	7
115	9
116	7
117	4
118	5
119	3
120	8
121	3
122	1
123	5
124	8
125	8
126	5
127	3
128	8
129	9
130	8
131	1
132	4
133	7
134	4
135	8
136	1
137	6
138	1
139	8
140	6
141	6
142	8
143	6
144	1
145	8
146	6
147	4
148	4
149	3
150	7
151	9
152	1
153	4
154	1
155	5
156	9
157	2
158	3
159	4
160	7
161	3
162	2
163	3
164	4
165	9
166	8
167	8
168	8
169	6
170	3
171	2
172	9
173	9
174	3
175	8
176	7
177	8
178	1
179	5
180	3
181	6
182	5
183	2
184	5
185	9
186	4
187	3
188	3
189	7
190	1
191	3
192	6
193	3
194	9
195	8
196	6
197	3
198	1
199	2
200	8
201	7
202	3
203	4
204	5
205	8
206	4
207	2
208	8
209	9
210	5
211	1
212	2
213	9
214	4
215	1
216	3
217	7
218	8
219	8
220	4
221	3
222	7
223	4
224	7
225	3
226	8
227	6
228	7
229	6
230	6
231	6
232	3
233	1
234	3
235	1
236	4
237	5
238	1
239	7
240	4
241	1
242	1
243	9
244	8
245	1
246	7
247	3
248	5
249	1
250	9
251	5
252	8
253	8
254	7
255	5
256	2
257	4
258	5
259	9
260	3
261	2
262	6
263	5
264	3
265	4
266	7
267	6
268	8
269	4
270	9
271	7
272	6
273	1
274	1
275	3
276	5
277	6
278	2
279	2
280	1
281	9
282	4
283	4
284	6
285	8
286	7
287	9
288	8
289	1
290	2
291	3
292	6
293	8
294	5
295	3
296	9
297	5
298	8
299	8
300	1
301	3
302	2
303	1
304	8
305	8
306	4
307	5
308	9
309	2
310	4
311	3
312	5
313	9
314	4
315	3
316	5
317	1
318	8
319	4
320	4
321	5
322	1
323	7
324	2
325	9
326	3
327	7
328	1
329	7
330	5
331	1
332	7
333	2
334	1
335	8
336	6
337	5
338	6
339	7
340	3
341	6
342	4
343	1
344	2
345	1
346	8
347	4
348	8
349	4
350	8
351	6
352	2
353	8
354	1
355	1
356	8
357	9
358	8
359	3
360	7
361	4
362	9
363	2
364	7
365	4
366	4
367	5
368	6
369	3
370	8
371	3
372	9
373	9
374	7
375	1
376	2
377	8
378	5
379	5
380	9
381	3
382	7
383	5
384	5
385	3
386	3
387	2
388	6
389	8
390	2
391	4
392	6
393	8
394	5
395	9
396	9
397	1
398	5
399	7
400	6
401	3
402	3
403	9
404	9
405	2
406	1
407	5
408	4
409	3
410	4
411	9
412	5
413	4
414	6
415	2
416	2
417	7
418	7
419	5
420	5
421	3
422	2
423	8
424	7
425	9
426	1
427	6
428	2
429	4
430	6
431	3
432	8
433	3
434	4
435	2
436	6
437	4
438	7
439	9
440	2
441	5
442	8
443	6
444	4
445	5
446	8
447	8
448	3
449	1
450	8
451	5
452	2
453	3
454	9
455	9
456	5
457	1
458	5
459	1
460	5
461	3
462	2
463	2
464	8
465	5
466	2
467	5
468	7
469	1
470	6
471	3
472	6
473	8
474	3
475	6
476	6
477	7
478	4
479	6
480	4
481	2
482	1
483	9
484	3
485	4
486	2
487	4
488	2
489	5
490	8
491	8
492	7
493	5
494	6
495	7
496	7
497	3
498	3
499	1
500	3
501	4
502	7
503	6
504	8
505	3
506	3
507	1
508	9
509	1
510	4
511	6
512	1
513	4
514	9
515	7
516	1
517	6
518	6
519	3
520	6
521	1
522	9
523	8
524	3
525	4
526	9
527	2
528	3
529	2
530	1
531	9
532	8
533	1
534	4
535	5
536	5
537	6
538	1
539	6
540	4
541	1
542	1
543	9
544	1
545	9
546	4
547	6
548	2
549	2
550	1
551	1
552	9
553	7
554	2
555	1
556	6
557	8
558	1
559	2
560	6
561	8
562	8
563	8
564	3
565	3
566	5
567	6
568	7
569	8
570	3
571	1
572	7
573	5
574	1
575	3
576	9
577	7
578	9
579	4
580	7
581	9
582	8
583	7
584	7
585	6
586	1
587	8
588	4
589	1
590	1
591	5
592	1
593	8
594	3
595	2
596	9
597	6
598	6
599	6
600	7
601	7
602	9
603	5
604	4
605	5
606	4
607	3
608	9
609	9
610	7
611	3
612	6
613	1
614	2
615	3
616	1
617	9
618	4
619	4
620	4
621	4
622	7
623	7
624	1
625	3
626	7
627	6
628	8
629	3
630	3
631	4
632	1
633	6
634	4
635	6
636	1
637	3
638	6
639	1
640	8
641	7
642	5
643	7
644	3
645	2
646	1
647	8
648	4
649	2
650	9
651	7
652	7
653	1
654	8
655	4
656	9
657	3
658	2
659	2
660	9
661	7
662	9
663	7
664	7
665	7
666	4
667	6
668	5
669	6
670	5
671	9
672	5
673	4
674	7
675	3
676	4
677	2
678	9
679	3
680	9
681	7
682	6
683	9
684	7
685	6
686	2
687	3
688	6
689	5
690	4
691	4
692	6
693	4
694	1
695	3
696	7
697	2
698	6
699	4
700	5
701	7
702	3
703	8
704	7
705	7
706	7
707	7
708	2
709	1
710	3
711	8
712	7
713	1
714	3
715	1
716	4
717	6
718	4
719	8
720	8
721	4
722	1
723	7
724	8
725	8
726	9
727	2
728	6
729	6
730	6
731	3
732	7
733	8
734	4
735	5
736	1
737	6
738	3
739	1
740	9
741	6
742	8
743	7
744	6
745	7
746	1
747	8
748	4
749	5
750	4
751	6
752	6
753	9
754	3
755	4
756	9
757	7
758	6
759	5
760	1
761	4
762	8
763	4
764	7
765	1
766	9
767	7
768	1
769	2
770	6
771	8
772	8
773	7
774	2
775	6
776	6
777	1
778	8
779	2
780	2
781	7
782	6
783	2
784	6
785	5
786	8
787	6
788	8
789	8
790	4
791	6
792	3
793	8
794	1
795	7
796	9
797	4
798	1
799	4
800	7
801	7
802	9
803	2
804	4
805	7
806	2
807	9
808	5
809	5
810	8
811	9
812	9
813	9
814	8
815	3
816	4
817	4
818	1
819	3
820	2
821	3
822	3
823	3
824	2
825	4
826	2
827	4
828	6
829	5
830	5
831	6
832	3
833	6
834	1
835	2
836	3
837	4
838	1
839	6
840	1
841	7
842	6
843	7
844	5
845	6
846	6
847	7
848	6
849	7
850	1
851	5
852	5
853	5
854	8
855	9
856	5
857	1
858	9
859	3
860	1
861	9
862	5
863	6
864	9
865	2
866	2
867	8
868	6
869	3
870	7
871	7
872	5
873	1
874	3
875	3
876	1
877	2
878	5
879	5
880	9
881	3
882	1
883	2
884	8
885	9
886	8
887	1
888	6
889	8
890	3
891	7
892	4
893	6
894	4
895	9
896	1
897	8
898	4
899	5
900	4
901	1
902	2
903	7
904	2
905	1
906	1
907	2
908	7
909	2
910	6
911	8
912	9
913	2
914	2
915	1
916	1
917	8
918	8
919	6
920	7
921	9
922	1
923	8
924	3
925	1
926	6
927	5
928	9
929	7
930	3
931	9
932	8
933	5
934	7
935	7
936	4
937	7
938	2
939	6
940	6
941	8
942	3
943	7
944	2
945	9
946	2
947	3
948	5
949	4
950	3
951	1
952	9
953	6
954	4
955	7
956	2
957	2
958	9
959	7
960	1
961	5
962	6
963	1
964	5
965	7
966	1
967	6
968	6
969	5
970	6
971	7
972	4
973	9
974	3
975	7
976	6
977	5
978	7
979	2
980	1
981	3
982	4
983	7
984	8
985	6
986	1
987	2
988	6
989	1
990	1
991	2
992	5
993	4
994	1
995	8
996	6
997	9
998	1
999	2
1000	5
1001	4
BACKHAUL_SECTION
2	6	10	15	19	27	30	38	41	42	53	55	57	58	62	67	68	82	85	92	95	104	107	108	115	116	122	125	128	138	143	148	158	171	178	183	189	193	205	206	207	210	211	214	217	230	233	241	243	266	267	270	277	284	285	296	305	306	307	308	310	312	326	330	332	333	342	347	354	362	366	370	385	400	405	413	414	418	420	421	428	438	444	450	452	455	456	459	460	463	464	467	474	481	486	503	504	511	518	519	521	522	523	524	527	530	533	534	536	542	547	558	562	563	568	572	573	576	578	579	584	587	590	594	603	605	610	614	615	617	635	637	638	639	645	657	667	668	671	679	680	685	686	694	697	698	709	728	731	734	736	737	739	740	745	746	749	762	764	771	776	781	789	798	799	802	804	807	813	828	840	841	848	855	863	867	875	876	879	881	890	895	897	912	934	936	941	942	948	951	969	970	973	974	975	979	984	989	991	998	-1
DEPOT_SECTION
1
-1
EOF
