NAME : n1001-0024
COMMENT : "Generated by pyvrp_manuel (VRPBL)"
TYPE : VRPBL
DIMENSION : 1001
EDGE_WEIGHT_TYPE : EUC_2D
CAPACITY : 150
VEHICLES : 1000
DISTANCE : 3000
NODE_COORD_SECTION
1	259	278
2	328	469
3	340	158
4	614	494
5	942	163
6	712	102
7	769	714
8	208	865
9	356	135
10	463	717
11	22	286
12	360	669
13	318	779
14	593	381
15	411	118
16	278	492
17	728	225
18	305	508
19	334	859
20	214	353
21	874	214
22	534	125
23	723	263
24	710	235
25	855	73
26	159	907
27	544	310
28	676	465
29	103	329
30	474	539
31	185	932
32	414	64
33	668	838
34	53	164
35	298	225
36	527	544
37	691	388
38	366	239
39	354	681
40	227	13
41	250	611
42	715	161
43	312	884
44	33	940
45	277	299
46	522	853
47	83	379
48	612	423
49	72	728
50	835	314
51	153	963
52	288	972
53	756	568
54	476	273
55	816	608
56	486	81
57	844	53
58	879	972
59	388	224
60	422	920
61	97	987
62	95	728
63	113	392
64	822	495
65	345	24
66	374	60
67	914	674
68	195	369
69	112	834
70	741	124
71	51	801
72	121	905
73	647	339
74	269	239
75	305	142
76	317	787
77	194	728
78	130	776
79	17	696
80	774	527
81	254	450
82	184	57
83	94	227
84	392	209
85	435	339
86	279	962
87	76	588
88	450	378
89	577	913
90	301	193
91	269	652
92	989	559
93	358	656
94	810	961
95	973	940
96	165	430
97	775	294
98	328	919
99	872	594
100	705	570
101	799	123
102	988	761
103	17	515
104	501	284
105	282	619
106	846	695
107	572	877
108	485	631
109	410	239
110	311	143
111	896	956
112	344	265
113	670	751
114	729	156
115	816	116
116	704	945
117	997	959
118	25	342
119	715	319
120	827	862
121	723	983
122	957	649
123	144	781
124	728	30
125	671	92
126	89	74
127	193	705
128	655	25
129	519	576
130	791	72
131	173	296
132	879	847
133	396	139
134	161	591
135	733	980
136	326	126
137	443	336
138	5	182
139	264	837
140	666	358
141	298	327
142	417	429
143	63	955
144	531	175
145	789	145
146	201	849
147	184	993
148	874	335
149	175	566
150	28	101
151	675	413
152	363	626
153	369	510
154	330	788
155	732	416
156	511	810
157	760	629
158	360	470
159	958	724
160	468	129
161	927	814
162	284	535
163	217	88
164	25	814
165	644	734
166	35	171
167	400	137
168	652	417
169	273	237
170	838	517
171	741	239
172	714	313
173	693	961
174	844	87
175	650	758
176	97	853
177	821	459
178	926	302
179	631	954
180	228	610
181	4	854
182	986	147
183	722	8
184	698	27
185	602	400
186	468	596
187	971	184
188	577	495
189	121	348
190	627	352
191	395	562
192	840	459
193	822	133
194	606	101
195	41	719
196	912	764
197	167	235
198	777	209
199	799	106
200	430	14
201	845	332
202	179	56
203	418	509
204	692	201
205	934	418
206	739	628
207	843	905
208	217	571
209	57	964
210	38	6
211	424	274
212	292	249
213	547	475
214	189	421
215	275	209
216	111	717
217	215	468
218	163	934
219	183	670
220	750	547
221	370	590
222	625	935
223	376	883
224	33	896
225	29	929
226	149	86
227	0	439
228	389	363
229	485	267
230	426	598
231	895	880
232	603	696
233	141	244
234	855	165
235	774	590
236	135	987
237	183	780
238	996	186
239	126	251
240	198	195
241	659	531
242	569	218
243	769	483
244	181	721
245	699	358
246	548	429
247	527	530
248	78	670
249	277	181
250	35	873
251	588	505
252	408	163
253	962	844
254	437	980
255	119	236
256	339	874
257	407	527
258	63	61
259	143	145
260	117	273
261	614	426
262	284	488
263	646	51
264	787	722
265	352	360
266	389	618
267	470	699
268	994	92
269	606	342
270	268	234
271	691	644
272	29	624
273	17	367
274	129	370
275	76	673
276	626	967
277	550	593
278	880	208
279	812	590
280	333	123
281	146	94
282	364	369
283	909	782
284	18	405
285	982	582
286	942	503
287	262	281
288	479	653
289	105	79
290	20	70
291	719	554
292	906	620
293	613	144
294	580	755
295	358	967
296	60	80
297	28	864
298	877	419
299	794	754
300	278	669
301	302	856
302	475	724
303	824	750
304	471	619
305	739	305
306	502	623
307	565	383
308	138	64
309	914	103
310	670	826
311	920	183
312	491	986
313	77	901
314	856	72
315	548	239
316	345	673
317	238	193
318	582	493
319	279	852
320	739	857
321	322	154
322	776	875
323	968	409
324	448	445
325	151	273
326	912	48
327	299	867
328	4	164
329	723	452
330	775	585
331	569	805
332	705	811
333	816	97
334	631	203
335	443	122
336	804	566
337	695	817
338	661	608
339	702	732
340	386	902
341	453	90
342	65	309
343	189	743
344	241	315
345	359	492
346	50	796
347	77	184
348	299	329
349	329	5
350	803	12
351	768	859
352	530	396
353	731	623
354	663	413
355	94	556
356	574	81
357	568	554
358	352	81
359	118	25
360	594	326
361	315	49
362	309	233
363	557	747
364	652	539
365	891	201
366	579	471
367	901	26
368	755	3
369	326	57
370	11	902
371	834	860
372	223	407
373	485	254
374	384	94
375	782	451
376	89	978
377	754	688
378	318	135
379	877	903
380	229	542
381	749	702
382	607	156
383	445	816
384	288	50
385	969	680
386	410	228
387	535	271
388	741	427
389	834	834
390	760	906
391	477	116
392	583	103
393	481	674
394	848	777
395	613	897
396	677	335
397	394	293
398	893	937
399	723	898
400	956	878
401	724	596
402	780	445
403	390	896
404	393	744
405	865	167
406	450	649
407	823	480
408	439	732
409	95	639
410	552	215
411	724	942
412	400	976
413	239	360
414	541	934
415	82	543
416	52	904
417	769	454
418	787	780
419	883	931
420	697	489
421	51	905
422	272	727
423	532	594
424	870	651
425	671	230
426	442	25
427	420	312
428	4	443
429	419	390
430	828	138
431	301	52
432	301	849
433	970	438
434	770	838
435	256	779
436	815	667
437	918	90
438	224	874
439	991	403
440	648	738
441	440	31
442	904	521
443	723	796
444	515	823
445	365	998
446	247	681
447	419	864
448	313	753
449	673	60
450	122	916
451	165	317
452	724	697
453	412	846
454	987	607
455	549	925
456	107	796
457	381	702
458	289	862
459	559	817
460	702	804
461	404	737
462	413	577
463	969	584
464	686	810
465	736	731
466	1	19
467	429	361
468	584	800
469	184	883
470	275	985
471	444	942
472	385	784
473	899	100
474	758	650
475	352	434
476	628	824
477	317	674
478	993	228
479	536	427
480	126	17
481	311	432
482	474	969
483	147	300
484	443	26
485	621	171
486	950	62
487	433	748
488	19	995
489	607	93
490	447	823
491	924	79
492	179	843
493	350	789
494	439	409
495	12	589
496	660	30
497	651	414
498	882	985
499	905	444
500	725	252
501	686	113
502	984	891
503	709	28
504	936	207
505	159	247
506	537	262
507	262	560
508	841	619
509	45	714
510	315	127
511	690	853
512	371	670
513	642	322
514	272	14
515	811	473
516	611	886
517	124	865
518	841	553
519	944	235
520	340	376
521	993	961
522	829	227
523	896	367
524	828	97
525	135	565
526	967	541
527	485	276
528	831	288
529	239	597
530	348	861
531	523	290
532	169	683
533	823	999
534	139	477
535	997	865
536	361	51
537	835	604
538	153	162
539	187	292
540	211	959
541	887	390
542	548	295
543	505	981
544	414	536
545	956	241
546	165	502
547	95	37
548	79	338
549	429	335
550	577	703
551	991	850
552	161	778
553	981	575
554	602	460
555	333	645
556	499	10
557	690	404
558	53	102
559	211	449
560	771	391
561	533	292
562	321	437
563	399	179
564	857	854
565	596	315
566	98	779
567	688	915
568	96	761
569	720	126
570	103	774
571	265	107
572	136	383
573	850	600
574	89	11
575	445	244
576	724	368
577	832	305
578	742	661
579	641	962
580	692	672
581	701	3
582	351	503
583	377	223
584	201	135
585	22	297
586	145	773
587	265	401
588	744	408
589	408	182
590	716	289
591	726	699
592	399	199
593	586	230
594	897	683
595	660	697
596	589	799
597	394	69
598	639	112
599	222	677
600	361	39
601	138	388
602	452	644
603	833	132
604	789	879
605	11	44
606	692	248
607	846	336
608	347	448
609	686	67
610	137	832
611	483	802
612	890	194
613	261	172
614	638	728
615	249	704
616	704	312
617	980	269
618	867	113
619	113	556
620	956	869
621	886	622
622	365	348
623	493	545
624	171	951
625	983	943
626	394	950
627	490	736
628	827	494
629	553	915
630	470	679
631	331	441
632	748	592
633	329	404
634	21	969
635	554	337
636	151	338
637	972	778
638	582	37
639	992	307
640	431	899
641	393	198
642	795	295
643	732	869
644	956	313
645	462	858
646	846	224
647	775	736
648	403	240
649	280	16
650	172	119
651	187	197
652	752	200
653	254	453
654	122	38
655	811	904
656	481	39
657	360	869
658	203	728
659	152	347
660	51	792
661	128	783
662	623	967
663	484	309
664	57	676
665	24	346
666	956	890
667	612	723
668	318	770
669	757	331
670	723	914
671	435	55
672	967	205
673	811	803
674	78	675
675	289	564
676	450	161
677	62	906
678	610	236
679	317	585
680	329	944
681	611	537
682	65	576
683	820	671
684	78	884
685	600	638
686	457	883
687	525	572
688	714	547
689	77	407
690	454	361
691	397	84
692	212	8
693	884	134
694	595	703
695	239	796
696	40	922
697	675	551
698	196	793
699	673	575
700	126	435
701	760	803
702	210	907
703	846	102
704	907	953
705	950	217
706	922	97
707	131	766
708	856	144
709	6	512
710	264	670
711	663	238
712	969	283
713	815	605
714	40	23
715	222	509
716	805	803
717	820	964
718	810	409
719	379	156
720	78	775
721	297	694
722	11	535
723	885	635
724	427	516
725	171	112
726	532	206
727	739	87
728	662	211
729	518	156
730	235	439
731	416	548
732	359	241
733	179	355
734	153	333
735	340	708
736	133	196
737	293	105
738	109	76
739	805	738
740	676	195
741	746	537
742	70	967
743	436	710
744	21	360
745	752	818
746	478	939
747	433	713
748	567	57
749	748	431
750	210	561
751	105	80
752	247	737
753	430	797
754	254	442
755	750	755
756	209	909
757	506	293
758	469	561
759	455	219
760	934	235
761	303	443
762	386	649
763	461	413
764	889	780
765	698	253
766	823	771
767	333	940
768	385	258
769	903	398
770	3	684
771	591	999
772	515	413
773	68	330
774	458	994
775	241	422
776	128	118
777	419	231
778	37	574
779	390	394
780	234	958
781	963	500
782	503	42
783	807	931
784	880	152
785	432	70
786	584	503
787	4	902
788	193	192
789	622	328
790	866	132
791	8	402
792	948	237
793	180	294
794	773	843
795	367	501
796	113	606
797	303	607
798	62	396
799	523	448
800	948	849
801	419	641
802	714	308
803	176	59
804	281	594
805	661	338
806	745	569
807	325	814
808	455	431
809	927	620
810	926	93
811	405	289
812	529	358
813	81	76
814	701	144
815	724	661
816	994	208
817	448	505
818	893	32
819	97	664
820	241	38
821	666	48
822	829	783
823	227	278
824	39	237
825	313	923
826	717	549
827	130	463
828	227	130
829	199	576
830	539	599
831	49	174
832	795	913
833	543	130
834	916	942
835	572	389
836	265	23
837	747	906
838	944	57
839	747	675
840	531	346
841	746	279
842	535	901
843	733	983
844	335	210
845	954	288
846	267	132
847	141	461
848	800	341
849	23	798
850	257	845
851	29	467
852	323	301
853	875	696
854	219	480
855	318	847
856	861	459
857	958	865
858	818	223
859	270	642
860	72	668
861	14	596
862	293	273
863	929	197
864	698	182
865	61	889
866	105	690
867	592	919
868	814	253
869	887	186
870	134	116
871	993	128
872	486	458
873	923	741
874	826	501
875	83	734
876	690	487
877	811	403
878	46	427
879	311	54
880	6	998
881	821	934
882	16	318
883	904	165
884	82	115
885	613	76
886	536	13
887	300	699
888	675	144
889	280	814
890	558	759
891	16	808
892	839	777
893	100	390
894	493	802
895	130	749
896	528	22
897	123	358
898	391	524
899	984	739
900	965	57
901	584	849
902	243	288
903	490	246
904	111	841
905	121	49
906	887	275
907	195	15
908	545	462
909	644	575
910	952	954
911	938	925
912	32	412
913	523	199
914	738	480
915	44	32
916	659	564
917	544	255
918	563	484
919	664	560
920	820	717
921	922	474
922	581	403
923	425	759
924	538	331
925	941	390
926	858	849
927	661	212
928	934	390
929	232	364
930	789	930
931	515	55
932	77	968
933	477	514
934	22	643
935	812	35
936	305	951
937	54	348
938	980	877
939	49	599
940	936	816
941	185	364
942	906	94
943	481	218
944	966	387
945	507	550
946	345	710
947	719	346
948	740	958
949	190	876
950	672	202
951	341	937
952	550	120
953	14	88
954	26	462
955	738	330
956	23	723
957	313	795
958	899	677
959	685	879
960	643	408
961	406	519
962	743	599
963	711	431
964	510	555
965	683	338
966	497	678
967	632	225
968	104	845
969	980	936
970	621	801
971	941	512
972	486	308
973	815	161
974	123	642
975	670	780
976	369	187
977	801	266
978	491	783
979	690	847
980	273	825
981	882	108
982	469	21
983	506	522
984	653	817
985	712	198
986	880	273
987	44	717
988	130	350
989	616	450
990	507	207
991	174	765
992	83	817
993	371	890
994	211	72
995	896	58
996	520	423
997	581	443
998	464	799
999	952	809
1000	900	963
1001	657	250
DEMAND_SECTION
1	0
2	2
3	6
4	8
5	3
6	3
7	6
8	8
9	2
10	9
11	8
12	9
13	7
14	1
15	6
16	6
17	6
18	1
19	6
20	9
21	2
22	6
23	2
24	8
25	1
26	4
27	7
28	2
29	3
30	6
31	8
32	4
33	7
34	8
35	2
36	2
37	2
38	4
39	4
40	2
41	4
42	8
43	3
44	7
45	1
46	5
47	7
48	1
49	3
50	5
51	2
52	7
53	1
54	8
55	6
56	3
57	8
58	4
59	4
60	5
61	2
62	7
63	9
64	1
65	8
66	3
67	2
68	8
69	3
70	9
71	6
72	2
73	9
74	1
75	8
76	8
77	8
78	9
79	8
80	7
81	3
82	2
83	2
84	5
85	8
86	5
87	7
88	9
89	8
90	5
91	1
92	8
93	2
94	4
95	7
96	7
97	9
98	2
99	8
100	8
101	2
102	5
103	3
104	7
105	7
106	4
107	7
108	7
109	5
110	5
111	4
112	7
113	1
114	4
115	8
116	9
117	9
118	7
119	3
120	3
121	3
122	3
123	6
124	4
125	4
126	9
127	5
128	4
129	5
130	6
131	9
132	9
133	3
134	4
135	8
136	9
137	3
138	2
139	6
140	6
141	1
142	6
143	9
144	8
145	5
146	9
147	5
148	5
149	9
150	2
151	5
152	9
153	2
154	4
155	1
156	4
157	8
158	2
159	9
160	7
161	6
162	7
163	7
164	9
165	4
166	4
167	9
168	9
169	1
170	7
171	2
172	8
173	9
174	8
175	7
176	5
177	7
178	4
179	7
180	6
181	2
182	2
183	3
184	7
185	5
186	1
187	2
188	5
189	8
190	1
191	4
192	9
193	1
194	9
195	3
196	3
197	1
198	2
199	3
200	7
201	1
202	3
203	1
204	8
205	2
206	8
207	4
208	5
209	2
210	2
211	4
212	2
213	5
214	6
215	8
216	8
217	7
218	3
219	1
220	9
221	3
222	3
223	1
224	3
225	7
226	8
227	5
228	1
229	8
230	5
231	6
232	5
233	6
234	7
235	4
236	7
237	6
238	1
239	2
240	5
241	3
242	2
243	7
244	3
245	6
246	1
247	8
248	7
249	5
250	8
251	9
252	2
253	9
254	9
255	1
256	4
257	3
258	3
259	7
260	9
261	3
262	8
263	3
264	2
265	3
266	7
267	7
268	2
269	1
270	2
271	2
272	9
273	4
274	9
275	1
276	2
277	6
278	8
279	1
280	4
281	9
282	4
283	9
284	5
285	3
286	7
287	2
288	6
289	3
290	6
291	7
292	4
293	2
294	8
295	1
296	1
297	7
298	1
299	1
300	3
301	7
302	5
303	6
304	5
305	1
306	6
307	8
308	4
309	5
310	9
311	6
312	1
313	2
314	7
315	3
316	6
317	6
318	9
319	6
320	9
321	3
322	7
323	3
324	7
325	6
326	4
327	2
328	6
329	8
330	8
331	4
332	2
333	8
334	8
335	1
336	1
337	5
338	5
339	2
340	3
341	1
342	4
343	3
344	9
345	1
346	2
347	2
348	3
349	5
350	6
351	1
352	9
353	3
354	3
355	9
356	9
357	6
358	2
359	5
360	6
361	8
362	2
363	5
364	1
365	9
366	4
367	3
368	4
369	5
370	8
371	6
372	1
373	1
374	3
375	9
376	7
377	6
378	7
379	7
380	4
381	2
382	9
383	5
384	2
385	7
386	9
387	2
388	8
389	3
390	2
391	4
392	9
393	2
394	2
395	7
396	5
397	1
398	7
399	7
400	4
401	9
402	2
403	4
404	7
405	2
406	4
407	2
408	3
409	3
410	5
411	5
412	5
413	1
414	7
415	3
416	1
417	1
418	1
419	6
420	3
421	9
422	1
423	2
424	4
425	9
426	2
427	2
428	2
429	1
430	5
431	4
432	5
433	6
434	6
435	6
436	9
437	5
438	7
439	7
440	1
441	3
442	9
443	2
444	1
445	5
446	3
447	6
448	2
449	6
450	7
451	6
452	5
453	8
454	4
455	4
456	3
457	8
458	5
459	9
460	1
461	6
462	3
463	3
464	1
465	4
466	8
467	7
468	3
469	5
470	6
471	1
472	8
473	5
474	7
475	9
476	8
477	1
478	5
479	3
480	5
481	7
482	7
483	6
484	8
485	1
486	3
487	1
488	9
489	9
490	6
491	6
492	2
493	3
494	2
495	6
496	8
497	8
498	7
499	4
500	6
501	1
502	9
503	5
504	7
505	3
506	8
507	7
508	5
509	8
510	2
511	8
512	3
513	3
514	6
515	4
516	4
517	9
518	2
519	5
520	8
521	9
522	8
523	2
524	3
525	8
526	8
527	2
528	8
529	3
530	4
531	8
532	8
533	9
534	9
535	3
536	8
537	7
538	5
539	2
540	3
541	6
542	4
543	1
544	5
545	2
546	4
547	9
548	2
549	5
550	9
551	3
552	1
553	5
554	3
555	8
556	1
557	1
558	8
559	1
560	3
561	9
562	7
563	5
564	2
565	2
566	3
567	7
568	5
569	7
570	4
571	3
572	1
573	4
574	2
575	9
576	4
577	3
578	6
579	3
580	8
581	4
582	7
583	3
584	1
585	3
586	4
587	5
588	6
589	8
590	5
591	3
592	4
593	3
594	5
595	8
596	1
597	2
598	5
599	7
600	2
601	1
602	8
603	7
604	1
605	4
606	4
607	7
608	2
609	2
610	5
611	7
612	5
613	7
614	6
615	7
616	7
617	5
618	7
619	3
620	4
621	7
622	9
623	7
624	5
625	9
626	4
627	5
628	7
629	6
630	9
631	7
632	8
633	4
634	6
635	6
636	6
637	4
638	5
639	1
640	8
641	4
642	9
643	6
644	7
645	9
646	2
647	6
648	7
649	1
650	1
651	2
652	4
653	9
654	8
655	3
656	4
657	8
658	1
659	9
660	6
661	8
662	7
663	9
664	1
665	5
666	5
667	4
668	9
669	9
670	2
671	3
672	6
673	1
674	6
675	7
676	6
677	5
678	1
679	9
680	8
681	4
682	5
683	1
684	3
685	8
686	7
687	1
688	6
689	2
690	6
691	3
692	2
693	2
694	9
695	9
696	5
697	9
698	3
699	5
700	6
701	7
702	1
703	6
704	8
705	6
706	7
707	1
708	6
709	8
710	6
711	4
712	7
713	1
714	5
715	3
716	7
717	3
718	9
719	9
720	5
721	7
722	2
723	7
724	5
725	3
726	7
727	1
728	4
729	1
730	4
731	3
732	3
733	2
734	1
735	1
736	4
737	8
738	1
739	2
740	2
741	9
742	6
743	4
744	4
745	6
746	7
747	7
748	5
749	9
750	3
751	1
752	2
753	1
754	4
755	4
756	1
757	6
758	6
759	8
760	2
761	5
762	9
763	7
764	8
765	7
766	7
767	5
768	2
769	9
770	5
771	8
772	3
773	7
774	3
775	9
776	1
777	7
778	5
779	6
780	4
781	9
782	1
783	7
784	3
785	2
786	7
787	4
788	6
789	6
790	7
791	6
792	7
793	5
794	5
795	1
796	1
797	3
798	4
799	2
800	8
801	8
802	9
803	2
804	1
805	3
806	4
807	8
808	4
809	7
810	1
811	8
812	2
813	2
814	7
815	1
816	3
817	8
818	3
819	6
820	6
821	7
822	1
823	7
824	3
825	3
826	4
827	9
828	9
829	9
830	7
831	4
832	1
833	2
834	6
835	6
836	5
837	7
838	6
839	2
840	5
841	2
842	5
843	8
844	1
845	7
846	3
847	5
848	1
849	6
850	8
851	8
852	2
853	9
854	9
855	4
856	7
857	7
858	1
859	8
860	7
861	2
862	2
863	1
864	1
865	3
866	8
867	8
868	7
869	7
870	6
871	6
872	5
873	9
874	2
875	3
876	6
877	8
878	1
879	2
880	1
881	2
882	7
883	5
884	7
885	9
886	9
887	7
888	2
889	3
890	8
891	7
892	3
893	2
894	8
895	9
896	5
897	8
898	4
899	6
900	5
901	6
902	2
903	2
904	8
905	4
906	4
907	4
908	9
909	9
910	2
911	1
912	9
913	5
914	8
915	6
916	3
917	7
918	5
919	2
920	5
921	1
922	3
923	3
924	4
925	1
926	1
927	9
928	9
929	2
930	7
931	3
932	7
933	1
934	4
935	3
936	6
937	2
938	4
939	5
940	2
941	1
942	3
943	2
944	2
945	5
946	7
947	7
948	3
949	6
950	6
951	7
952	4
953	8
954	5
955	4
956	1
957	3
958	1
959	3
960	2
961	3
962	6
963	7
964	4
965	3
966	6
967	5
968	1
969	7
970	7
971	5
972	3
973	4
974	7
975	6
976	3
977	3
978	8
979	6
980	7
981	2
982	2
983	4
984	7
985	6
986	2
987	2
988	9
989	5
990	8
991	9
992	4
993	5
994	5
995	4
996	5
997	4
998	5
999	1
1000	3
1001	3
BACKHAUL_SECTION
2	6	10	15	19	27	30	38	41	42	53	55	57	58	62	67	68	82	85	92	95	104	107	108	115	116	122	125	128	138	143	148	158	171	178	183	189	193	205	206	207	210	211	214	217	230	233	241	243	266	267	270	277	284	285	296	305	306	307	308	310	312	326	330	332	333	342	347	354	362	366	370	385	400	405	413	414	418	420	421	428	438	444	450	452	455	456	459	460	463	464	467	474	481	486	503	504	511	518	519	521	522	523	524	527	530	533	534	536	542	547	558	562	563	568	572	573	576	578	579	584	587	590	594	603	605	610	614	615	617	635	637	638	639	645	657	667	668	671	679	680	685	686	694	697	698	709	728	731	734	736	737	739	740	745	746	749	762	764	771	776	781	789	798	799	802	804	807	813	828	840	841	848	855	863	867	875	876	879	881	890	895	897	912	934	936	941	942	948	951	969	970	973	974	975	979	984	989	991	998	-1
DEPOT_SECTION
1
-1
EOF
