NAME : n201-0021
COMMENT : "Generated by pyvrp_manuel (OVRP)"
TYPE : OVRP
DIMENSION : 201
EDGE_WEIGHT_TYPE : EUC_2D
CAPACITY : 80
VEHICLES : 200
OPEN_ROUTE : YES
NODE_COORD_SECTION
1	581	485
2	709	508
3	748	257
4	287	221
5	143	370
6	386	284
7	62	800
8	799	48
9	228	265
10	585	756
11	803	850
12	645	867
13	151	461
14	772	622
15	137	273
16	370	697
17	387	103
18	346	248
19	353	662
20	666	775
21	110	160
22	846	165
23	119	339
24	767	914
25	519	444
26	717	247
27	376	981
28	18	394
29	220	518
30	497	566
31	582	772
32	910	468
33	889	248
34	56	653
35	425	463
36	392	491
37	424	356
38	987	631
39	238	842
40	421	89
41	547	72
42	829	251
43	355	676
44	462	142
45	533	662
46	846	500
47	798	216
48	172	112
49	326	411
50	422	707
51	327	580
52	235	793
53	447	5
54	583	76
55	51	331
56	876	813
57	479	272
58	431	441
59	890	689
60	787	194
61	253	670
62	911	317
63	252	967
64	208	250
65	349	745
66	326	123
67	450	379
68	122	684
69	432	957
70	1	343
71	980	831
72	122	237
73	799	305
74	99	943
75	928	245
76	878	20
77	609	841
78	733	680
79	724	547
80	886	933
81	13	33
82	494	255
83	403	114
84	639	509
85	501	993
86	972	915
87	582	195
88	655	181
89	44	969
90	251	90
91	159	839
92	776	183
93	30	856
94	487	836
95	117	394
96	557	700
97	543	951
98	722	606
99	656	412
100	720	402
101	727	557
102	674	893
103	546	315
104	809	143
105	274	188
106	574	429
107	537	552
108	362	149
109	994	538
110	162	944
111	352	264
112	494	634
113	814	148
114	815	892
115	565	880
116	582	735
117	558	68
118	566	541
119	342	390
120	48	346
121	297	686
122	211	909
123	788	650
124	690	765
125	524	253
126	243	477
127	204	863
128	298	498
129	945	789
130	55	926
131	484	409
132	176	336
133	366	433
134	898	108
135	54	499
136	69	588
137	965	209
138	186	879
139	858	431
140	374	900
141	233	979
142	671	982
143	562	367
144	402	154
145	80	954
146	986	417
147	323	858
148	804	360
149	871	311
150	474	806
151	118	705
152	831	585
153	73	651
154	55	481
155	393	300
156	489	668
157	353	241
158	148	819
159	252	334
160	663	109
161	57	717
162	714	760
163	57	587
164	7	923
165	673	915
166	188	705
167	482	447
168	788	603
169	875	968
170	977	297
171	892	525
172	698	22
173	254	841
174	340	436
175	703	33
176	558	17
177	509	669
178	726	784
179	739	797
180	250	86
181	961	566
182	612	320
183	394	339
184	192	101
185	710	722
186	739	957
187	858	135
188	501	426
189	214	439
190	69	74
191	63	724
192	730	52
193	200	41
194	206	545
195	850	745
196	432	560
197	773	955
198	996	505
199	480	608
200	47	475
201	572	933
DEMAND_SECTION
1	0
2	1
3	5
4	5
5	2
6	8
7	5
8	5
9	9
10	6
11	3
12	6
13	4
14	1
15	2
16	2
17	9
18	2
19	6
20	4
21	1
22	7
23	1
24	9
25	3
26	3
27	1
28	6
29	6
30	7
31	8
32	1
33	4
34	3
35	1
36	5
37	4
38	9
39	8
40	3
41	8
42	2
43	8
44	2
45	5
46	5
47	2
48	8
49	3
50	4
51	8
52	5
53	4
54	2
55	3
56	1
57	2
58	9
59	2
60	5
61	8
62	9
63	2
64	8
65	6
66	4
67	5
68	4
69	6
70	2
71	9
72	3
73	1
74	4
75	9
76	6
77	1
78	7
79	1
80	2
81	4
82	7
83	2
84	7
85	1
86	6
87	5
88	2
89	2
90	7
91	3
92	3
93	2
94	3
95	7
96	2
97	5
98	4
99	4
100	3
101	6
102	3
103	6
104	1
105	8
106	2
107	1
108	7
109	7
110	2
111	3
112	7
113	5
114	3
115	7
116	1
117	7
118	5
119	7
120	1
121	5
122	3
123	3
124	5
125	8
126	6
127	3
128	6
129	7
130	9
131	2
132	2
133	9
134	4
135	5
136	2
137	8
138	4
139	8
140	1
141	1
142	1
143	1
144	6
145	6
146	8
147	7
148	3
149	2
150	7
151	9
152	4
153	9
154	6
155	1
156	4
157	5
158	1
159	1
160	3
161	8
162	2
163	2
164	6
165	9
166	3
167	7
168	8
169	2
170	1
171	7
172	6
173	4
174	7
175	3
176	3
177	6
178	8
179	3
180	1
181	2
182	6
183	9
184	7
185	5
186	3
187	5
188	9
189	1
190	2
191	8
192	6
193	2
194	6
195	6
196	6
197	2
198	7
199	7
200	9
201	7
DEPOT_SECTION
1
-1
EOF
