NAME : n201-0034
COMMENT : "Generated by pyvrp_manuel (OVRP)"
TYPE : OVRP
DIMENSION : 201
EDGE_WEIGHT_TYPE : EUC_2D
CAPACITY : 80
VEHICLES : 200
OPEN_ROUTE : YES
NODE_COORD_SECTION
1	335	428
2	172	584
3	274	577
4	687	737
5	789	31
6	345	10
7	433	826
8	958	535
9	575	916
10	142	374
11	819	52
12	400	372
13	197	160
14	762	760
15	952	214
16	737	791
17	387	667
18	734	69
19	521	367
20	802	753
21	228	418
22	823	852
23	220	495
24	434	537
25	574	430
26	409	129
27	889	761
28	404	519
29	541	478
30	448	593
31	69	738
32	926	572
33	284	847
34	986	837
35	638	448
36	747	967
37	916	611
38	413	906
39	387	245
40	631	586
41	12	440
42	472	934
43	746	183
44	891	183
45	909	347
46	373	378
47	724	780
48	272	680
49	156	412
50	73	905
51	475	333
52	777	22
53	786	491
54	34	616
55	355	299
56	627	586
57	170	321
58	900	753
59	15	379
60	120	488
61	587	653
62	400	292
63	935	977
64	107	250
65	368	263
66	545	324
67	405	901
68	711	416
69	598	435
70	564	258
71	85	668
72	114	123
73	212	637
74	622	110
75	326	628
76	179	712
77	28	154
78	602	395
79	81	31
80	519	748
81	131	612
82	156	325
83	785	613
84	870	979
85	905	835
86	813	150
87	839	849
88	415	302
89	691	478
90	191	208
91	764	905
92	552	893
93	3	176
94	949	645
95	684	509
96	29	995
97	244	957
98	863	484
99	814	346
100	243	0
101	165	484
102	141	323
103	704	26
104	641	762
105	165	214
106	764	272
107	866	469
108	262	99
109	702	790
110	823	708
111	595	960
112	353	812
113	938	504
114	661	489
115	790	916
116	719	233
117	658	7
118	485	630
119	584	37
120	568	248
121	40	881
122	521	12
123	387	74
124	180	110
125	616	499
126	370	654
127	228	334
128	690	281
129	496	131
130	195	486
131	771	90
132	38	351
133	584	712
134	674	448
135	50	579
136	435	560
137	545	33
138	66	845
139	381	357
140	520	77
141	489	763
142	664	109
143	656	815
144	829	308
145	337	176
146	703	848
147	177	708
148	643	532
149	892	432
150	381	159
151	908	760
152	923	235
153	435	606
154	19	17
155	284	190
156	972	900
157	263	53
158	35	467
159	97	221
160	674	306
161	261	420
162	955	767
163	577	833
164	400	374
165	441	485
166	326	835
167	751	993
168	21	67
169	250	510
170	593	787
171	55	190
172	803	427
173	108	71
174	970	479
175	813	65
176	472	634
177	107	613
178	100	15
179	512	811
180	502	373
181	769	822
182	475	743
183	231	83
184	544	227
185	768	402
186	421	176
187	427	591
188	786	232
189	388	197
190	450	367
191	707	525
192	747	778
193	12	630
194	391	483
195	509	887
196	406	18
197	590	375
198	542	128
199	261	550
200	997	13
201	804	667
DEMAND_SECTION
1	0
2	2
3	7
4	1
5	4
6	5
7	6
8	6
9	8
10	8
11	5
12	1
13	6
14	8
15	8
16	4
17	4
18	1
19	9
20	1
21	4
22	8
23	8
24	9
25	6
26	5
27	1
28	9
29	4
30	7
31	5
32	6
33	7
34	3
35	3
36	9
37	3
38	2
39	2
40	6
41	2
42	2
43	4
44	3
45	8
46	2
47	1
48	5
49	2
50	8
51	9
52	7
53	5
54	8
55	4
56	7
57	1
58	6
59	2
60	2
61	5
62	5
63	8
64	1
65	9
66	1
67	6
68	6
69	1
70	9
71	9
72	5
73	5
74	5
75	6
76	2
77	9
78	8
79	5
80	4
81	8
82	1
83	1
84	8
85	5
86	4
87	9
88	6
89	8
90	3
91	4
92	9
93	1
94	1
95	8
96	8
97	9
98	1
99	7
100	5
101	2
102	5
103	2
104	6
105	8
106	6
107	6
108	4
109	8
110	6
111	6
112	8
113	8
114	3
115	6
116	8
117	1
118	5
119	7
120	5
121	6
122	8
123	7
124	5
125	4
126	4
127	9
128	9
129	2
130	8
131	7
132	6
133	6
134	5
135	2
136	8
137	9
138	3
139	3
140	4
141	7
142	5
143	9
144	8
145	9
146	3
147	4
148	7
149	9
150	1
151	2
152	2
153	2
154	4
155	2
156	3
157	5
158	9
159	6
160	2
161	3
162	5
163	6
164	5
165	5
166	8
167	5
168	1
169	5
170	8
171	1
172	4
173	8
174	6
175	2
176	2
177	9
178	4
179	6
180	4
181	1
182	5
183	6
184	9
185	9
186	6
187	8
188	2
189	9
190	6
191	2
192	1
193	2
194	4
195	8
196	1
197	7
198	5
199	5
200	2
201	2
DEPOT_SECTION
1
-1
EOF
