NAME : n201-0026
COMMENT : "Generated by pyvrp_manuel (OVRP)"
TYPE : OVRP
DIMENSION : 201
EDGE_WEIGHT_TYPE : EUC_2D
CAPACITY : 80
VEHICLES : 200
OPEN_ROUTE : YES
NODE_COORD_SECTION
1	77	971
2	453	103
3	306	782
4	59	909
5	991	379
6	696	727
7	376	728
8	713	781
9	494	273
10	74	179
11	122	876
12	622	151
13	560	639
14	458	509
15	822	771
16	229	688
17	119	917
18	389	921
19	694	885
20	119	180
21	358	322
22	499	172
23	261	779
24	321	514
25	127	14
26	881	417
27	723	607
28	848	545
29	872	366
30	561	689
31	322	849
32	414	398
33	481	85
34	449	71
35	64	506
36	320	368
37	433	989
38	386	909
39	688	829
40	896	811
41	184	309
42	10	427
43	340	660
44	52	215
45	621	779
46	835	471
47	340	81
48	338	785
49	840	534
50	50	959
51	124	843
52	542	994
53	690	85
54	272	957
55	493	829
56	972	524
57	841	125
58	240	851
59	34	996
60	943	42
61	478	531
62	140	254
63	819	575
64	160	983
65	800	178
66	567	153
67	58	707
68	408	779
69	26	170
70	598	846
71	316	724
72	394	409
73	599	321
74	211	124
75	12	138
76	709	34
77	995	511
78	555	401
79	94	660
80	599	580
81	915	173
82	196	940
83	277	212
84	46	607
85	974	118
86	698	960
87	989	630
88	87	900
89	503	89
90	483	481
91	454	954
92	958	951
93	292	827
94	251	505
95	128	277
96	545	291
97	54	139
98	883	313
99	934	864
100	21	859
101	831	581
102	956	323
103	824	269
104	340	117
105	937	774
106	653	408
107	706	336
108	892	669
109	520	298
110	372	925
111	476	115
112	274	254
113	721	931
114	984	77
115	785	467
116	193	892
117	357	506
118	821	356
119	16	485
120	459	84
121	74	848
122	964	278
123	37	742
124	632	504
125	203	632
126	264	431
127	723	846
128	553	62
129	944	193
130	334	273
131	609	898
132	217	629
133	628	90
134	612	901
135	928	869
136	263	392
137	621	712
138	582	838
139	942	177
140	119	617
141	209	471
142	18	865
143	863	659
144	7	646
145	446	766
146	796	304
147	958	876
148	68	927
149	928	927
150	770	541
151	409	497
152	538	657
153	442	179
154	718	215
155	241	230
156	563	890
157	151	943
158	457	155
159	867	395
160	917	598
161	398	834
162	600	409
163	170	729
164	444	998
165	920	76
166	360	307
167	428	90
168	987	993
169	241	424
170	90	660
171	59	929
172	681	782
173	324	862
174	265	267
175	740	336
176	129	959
177	424	88
178	32	350
179	513	116
180	311	431
181	939	3
182	108	219
183	169	852
184	969	973
185	356	751
186	610	538
187	674	672
188	240	601
189	942	282
190	492	710
191	36	262
192	282	591
193	680	221
194	34	999
195	269	329
196	83	53
197	715	231
198	935	363
199	529	55
200	26	765
201	75	6
DEMAND_SECTION
1	0
2	3
3	4
4	7
5	5
6	9
7	2
8	2
9	4
10	9
11	7
12	4
13	9
14	2
15	8
16	5
17	1
18	5
19	6
20	6
21	7
22	7
23	2
24	4
25	9
26	3
27	8
28	5
29	5
30	4
31	5
32	2
33	8
34	3
35	3
36	5
37	3
38	4
39	6
40	9
41	5
42	7
43	7
44	1
45	4
46	5
47	3
48	4
49	7
50	8
51	6
52	6
53	6
54	2
55	8
56	6
57	1
58	6
59	4
60	3
61	9
62	5
63	1
64	6
65	5
66	8
67	4
68	5
69	7
70	8
71	8
72	5
73	8
74	6
75	2
76	5
77	5
78	4
79	1
80	8
81	7
82	7
83	7
84	9
85	5
86	5
87	7
88	5
89	1
90	1
91	4
92	1
93	4
94	1
95	2
96	7
97	2
98	3
99	9
100	9
101	1
102	1
103	1
104	9
105	4
106	1
107	3
108	6
109	8
110	9
111	5
112	8
113	3
114	6
115	5
116	6
117	3
118	1
119	5
120	6
121	5
122	8
123	9
124	2
125	7
126	3
127	6
128	2
129	6
130	8
131	6
132	6
133	1
134	5
135	2
136	8
137	7
138	8
139	2
140	9
141	4
142	6
143	6
144	7
145	5
146	5
147	4
148	2
149	5
150	1
151	9
152	3
153	6
154	9
155	7
156	4
157	2
158	3
159	3
160	7
161	3
162	7
163	7
164	1
165	1
166	2
167	1
168	5
169	3
170	4
171	7
172	5
173	1
174	1
175	1
176	7
177	2
178	8
179	5
180	4
181	9
182	1
183	6
184	6
185	6
186	3
187	2
188	7
189	7
190	1
191	6
192	5
193	1
194	1
195	1
196	5
197	8
198	1
199	9
200	6
201	4
DEPOT_SECTION
1
-1
EOF
