NAME : n201-0009
COMMENT : "Generated by pyvrp_manuel (OVRP)"
TYPE : OVRP
DIMENSION : 201
EDGE_WEIGHT_TYPE : EUC_2D
CAPACITY : 80
VEHICLES : 200
OPEN_ROUTE : YES
NODE_COORD_SECTION
1	680	221
2	721	942
3	640	900
4	228	457
5	481	114
6	356	165
7	573	211
8	550	194
9	877	801
10	868	767
11	116	166
12	725	134
13	838	713
14	130	654
15	737	813
16	65	376
17	454	314
18	557	122
19	720	758
20	553	266
21	602	477
22	139	979
23	28	865
24	361	948
25	975	627
26	394	841
27	869	127
28	152	939
29	405	18
30	195	367
31	33	317
32	663	168
33	410	620
34	968	269
35	828	411
36	756	938
37	105	964
38	207	55
39	291	370
40	569	325
41	4	619
42	129	390
43	750	573
44	344	126
45	998	143
46	541	827
47	388	288
48	988	73
49	380	119
50	127	957
51	149	873
52	174	958
53	80	370
54	900	57
55	492	687
56	725	447
57	229	495
58	735	286
59	572	160
60	869	598
61	241	995
62	767	118
63	661	184
64	940	138
65	953	751
66	415	987
67	265	471
68	632	789
69	885	33
70	612	854
71	333	624
72	500	464
73	457	37
74	181	858
75	980	431
76	908	206
77	904	775
78	653	473
79	451	735
80	423	179
81	813	180
82	264	987
83	656	726
84	871	306
85	987	164
86	532	139
87	103	558
88	504	823
89	122	675
90	424	606
91	406	610
92	502	65
93	57	375
94	3	386
95	756	870
96	558	600
97	778	445
98	502	465
99	785	952
100	438	948
101	750	886
102	629	452
103	885	639
104	504	978
105	336	677
106	457	360
107	159	928
108	8	632
109	786	13
110	991	140
111	744	721
112	514	641
113	729	846
114	470	559
115	543	691
116	665	720
117	365	678
118	401	984
119	2	419
120	421	703
121	963	198
122	828	468
123	262	500
124	593	460
125	264	781
126	706	693
127	482	622
128	325	172
129	161	893
130	316	193
131	203	992
132	379	202
133	260	949
134	483	779
135	761	721
136	858	85
137	781	871
138	758	248
139	274	11
140	52	538
141	644	751
142	527	233
143	483	557
144	960	682
145	569	442
146	744	864
147	568	123
148	973	415
149	54	127
150	61	674
151	890	154
152	289	512
153	941	341
154	742	825
155	302	168
156	300	914
157	816	824
158	533	739
159	410	821
160	72	993
161	655	598
162	297	150
163	490	139
164	556	709
165	935	82
166	228	768
167	967	716
168	217	328
169	192	791
170	64	80
171	931	78
172	267	372
173	797	983
174	202	125
175	617	644
176	794	786
177	185	601
178	191	848
179	557	830
180	343	328
181	133	32
182	819	833
183	866	75
184	747	2
185	700	935
186	154	121
187	121	508
188	534	709
189	424	729
190	276	181
191	475	960
192	735	67
193	456	509
194	392	511
195	543	319
196	662	973
197	750	107
198	433	319
199	459	786
200	689	551
201	627	625
DEMAND_SECTION
1	0
2	9
3	7
4	2
5	5
6	2
7	7
8	7
9	6
10	7
11	5
12	7
13	1
14	7
15	6
16	2
17	9
18	8
19	9
20	9
21	8
22	3
23	6
24	2
25	9
26	2
27	3
28	4
29	4
30	8
31	3
32	9
33	5
34	9
35	4
36	6
37	5
38	4
39	5
40	4
41	4
42	7
43	9
44	6
45	9
46	9
47	9
48	9
49	9
50	1
51	4
52	6
53	4
54	7
55	7
56	6
57	1
58	1
59	6
60	1
61	1
62	9
63	8
64	8
65	5
66	2
67	3
68	2
69	4
70	5
71	3
72	1
73	2
74	2
75	5
76	8
77	2
78	7
79	6
80	5
81	2
82	3
83	9
84	6
85	6
86	5
87	2
88	3
89	7
90	7
91	3
92	6
93	2
94	7
95	1
96	7
97	3
98	7
99	9
100	7
101	3
102	5
103	3
104	5
105	8
106	9
107	1
108	5
109	6
110	6
111	2
112	7
113	7
114	8
115	6
116	2
117	4
118	6
119	5
120	8
121	1
122	5
123	4
124	7
125	2
126	3
127	9
128	4
129	5
130	1
131	6
132	7
133	9
134	4
135	1
136	3
137	6
138	2
139	9
140	9
141	4
142	9
143	4
144	1
145	7
146	1
147	5
148	5
149	1
150	9
151	1
152	7
153	6
154	9
155	5
156	6
157	5
158	8
159	8
160	3
161	5
162	6
163	9
164	7
165	3
166	2
167	3
168	3
169	1
170	4
171	5
172	4
173	6
174	8
175	5
176	7
177	6
178	6
179	2
180	4
181	3
182	1
183	1
184	7
185	8
186	7
187	8
188	1
189	7
190	7
191	7
192	1
193	2
194	5
195	5
196	7
197	6
198	1
199	3
200	6
201	7
DEPOT_SECTION
1
-1
EOF
