NAME : n201-0039
COMMENT : "Generated by pyvrp_manuel (OVRP)"
TYPE : OVRP
DIMENSION : 201
EDGE_WEIGHT_TYPE : EUC_2D
CAPACITY : 80
VEHICLES : 200
OPEN_ROUTE : YES
NODE_COORD_SECTION
1	169	11
2	64	780
3	592	308
4	348	481
5	596	230
6	160	550
7	432	701
8	86	481
9	99	694
10	932	523
11	760	822
12	172	838
13	386	439
14	954	367
15	878	730
16	971	584
17	979	507
18	756	729
19	952	624
20	670	562
21	687	638
22	347	970
23	45	359
24	848	378
25	412	229
26	414	527
27	50	880
28	574	187
29	125	810
30	487	685
31	542	150
32	640	100
33	337	592
34	435	375
35	438	766
36	137	68
37	106	918
38	454	66
39	750	376
40	503	404
41	60	948
42	62	787
43	507	803
44	563	330
45	421	878
46	466	797
47	384	502
48	287	753
49	470	672
50	647	706
51	258	527
52	845	176
53	744	318
54	257	415
55	832	343
56	231	729
57	178	691
58	964	924
59	79	57
60	747	352
61	77	749
62	905	122
63	883	995
64	598	342
65	625	47
66	28	317
67	580	936
68	247	826
69	481	713
70	298	115
71	310	352
72	890	634
73	736	699
74	249	137
75	244	201
76	750	589
77	11	179
78	129	940
79	584	855
80	796	783
81	864	908
82	867	98
83	393	711
84	171	946
85	383	95
86	963	261
87	752	775
88	490	56
89	621	708
90	970	140
91	426	62
92	822	507
93	368	108
94	689	798
95	263	933
96	579	156
97	963	517
98	107	792
99	252	461
100	758	158
101	943	509
102	208	12
103	145	682
104	853	405
105	727	461
106	482	631
107	177	707
108	154	732
109	204	725
110	832	829
111	633	254
112	884	28
113	819	492
114	372	662
115	60	842
116	115	307
117	648	68
118	256	849
119	898	758
120	368	527
121	957	883
122	65	729
123	72	138
124	760	38
125	483	985
126	982	916
127	544	309
128	243	418
129	302	311
130	445	359
131	657	692
132	227	402
133	313	693
134	138	291
135	726	156
136	54	174
137	242	599
138	230	769
139	536	458
140	860	755
141	966	417
142	343	740
143	148	426
144	655	402
145	489	570
146	890	675
147	34	173
148	513	331
149	87	568
150	515	348
151	118	775
152	306	164
153	940	987
154	593	359
155	89	325
156	743	625
157	79	461
158	181	517
159	791	958
160	429	841
161	261	35
162	246	462
163	905	373
164	605	266
165	266	546
166	834	313
167	957	565
168	481	510
169	512	623
170	188	670
171	645	291
172	663	630
173	843	804
174	859	780
175	22	677
176	881	839
177	525	316
178	237	901
179	446	352
180	781	308
181	589	45
182	258	108
183	350	800
184	650	84
185	188	138
186	416	958
187	757	804
188	423	330
189	674	574
190	758	12
191	825	22
192	902	44
193	54	899
194	405	187
195	625	497
196	282	114
197	201	983
198	307	627
199	151	304
200	866	277
201	886	519
DEMAND_SECTION
1	0
2	2
3	2
4	6
5	6
6	4
7	1
8	3
9	1
10	7
11	8
12	1
13	4
14	2
15	4
16	6
17	1
18	1
19	6
20	4
21	7
22	1
23	1
24	1
25	8
26	2
27	2
28	4
29	1
30	9
31	8
32	3
33	8
34	9
35	4
36	8
37	8
38	5
39	5
40	8
41	9
42	3
43	3
44	8
45	3
46	4
47	2
48	1
49	6
50	3
51	7
52	7
53	1
54	1
55	9
56	6
57	6
58	2
59	6
60	7
61	9
62	8
63	5
64	3
65	8
66	6
67	4
68	3
69	4
70	2
71	6
72	1
73	2
74	8
75	4
76	5
77	1
78	7
79	7
80	1
81	1
82	2
83	7
84	9
85	2
86	4
87	2
88	5
89	6
90	8
91	2
92	7
93	8
94	2
95	8
96	1
97	6
98	5
99	9
100	5
101	5
102	1
103	2
104	1
105	7
106	1
107	8
108	8
109	1
110	9
111	1
112	9
113	5
114	7
115	3
116	4
117	9
118	5
119	1
120	7
121	8
122	2
123	2
124	3
125	4
126	4
127	1
128	8
129	9
130	5
131	8
132	2
133	2
134	6
135	3
136	7
137	5
138	1
139	1
140	4
141	3
142	4
143	2
144	9
145	7
146	7
147	1
148	9
149	2
150	3
151	3
152	9
153	9
154	1
155	9
156	8
157	8
158	5
159	7
160	1
161	2
162	8
163	3
164	5
165	2
166	1
167	6
168	8
169	2
170	5
171	3
172	1
173	4
174	1
175	9
176	2
177	1
178	3
179	7
180	5
181	8
182	7
183	3
184	3
185	1
186	4
187	8
188	4
189	4
190	4
191	2
192	9
193	1
194	4
195	4
196	7
197	1
198	7
199	9
200	3
201	5
DEPOT_SECTION
1
-1
EOF
