NAME : n201-0018
COMMENT : "Generated by pyvrp_manuel (OVRP)"
TYPE : OVRP
DIMENSION : 201
EDGE_WEIGHT_TYPE : EUC_2D
CAPACITY : 80
VEHICLES : 200
OPEN_ROUTE : YES
NODE_COORD_SECTION
1	463	293
2	889	703
3	589	932
4	320	954
5	195	582
6	361	721
7	651	742
8	601	96
9	783	620
10	724	91
11	23	799
12	835	252
13	335	682
14	415	136
15	84	656
16	945	964
17	238	905
18	497	634
19	87	428
20	473	561
21	606	510
22	486	570
23	227	860
24	199	607
25	124	625
26	936	129
27	785	812
28	819	948
29	143	988
30	281	413
31	679	193
32	425	991
33	533	215
34	286	676
35	374	239
36	678	614
37	805	482
38	757	356
39	802	453
40	948	393
41	63	529
42	680	922
43	51	598
44	819	340
45	390	617
46	832	889
47	918	535
48	784	275
49	218	884
50	108	995
51	591	599
52	371	292
53	424	806
54	144	233
55	82	625
56	727	465
57	936	644
58	430	292
59	442	751
60	583	19
61	103	893
62	357	105
63	453	749
64	63	499
65	14	581
66	971	467
67	95	633
68	53	562
69	379	786
70	785	330
71	892	586
72	867	196
73	742	736
74	93	136
75	964	709
76	126	800
77	153	567
78	21	268
79	599	381
80	705	587
81	567	650
82	622	15
83	772	172
84	395	423
85	167	94
86	946	343
87	677	368
88	78	204
89	759	461
90	192	740
91	725	472
92	568	305
93	285	113
94	129	892
95	618	927
96	395	479
97	522	97
98	944	527
99	945	387
100	768	962
101	967	966
102	765	476
103	465	164
104	784	348
105	883	111
106	65	528
107	145	972
108	869	374
109	610	904
110	54	881
111	736	826
112	439	42
113	117	961
114	599	761
115	765	280
116	140	256
117	119	621
118	678	7
119	747	190
120	269	793
121	793	999
122	851	159
123	477	142
124	169	781
125	454	631
126	122	239
127	448	398
128	711	22
129	865	557
130	935	908
131	100	109
132	77	131
133	806	834
134	17	860
135	640	194
136	851	882
137	272	703
138	14	941
139	338	72
140	817	255
141	743	378
142	837	914
143	825	732
144	743	736
145	894	399
146	915	215
147	691	665
148	804	519
149	165	559
150	739	957
151	207	788
152	598	994
153	415	811
154	683	885
155	51	528
156	619	681
157	661	353
158	175	23
159	889	526
160	94	745
161	236	77
162	540	841
163	61	714
164	147	584
165	354	430
166	811	488
167	205	829
168	134	469
169	933	981
170	80	404
171	865	791
172	213	370
173	379	777
174	610	774
175	879	244
176	651	671
177	831	45
178	588	685
179	397	233
180	375	52
181	494	356
182	156	611
183	23	701
184	581	837
185	150	496
186	533	420
187	192	830
188	606	763
189	339	141
190	618	450
191	5	52
192	858	777
193	967	390
194	26	349
195	364	939
196	2	402
197	603	840
198	251	623
199	284	695
200	103	740
201	849	869
DEMAND_SECTION
1	0
2	7
3	7
4	7
5	4
6	9
7	5
8	5
9	6
10	2
11	2
12	2
13	5
14	1
15	6
16	3
17	5
18	4
19	4
20	6
21	4
22	9
23	6
24	9
25	9
26	5
27	5
28	8
29	3
30	1
31	3
32	8
33	9
34	3
35	5
36	3
37	8
38	3
39	8
40	5
41	8
42	8
43	2
44	8
45	7
46	6
47	6
48	9
49	5
50	2
51	5
52	6
53	2
54	9
55	2
56	9
57	9
58	1
59	4
60	2
61	5
62	5
63	9
64	7
65	7
66	1
67	7
68	1
69	9
70	7
71	8
72	5
73	1
74	4
75	7
76	8
77	3
78	3
79	8
80	6
81	4
82	6
83	4
84	7
85	7
86	9
87	6
88	7
89	7
90	9
91	6
92	2
93	6
94	3
95	7
96	4
97	5
98	9
99	9
100	1
101	8
102	5
103	3
104	4
105	3
106	3
107	9
108	6
109	4
110	8
111	3
112	6
113	8
114	9
115	1
116	7
117	2
118	6
119	4
120	1
121	8
122	2
123	9
124	5
125	2
126	5
127	2
128	6
129	4
130	2
131	7
132	8
133	7
134	6
135	8
136	2
137	5
138	8
139	6
140	5
141	3
142	3
143	8
144	3
145	7
146	6
147	7
148	6
149	6
150	4
151	1
152	8
153	3
154	3
155	7
156	3
157	3
158	5
159	5
160	2
161	8
162	7
163	8
164	3
165	4
166	8
167	8
168	1
169	6
170	4
171	8
172	3
173	7
174	4
175	6
176	7
177	1
178	7
179	2
180	7
181	4
182	8
183	6
184	1
185	7
186	3
187	8
188	8
189	2
190	8
191	1
192	1
193	5
194	8
195	7
196	9
197	3
198	9
199	7
200	1
201	4
DEPOT_SECTION
1
-1
EOF
