NAME : n201-0028
COMMENT : "Generated by pyvrp_manuel (OVRP)"
TYPE : OVRP
DIMENSION : 201
EDGE_WEIGHT_TYPE : EUC_2D
CAPACITY : 80
VEHICLES : 200
OPEN_ROUTE : YES
NODE_COORD_SECTION
1	429	371
2	728	683
3	153	301
4	169	879
5	831	328
6	652	6
7	554	826
8	105	620
9	351	336
10	152	701
11	500	836
12	72	71
13	451	662
14	755	172
15	50	386
16	554	504
17	431	616
18	808	368
19	557	738
20	876	182
21	309	865
22	646	256
23	401	677
24	842	100
25	193	96
26	11	660
27	720	422
28	243	507
29	489	636
30	996	3
31	39	946
32	519	573
33	720	897
34	311	813
35	230	192
36	559	842
37	397	171
38	916	426
39	803	554
40	784	436
41	868	994
42	18	35
43	66	10
44	619	877
45	897	383
46	781	316
47	71	174
48	584	970
49	859	396
50	35	84
51	498	330
52	732	941
53	255	401
54	842	646
55	801	37
56	319	666
57	377	116
58	300	198
59	363	266
60	867	461
61	544	791
62	816	675
63	350	348
64	530	108
65	616	121
66	700	154
67	431	419
68	647	177
69	986	125
70	0	865
71	199	950
72	832	257
73	60	31
74	430	787
75	896	216
76	74	292
77	979	83
78	141	775
79	328	222
80	8	334
81	587	441
82	676	241
83	571	285
84	166	407
85	709	42
86	727	584
87	456	252
88	612	803
89	714	609
90	449	376
91	468	124
92	500	524
93	457	944
94	814	642
95	306	828
96	804	471
97	450	789
98	578	971
99	944	791
100	277	676
101	628	678
102	995	63
103	400	132
104	473	787
105	222	939
106	181	978
107	906	393
108	392	397
109	215	451
110	147	193
111	340	801
112	25	834
113	307	444
114	751	185
115	71	550
116	839	617
117	209	911
118	962	455
119	15	989
120	942	767
121	930	162
122	35	279
123	227	743
124	75	816
125	49	291
126	420	115
127	983	70
128	315	344
129	492	469
130	963	431
131	593	966
132	296	162
133	599	525
134	522	609
135	480	289
136	243	965
137	459	934
138	853	365
139	8	266
140	654	397
141	895	60
142	18	110
143	826	208
144	615	725
145	357	24
146	735	439
147	302	162
148	45	789
149	142	349
150	735	785
151	12	95
152	876	376
153	757	299
154	908	195
155	866	647
156	59	219
157	626	907
158	194	384
159	937	480
160	853	779
161	435	555
162	533	968
163	142	291
164	636	118
165	241	149
166	466	831
167	670	727
168	223	682
169	678	127
170	922	719
171	856	722
172	949	726
173	402	730
174	139	153
175	316	503
176	943	917
177	385	487
178	822	365
179	746	483
180	480	876
181	25	985
182	846	179
183	369	605
184	579	117
185	527	413
186	64	908
187	546	431
188	304	136
189	141	259
190	419	315
191	371	866
192	738	237
193	778	640
194	262	770
195	986	856
196	946	275
197	491	936
198	741	260
199	480	511
200	841	792
201	12	408
DEMAND_SECTION
1	0
2	9
3	8
4	1
5	6
6	8
7	9
8	6
9	7
10	2
11	4
12	3
13	5
14	3
15	8
16	5
17	9
18	7
19	9
20	6
21	3
22	2
23	9
24	3
25	9
26	3
27	1
28	9
29	3
30	6
31	4
32	5
33	5
34	2
35	6
36	3
37	3
38	6
39	8
40	2
41	3
42	1
43	2
44	6
45	5
46	5
47	2
48	9
49	2
50	9
51	3
52	4
53	3
54	6
55	8
56	9
57	2
58	1
59	3
60	8
61	4
62	5
63	1
64	1
65	7
66	2
67	5
68	9
69	1
70	7
71	5
72	8
73	5
74	2
75	5
76	2
77	4
78	3
79	1
80	7
81	9
82	1
83	5
84	9
85	7
86	1
87	9
88	8
89	2
90	3
91	4
92	3
93	7
94	6
95	3
96	3
97	4
98	4
99	7
100	1
101	6
102	2
103	5
104	9
105	2
106	9
107	7
108	7
109	8
110	1
111	8
112	8
113	5
114	1
115	6
116	2
117	3
118	7
119	7
120	3
121	6
122	9
123	3
124	2
125	4
126	7
127	1
128	4
129	5
130	9
131	2
132	3
133	9
134	9
135	9
136	4
137	7
138	3
139	4
140	3
141	9
142	8
143	7
144	5
145	3
146	1
147	5
148	5
149	7
150	6
151	4
152	3
153	2
154	7
155	5
156	2
157	2
158	1
159	3
160	5
161	4
162	7
163	4
164	4
165	8
166	5
167	6
168	8
169	6
170	3
171	8
172	3
173	7
174	1
175	9
176	5
177	1
178	4
179	3
180	5
181	8
182	8
183	7
184	3
185	9
186	3
187	9
188	4
189	4
190	1
191	2
192	9
193	4
194	5
195	9
196	1
197	9
198	6
199	1
200	8
201	5
DEPOT_SECTION
1
-1
EOF
