NAME : n201-0023
COMMENT : "Generated by pyvrp_manuel (OVRPBTW)"
TYPE : OVRPBTW
DIMENSION : 201
EDGE_WEIGHT_TYPE : EUC_2D
CAPACITY : 80
VEHICLES : 200
OPEN_ROUTE : YES
SERVICE_TIME : 200
NODE_COORD_SECTION
1	139	242
2	427	343
3	752	382
4	74	65
5	983	725
6	2	90
7	184	953
8	772	663
9	783	585
10	857	97
11	893	729
12	666	820
13	402	262
14	364	125
15	503	757
16	593	483
17	689	44
18	171	64
19	997	46
20	738	859
21	358	421
22	911	91
23	1	427
24	436	295
25	539	766
26	768	646
27	853	267
28	533	668
29	661	321
30	906	118
31	263	20
32	560	112
33	856	165
34	632	944
35	955	666
36	683	589
37	788	465
38	125	942
39	124	986
40	528	729
41	514	713
42	841	28
43	784	331
44	50	99
45	545	889
46	27	645
47	702	39
48	611	255
49	578	310
50	906	41
51	761	312
52	641	550
53	34	262
54	521	515
55	247	786
56	260	235
57	719	446
58	656	810
59	303	642
60	899	579
61	934	717
62	867	889
63	801	636
64	751	806
65	534	585
66	308	483
67	756	461
68	339	624
69	484	542
70	393	495
71	379	920
72	161	119
73	403	537
74	829	638
75	492	27
76	264	630
77	340	194
78	626	857
79	562	874
80	931	512
81	1000	665
82	665	681
83	37	704
84	920	593
85	530	415
86	107	563
87	701	691
88	954	201
89	940	388
90	354	247
91	166	607
92	393	592
93	13	338
94	757	257
95	962	168
96	212	833
97	931	721
98	766	146
99	594	453
100	265	606
101	703	154
102	439	631
103	984	97
104	941	452
105	611	69
106	60	244
107	463	595
108	947	417
109	845	81
110	780	68
111	25	800
112	174	224
113	205	362
114	744	750
115	124	540
116	87	75
117	372	457
118	749	717
119	625	881
120	443	456
121	983	534
122	840	251
123	821	799
124	893	204
125	23	589
126	436	973
127	333	281
128	578	101
129	89	822
130	614	598
131	424	779
132	311	652
133	667	627
134	159	37
135	262	73
136	67	327
137	447	574
138	242	178
139	368	792
140	762	965
141	731	858
142	508	192
143	654	935
144	325	484
145	55	886
146	94	277
147	505	261
148	502	228
149	985	210
150	581	22
151	571	832
152	187	401
153	481	482
154	597	904
155	353	666
156	89	203
157	140	615
158	585	989
159	676	454
160	301	549
161	266	579
162	387	177
163	528	693
164	408	509
165	4	329
166	2	997
167	927	67
168	115	76
169	788	605
170	38	345
171	876	495
172	48	673
173	997	956
174	544	363
175	552	869
176	716	85
177	763	826
178	75	148
179	842	765
180	63	638
181	802	601
182	767	661
183	644	791
184	330	503
185	379	409
186	693	306
187	474	926
188	664	990
189	477	319
190	940	186
191	733	923
192	217	399
193	951	460
194	61	223
195	29	403
196	777	433
197	407	541
198	460	411
199	342	562
200	470	428
201	373	630
DEMAND_SECTION
1	0
2	5
3	9
4	1
5	8
6	8
7	9
8	6
9	1
10	1
11	9
12	8
13	9
14	3
15	5
16	7
17	1
18	8
19	9
20	6
21	5
22	4
23	6
24	9
25	4
26	8
27	7
28	4
29	2
30	6
31	3
32	7
33	9
34	2
35	6
36	8
37	7
38	5
39	4
40	9
41	8
42	5
43	8
44	8
45	5
46	7
47	3
48	8
49	4
50	1
51	8
52	6
53	8
54	1
55	4
56	2
57	1
58	9
59	3
60	5
61	4
62	6
63	4
64	5
65	4
66	4
67	8
68	7
69	5
70	9
71	9
72	2
73	2
74	6
75	1
76	5
77	7
78	4
79	3
80	4
81	1
82	6
83	1
84	3
85	3
86	9
87	9
88	1
89	9
90	8
91	2
92	7
93	7
94	3
95	3
96	2
97	4
98	6
99	6
100	3
101	2
102	7
103	3
104	6
105	2
106	5
107	4
108	4
109	2
110	6
111	5
112	4
113	4
114	8
115	9
116	5
117	4
118	3
119	5
120	6
121	4
122	5
123	5
124	2
125	4
126	2
127	9
128	3
129	9
130	2
131	7
132	2
133	2
134	2
135	5
136	5
137	8
138	1
139	2
140	8
141	8
142	7
143	3
144	3
145	3
146	8
147	2
148	7
149	8
150	7
151	3
152	2
153	9
154	4
155	1
156	9
157	8
158	3
159	4
160	2
161	4
162	6
163	5
164	4
165	3
166	7
167	1
168	9
169	1
170	9
171	5
172	4
173	7
174	9
175	5
176	3
177	5
178	6
179	8
180	3
181	4
182	2
183	7
184	2
185	7
186	6
187	1
188	8
189	8
190	6
191	2
192	1
193	4
194	9
195	4
196	3
197	2
198	2
199	9
200	7
201	2
TIME_WINDOW_SECTION
1	0	3000
2	1077	1509
3	1468	1780
4	358	954
5	1083	2131
6	152	1828
7	332	2052
8	0	1914
9	348	1592
10	1316	2354
11	680	1922
12	1612	2411
13	385	1569
14	489	1172
15	746	1866
16	123	1544
17	61	1190
18	1677	2627
19	815	2149
20	1452	2224
21	587	2436
22	1053	1305
23	1389	2350
24	2123	2396
25	990	2890
26	457	2296
27	0	1734
28	353	1908
29	1659	2805
30	463	1981
31	716	1186
32	1734	2937
33	1085	1356
34	325	1772
35	765	2703
36	1198	2963
37	893	2634
38	515	2066
39	231	2210
40	681	2196
41	984	1250
42	1226	2404
43	1133	2207
44	1536	3000
45	402	1132
46	916	2675
47	749	2070
48	0	1151
49	844	2555
50	515	1920
51	1035	2576
52	890	1804
53	624	2175
54	1214	2584
55	1850	2512
56	2271	2731
57	1353	2801
58	394	1691
59	333	2087
60	455	1696
61	607	2361
62	623	2460
63	44	2011
64	1035	2639
65	1424	2320
66	0	1290
67	1217	2463
68	994	2002
69	441	2221
70	125	1709
71	963	1884
72	811	1966
73	1173	2716
74	672	1827
75	165	1963
76	403	1781
77	1781	2680
78	1722	2121
79	1299	1960
80	491	2274
81	1176	1766
82	1692	2308
83	739	2227
84	791	1301
85	1357	1713
86	0	969
87	148	1514
88	1193	2112
89	640	2239
90	915	1882
91	257	1837
92	19	1732
93	0	1193
94	316	1122
95	678	2456
96	276	1785
97	1492	1749
98	877	1330
99	690	1066
100	0	1505
101	400	1960
102	998	1439
103	822	1758
104	1080	2356
105	513	1238
106	1138	2934
107	0	1076
108	230	1994
109	459	2396
110	888	1816
111	1394	3000
112	1615	3000
113	2118	3000
114	822	1551
115	1523	2532
116	1144	2717
117	725	2706
118	743	1334
119	1106	2131
120	453	1927
121	602	2087
122	751	1297
123	518	2066
124	281	1780
125	518	927
126	1176	1625
127	168	812
128	628	1175
129	516	1962
130	1741	2591
131	280	1767
132	1259	2652
133	336	2107
134	335	2295
135	2019	2697
136	422	1879
137	1597	2430
138	1360	3000
139	1167	1531
140	1339	1850
141	957	2077
142	1446	2386
143	656	1204
144	416	1384
145	0	1564
146	1782	2611
147	1458	2148
148	1309	1945
149	1277	2176
150	1866	2587
151	1472	2207
152	582	2004
153	372	1837
154	890	2459
155	698	2514
156	1473	3000
157	682	982
158	233	2122
159	1025	1337
160	235	1651
161	734	1196
162	1125	1940
163	0	1589
164	1675	2950
165	1141	3000
166	476	1389
167	85	1531
168	2229	2563
169	756	1465
170	123	1102
171	736	2368
172	1233	2407
173	522	2368
174	1764	2394
175	968	2544
176	1881	2263
177	1055	2545
178	0	1179
179	1000	1477
180	0	1601
181	907	1841
182	1363	1949
183	1140	2772
184	988	2252
185	29	800
186	521	1168
187	1213	2775
188	1542	2088
189	403	2044
190	1128	2339
191	626	1438
192	1416	2442
193	779	1706
194	878	2169
195	1467	2742
196	718	1666
197	1112	1911
198	1818	2504
199	1260	2645
200	255	2139
201	2030	2399
BACKHAUL_SECTION
24	29	33	42	44	46	50	56	62	69	71	74	88	99	100	106	110	112	113	119	124	128	129	134	136	147	151	156	158	162	166	170	174	180	181	182	184	187	190	192	-1
DEPOT_SECTION
1
-1
EOF
