NAME : n501-0030
COMMENT : "Generated by pyvrp_manuel (CVRP)"
TYPE : CVRP
DIMENSION : 501
EDGE_WEIGHT_TYPE : EUC_2D
CAPACITY : 100
NODE_COORD_SECTION
1	153	242
2	561	467
3	912	911
4	266	624
5	748	596
6	943	414
7	339	602
8	219	545
9	654	788
10	639	280
11	643	357
12	372	867
13	674	558
14	277	842
15	69	178
16	317	975
17	597	582
18	629	484
19	455	647
20	192	276
21	703	461
22	77	186
23	331	94
24	279	9
25	702	308
26	545	563
27	422	783
28	134	597
29	524	258
30	486	714
31	980	708
32	706	974
33	764	85
34	429	692
35	264	144
36	907	916
37	597	628
38	622	356
39	191	79
40	311	347
41	799	773
42	349	751
43	211	971
44	167	939
45	980	913
46	171	46
47	950	486
48	479	732
49	447	584
50	69	514
51	466	833
52	29	810
53	281	371
54	527	590
55	445	737
56	358	828
57	497	239
58	490	344
59	248	358
60	709	116
61	495	302
62	81	25
63	61	141
64	375	660
65	481	577
66	936	908
67	562	174
68	951	572
69	924	111
70	177	684
71	924	664
72	910	190
73	891	728
74	154	761
75	179	970
76	995	457
77	990	95
78	571	595
79	669	687
80	354	946
81	802	324
82	143	822
83	263	671
84	33	17
85	182	30
86	945	639
87	991	408
88	828	285
89	726	487
90	287	613
91	984	355
92	264	792
93	374	253
94	969	275
95	43	905
96	212	258
97	671	742
98	539	32
99	870	390
100	1000	167
101	29	710
102	156	315
103	378	13
104	831	566
105	711	648
106	407	724
107	406	70
108	351	485
109	108	286
110	336	218
111	826	435
112	6	190
113	405	495
114	781	865
115	601	207
116	845	545
117	520	605
118	40	471
119	301	63
120	621	384
121	783	848
122	471	261
123	755	881
124	624	25
125	865	101
126	646	68
127	921	990
128	977	570
129	518	22
130	680	555
131	793	21
132	528	632
133	697	960
134	219	978
135	165	901
136	853	341
137	107	990
138	600	689
139	886	571
140	585	129
141	597	26
142	119	91
143	694	746
144	434	638
145	24	980
146	737	574
147	767	430
148	25	126
149	398	713
150	747	772
151	266	681
152	951	773
153	822	421
154	403	278
155	835	609
156	986	999
157	533	431
158	37	735
159	265	716
160	692	503
161	735	203
162	2	761
163	452	274
164	62	393
165	734	663
166	318	708
167	587	594
168	226	421
169	447	737
170	766	128
171	487	635
172	312	557
173	716	520
174	32	167
175	17	617
176	884	473
177	144	303
178	737	158
179	276	508
180	768	699
181	225	129
182	167	364
183	581	371
184	639	602
185	297	395
186	621	939
187	15	674
188	388	676
189	112	961
190	558	207
191	905	244
192	401	588
193	828	627
194	204	414
195	573	242
196	170	133
197	305	393
198	756	447
199	322	720
200	638	874
201	786	724
202	736	908
203	528	623
204	411	746
205	351	842
206	191	870
207	13	372
208	773	909
209	948	229
210	394	233
211	165	961
212	816	248
213	82	925
214	471	835
215	231	459
216	355	728
217	372	665
218	918	898
219	748	967
220	241	197
221	222	15
222	353	322
223	387	399
224	895	724
225	860	345
226	713	33
227	669	839
228	412	633
229	745	914
230	422	650
231	190	145
232	59	311
233	909	564
234	8	866
235	101	147
236	114	531
237	882	46
238	24	440
239	247	550
240	859	21
241	916	172
242	161	191
243	541	176
244	119	705
245	493	731
246	17	714
247	943	400
248	923	342
249	245	958
250	828	837
251	966	319
252	225	708
253	844	978
254	285	684
255	247	689
256	116	67
257	632	159
258	939	834
259	395	846
260	53	650
261	411	261
262	584	196
263	301	189
264	129	161
265	730	175
266	452	453
267	767	902
268	131	337
269	669	38
270	198	573
271	293	724
272	569	105
273	969	136
274	405	797
275	9	190
276	415	26
277	737	697
278	660	345
279	609	407
280	279	7
281	152	790
282	218	439
283	454	179
284	991	909
285	808	863
286	764	814
287	103	293
288	916	814
289	712	135
290	404	24
291	124	219
292	340	726
293	850	487
294	308	7
295	798	817
296	351	637
297	420	962
298	916	115
299	561	751
300	928	178
301	964	491
302	860	806
303	613	968
304	671	32
305	114	709
306	948	373
307	28	760
308	212	480
309	38	966
310	592	173
311	436	436
312	945	346
313	275	744
314	413	651
315	273	399
316	472	858
317	833	145
318	521	317
319	137	834
320	694	930
321	887	215
322	579	324
323	683	606
324	903	386
325	441	377
326	995	140
327	70	314
328	163	861
329	253	859
330	416	309
331	349	72
332	137	13
333	658	641
334	905	112
335	116	910
336	363	684
337	27	256
338	823	420
339	295	207
340	981	721
341	895	385
342	667	65
343	401	441
344	161	771
345	604	722
346	240	323
347	641	467
348	518	698
349	450	971
350	940	274
351	50	282
352	956	450
353	718	80
354	921	898
355	526	94
356	675	37
357	203	294
358	609	928
359	387	700
360	500	910
361	281	929
362	437	602
363	583	923
364	341	405
365	590	213
366	6	209
367	531	681
368	131	294
369	498	983
370	530	789
371	733	755
372	615	361
373	657	497
374	360	562
375	497	539
376	752	958
377	971	49
378	124	715
379	415	828
380	928	502
381	11	769
382	734	497
383	387	700
384	655	608
385	688	716
386	811	210
387	529	481
388	945	406
389	798	82
390	986	87
391	514	936
392	480	184
393	161	418
394	76	169
395	697	182
396	506	304
397	53	481
398	634	846
399	879	755
400	40	323
401	306	328
402	965	373
403	612	910
404	729	779
405	700	478
406	934	973
407	951	308
408	700	922
409	918	42
410	457	884
411	645	631
412	108	624
413	322	931
414	462	794
415	358	175
416	676	131
417	555	385
418	788	286
419	78	786
420	122	837
421	96	852
422	828	937
423	278	215
424	915	136
425	567	620
426	397	824
427	341	844
428	501	818
429	387	907
430	723	116
431	100	674
432	62	463
433	431	639
434	843	828
435	140	104
436	50	526
437	308	205
438	30	856
439	899	953
440	990	785
441	110	379
442	457	330
443	71	427
444	447	508
445	51	29
446	368	741
447	576	764
448	48	158
449	302	486
450	774	454
451	318	70
452	851	445
453	394	195
454	732	917
455	563	552
456	573	309
457	53	316
458	783	937
459	467	298
460	437	108
461	959	366
462	916	867
463	569	444
464	448	544
465	379	2
466	429	381
467	410	248
468	26	208
469	758	263
470	624	581
471	680	60
472	868	602
473	631	643
474	446	416
475	249	644
476	378	81
477	868	705
478	638	926
479	137	356
480	287	23
481	26	543
482	174	667
483	209	61
484	716	608
485	571	69
486	586	156
487	817	281
488	414	274
489	135	393
490	148	146
491	826	724
492	957	52
493	236	785
494	111	703
495	488	638
496	695	856
497	481	405
498	37	275
499	517	856
500	955	491
501	202	42
DEMAND_SECTION
1	0
2	1
3	6
4	9
5	5
6	1
7	7
8	9
9	8
10	8
11	5
12	7
13	3
14	5
15	3
16	4
17	7
18	3
19	2
20	7
21	6
22	4
23	1
24	3
25	3
26	1
27	2
28	4
29	7
30	6
31	1
32	8
33	1
34	7
35	1
36	2
37	8
38	6
39	6
40	4
41	3
42	3
43	8
44	4
45	7
46	4
47	8
48	4
49	4
50	3
51	3
52	3
53	6
54	4
55	1
56	8
57	7
58	7
59	3
60	9
61	1
62	6
63	6
64	8
65	6
66	1
67	4
68	8
69	3
70	9
71	2
72	9
73	9
74	6
75	5
76	3
77	5
78	4
79	3
80	5
81	4
82	3
83	8
84	4
85	5
86	6
87	2
88	2
89	3
90	3
91	7
92	5
93	7
94	1
95	1
96	3
97	1
98	2
99	8
100	8
101	8
102	7
103	4
104	9
105	6
106	8
107	8
108	9
109	7
110	5
111	5
112	1
113	4
114	1
115	5
116	6
117	9
118	1
119	8
120	2
121	1
122	1
123	2
124	9
125	4
126	4
127	8
128	2
129	2
130	3
131	3
132	5
133	1
134	6
135	5
136	5
137	3
138	3
139	9
140	7
141	4
142	5
143	8
144	1
145	1
146	2
147	1
148	1
149	9
150	3
151	3
152	8
153	6
154	4
155	5
156	7
157	3
158	3
159	9
160	1
161	5
162	9
163	4
164	3
165	4
166	3
167	5
168	8
169	7
170	8
171	2
172	3
173	3
174	4
175	6
176	8
177	9
178	2
179	6
180	6
181	1
182	7
183	1
184	3
185	3
186	5
187	8
188	4
189	8
190	3
191	5
192	2
193	8
194	3
195	5
196	3
197	2
198	8
199	4
200	1
201	6
202	6
203	8
204	4
205	9
206	9
207	9
208	4
209	1
210	6
211	7
212	5
213	9
214	9
215	7
216	5
217	6
218	8
219	2
220	4
221	2
222	1
223	2
224	1
225	2
226	4
227	1
228	9
229	6
230	1
231	8
232	4
233	1
234	6
235	1
236	3
237	4
238	8
239	4
240	5
241	8
242	6
243	2
244	3
245	5
246	9
247	1
248	1
249	6
250	5
251	5
252	1
253	9
254	5
255	1
256	6
257	5
258	7
259	6
260	1
261	5
262	1
263	3
264	9
265	3
266	9
267	6
268	8
269	8
270	4
271	5
272	4
273	9
274	2
275	4
276	7
277	1
278	8
279	5
280	1
281	3
282	7
283	1
284	3
285	4
286	2
287	1
288	6
289	7
290	5
291	5
292	8
293	2
294	6
295	3
296	1
297	6
298	7
299	4
300	3
301	9
302	7
303	6
304	8
305	3
306	7
307	5
308	3
309	3
310	1
311	5
312	7
313	5
314	6
315	1
316	7
317	7
318	6
319	6
320	7
321	2
322	6
323	7
324	3
325	9
326	8
327	7
328	6
329	8
330	4
331	4
332	2
333	1
334	6
335	7
336	1
337	2
338	9
339	4
340	5
341	1
342	8
343	9
344	8
345	5
346	5
347	2
348	2
349	4
350	2
351	5
352	9
353	2
354	2
355	9
356	9
357	6
358	3
359	8
360	9
361	4
362	2
363	4
364	3
365	8
366	4
367	6
368	5
369	1
370	2
371	8
372	8
373	5
374	2
375	8
376	8
377	2
378	2
379	2
380	1
381	7
382	7
383	6
384	9
385	8
386	5
387	5
388	8
389	8
390	1
391	6
392	1
393	4
394	2
395	2
396	9
397	9
398	5
399	8
400	4
401	5
402	4
403	6
404	3
405	2
406	1
407	4
408	5
409	5
410	5
411	5
412	5
413	9
414	4
415	5
416	9
417	6
418	4
419	6
420	4
421	2
422	1
423	3
424	6
425	5
426	9
427	3
428	6
429	2
430	5
431	9
432	8
433	5
434	8
435	6
436	7
437	1
438	9
439	8
440	6
441	5
442	4
443	6
444	6
445	7
446	5
447	2
448	8
449	5
450	2
451	4
452	9
453	4
454	5
455	8
456	8
457	8
458	6
459	5
460	9
461	6
462	8
463	3
464	4
465	4
466	8
467	9
468	7
469	2
470	4
471	3
472	2
473	7
474	8
475	9
476	1
477	4
478	7
479	9
480	2
481	8
482	1
483	6
484	4
485	2
486	8
487	7
488	9
489	6
490	4
491	9
492	7
493	5
494	6
495	1
496	4
497	5
498	1
499	7
500	6
501	5
DEPOT_SECTION
1
-1
EOF
