NAME : n501-0008
COMMENT : "Generated by pyvrp_manuel (CVRP)"
TYPE : CVRP
DIMENSION : 501
EDGE_WEIGHT_TYPE : EUC_2D
CAPACITY : 100
NODE_COORD_SECTION
1	294	519
2	193	689
3	190	338
4	270	248
5	507	278
6	284	553
7	710	262
8	767	648
9	886	548
10	910	49
11	646	70
12	711	308
13	397	923
14	968	375
15	212	773
16	279	265
17	124	997
18	530	598
19	209	733
20	26	355
21	424	794
22	453	572
23	882	676
24	906	330
25	809	422
26	464	607
27	982	502
28	447	304
29	184	787
30	396	332
31	609	585
32	419	918
33	806	622
34	263	293
35	935	603
36	46	433
37	612	635
38	924	516
39	440	854
40	426	661
41	125	323
42	123	550
43	108	881
44	278	157
45	530	264
46	201	866
47	661	582
48	746	333
49	552	982
50	284	701
51	920	430
52	911	369
53	400	627
54	423	369
55	403	602
56	224	118
57	108	992
58	513	724
59	21	427
60	109	457
61	945	863
62	319	228
63	91	253
64	671	204
65	775	320
66	963	379
67	411	795
68	851	861
69	862	27
70	776	238
71	855	889
72	458	672
73	606	720
74	835	645
75	333	520
76	558	87
77	664	174
78	817	948
79	568	919
80	511	814
81	749	83
82	99	380
83	699	407
84	399	802
85	948	712
86	648	754
87	568	50
88	4	34
89	60	879
90	465	153
91	609	503
92	200	22
93	616	508
94	323	221
95	368	935
96	100	302
97	341	958
98	530	841
99	450	422
100	784	308
101	797	937
102	704	809
103	113	961
104	199	781
105	656	537
106	630	9
107	978	468
108	947	512
109	296	813
110	490	182
111	563	2
112	191	94
113	526	225
114	489	120
115	69	442
116	559	860
117	329	976
118	142	673
119	50	951
120	311	778
121	524	299
122	381	313
123	806	865
124	976	381
125	349	249
126	466	621
127	459	177
128	537	485
129	100	364
130	480	14
131	570	637
132	453	431
133	512	627
134	260	453
135	787	353
136	499	38
137	119	452
138	327	986
139	393	83
140	926	177
141	914	449
142	598	10
143	954	494
144	249	143
145	591	28
146	871	774
147	933	945
148	205	365
149	806	820
150	989	293
151	572	483
152	788	255
153	953	352
154	748	877
155	1	593
156	157	741
157	928	341
158	161	246
159	889	419
160	128	909
161	828	446
162	558	561
163	983	790
164	590	511
165	661	131
166	771	710
167	558	790
168	404	43
169	84	971
170	335	135
171	989	147
172	906	945
173	437	791
174	883	30
175	232	565
176	657	159
177	88	979
178	264	12
179	720	243
180	326	325
181	962	690
182	990	323
183	862	94
184	803	520
185	519	926
186	538	287
187	224	581
188	333	753
189	82	164
190	936	306
191	7	858
192	364	503
193	810	667
194	20	590
195	984	471
196	864	938
197	684	38
198	929	895
199	650	459
200	156	610
201	326	948
202	2	608
203	489	501
204	438	712
205	71	608
206	167	659
207	458	563
208	782	301
209	98	267
210	908	93
211	817	323
212	526	705
213	324	156
214	669	802
215	686	483
216	553	710
217	659	252
218	860	433
219	303	349
220	566	241
221	135	779
222	908	3
223	898	206
224	618	963
225	187	294
226	644	187
227	305	81
228	558	812
229	634	411
230	974	890
231	228	786
232	385	661
233	554	719
234	246	259
235	215	176
236	284	620
237	642	595
238	872	880
239	903	811
240	496	627
241	248	508
242	538	91
243	909	389
244	883	737
245	228	647
246	280	254
247	659	745
248	214	247
249	878	316
250	164	77
251	789	860
252	996	125
253	560	597
254	549	601
255	38	19
256	293	546
257	538	429
258	1	812
259	165	619
260	135	860
261	902	239
262	929	349
263	14	419
264	123	604
265	597	279
266	356	647
267	226	706
268	130	792
269	262	83
270	596	553
271	131	940
272	320	829
273	371	834
274	259	152
275	92	245
276	227	728
277	170	415
278	318	311
279	439	776
280	294	81
281	840	209
282	845	449
283	441	969
284	590	48
285	21	32
286	131	681
287	708	759
288	40	800
289	943	696
290	303	66
291	994	549
292	608	519
293	836	9
294	753	160
295	964	110
296	390	665
297	666	667
298	520	637
299	163	470
300	639	901
301	93	303
302	165	242
303	208	424
304	681	403
305	600	382
306	19	564
307	522	160
308	19	623
309	362	600
310	391	377
311	299	980
312	55	376
313	364	324
314	754	945
315	912	257
316	282	698
317	768	81
318	273	264
319	451	324
320	113	416
321	384	538
322	309	267
323	946	356
324	798	173
325	283	703
326	599	123
327	887	364
328	500	432
329	882	621
330	733	391
331	999	695
332	747	403
333	86	861
334	55	6
335	547	403
336	140	885
337	550	268
338	822	677
339	110	417
340	69	221
341	590	639
342	307	324
343	73	191
344	468	518
345	781	832
346	936	597
347	130	359
348	60	462
349	762	557
350	728	922
351	760	396
352	956	777
353	129	572
354	741	660
355	981	172
356	570	985
357	186	231
358	839	752
359	893	413
360	796	70
361	212	580
362	145	491
363	313	994
364	351	674
365	596	982
366	505	784
367	161	139
368	759	811
369	247	901
370	665	217
371	741	997
372	372	888
373	346	31
374	105	332
375	973	710
376	931	753
377	493	170
378	46	333
379	279	950
380	379	440
381	591	910
382	449	762
383	155	24
384	423	729
385	813	682
386	879	206
387	612	916
388	191	846
389	95	825
390	761	937
391	446	473
392	200	958
393	483	370
394	533	760
395	246	102
396	378	651
397	550	367
398	565	459
399	887	206
400	982	505
401	851	701
402	124	859
403	325	164
404	719	595
405	249	265
406	937	0
407	572	510
408	101	717
409	51	485
410	394	781
411	392	37
412	462	894
413	212	921
414	778	443
415	484	914
416	508	568
417	541	538
418	66	211
419	961	798
420	526	973
421	305	714
422	238	887
423	776	672
424	470	841
425	772	759
426	314	514
427	381	208
428	621	930
429	794	360
430	786	463
431	973	5
432	635	58
433	738	859
434	883	336
435	544	631
436	329	968
437	842	747
438	296	850
439	245	93
440	343	454
441	815	706
442	680	348
443	888	977
444	69	950
445	598	674
446	695	791
447	508	371
448	328	179
449	481	219
450	798	142
451	935	58
452	916	557
453	29	650
454	178	104
455	526	358
456	623	895
457	41	997
458	223	401
459	824	291
460	248	383
461	695	478
462	955	716
463	44	140
464	539	481
465	348	664
466	710	210
467	400	679
468	681	455
469	751	679
470	31	22
471	517	671
472	144	243
473	22	595
474	862	943
475	93	886
476	300	60
477	821	920
478	474	356
479	562	735
480	731	248
481	517	638
482	572	604
483	614	633
484	771	246
485	914	372
486	93	832
487	182	6
488	458	981
489	121	608
490	112	704
491	839	419
492	55	126
493	193	313
494	261	720
495	613	100
496	564	36
497	858	465
498	968	891
499	213	887
500	73	37
501	835	243
DEMAND_SECTION
1	0
2	2
3	5
4	5
5	3
6	3
7	5
8	4
9	4
10	7
11	1
12	9
13	6
14	6
15	3
16	1
17	5
18	1
19	6
20	3
21	4
22	3
23	9
24	1
25	7
26	1
27	2
28	4
29	6
30	2
31	3
32	1
33	6
34	7
35	2
36	3
37	7
38	7
39	8
40	1
41	6
42	5
43	8
44	5
45	7
46	7
47	9
48	7
49	1
50	3
51	1
52	1
53	9
54	5
55	1
56	2
57	1
58	9
59	6
60	3
61	9
62	1
63	6
64	1
65	9
66	6
67	7
68	5
69	5
70	3
71	5
72	1
73	9
74	2
75	8
76	5
77	2
78	1
79	6
80	2
81	9
82	2
83	7
84	1
85	1
86	3
87	1
88	8
89	3
90	8
91	6
92	5
93	1
94	8
95	9
96	2
97	4
98	3
99	3
100	6
101	8
102	2
103	6
104	4
105	6
106	7
107	4
108	7
109	8
110	6
111	7
112	6
113	8
114	6
115	4
116	4
117	5
118	1
119	2
120	4
121	4
122	4
123	9
124	9
125	4
126	9
127	5
128	1
129	7
130	9
131	7
132	4
133	9
134	3
135	9
136	9
137	9
138	3
139	6
140	7
141	6
142	9
143	6
144	9
145	3
146	1
147	3
148	1
149	3
150	1
151	9
152	1
153	5
154	5
155	4
156	6
157	3
158	5
159	1
160	6
161	6
162	8
163	8
164	2
165	3
166	9
167	8
168	9
169	2
170	4
171	3
172	9
173	8
174	2
175	7
176	1
177	9
178	5
179	7
180	7
181	2
182	4
183	1
184	8
185	2
186	8
187	2
188	6
189	6
190	7
191	8
192	8
193	9
194	5
195	6
196	9
197	7
198	9
199	6
200	9
201	9
202	5
203	6
204	3
205	2
206	2
207	8
208	8
209	1
210	7
211	4
212	3
213	2
214	2
215	1
216	8
217	8
218	1
219	4
220	7
221	5
222	9
223	2
224	5
225	6
226	5
227	3
228	7
229	4
230	3
231	3
232	4
233	1
234	1
235	7
236	5
237	4
238	1
239	1
240	9
241	9
242	3
243	5
244	5
245	9
246	6
247	9
248	3
249	7
250	7
251	1
252	2
253	6
254	4
255	4
256	5
257	2
258	3
259	5
260	9
261	2
262	4
263	1
264	8
265	9
266	3
267	2
268	7
269	9
270	3
271	9
272	2
273	8
274	5
275	5
276	3
277	5
278	8
279	4
280	5
281	8
282	1
283	5
284	5
285	9
286	8
287	9
288	6
289	7
290	3
291	9
292	9
293	9
294	1
295	1
296	2
297	1
298	6
299	9
300	4
301	1
302	5
303	3
304	2
305	9
306	5
307	2
308	7
309	2
310	3
311	4
312	1
313	5
314	6
315	4
316	9
317	8
318	9
319	9
320	3
321	6
322	4
323	8
324	7
325	4
326	6
327	6
328	5
329	4
330	3
331	2
332	7
333	1
334	1
335	7
336	4
337	9
338	4
339	4
340	8
341	5
342	9
343	7
344	7
345	8
346	3
347	6
348	5
349	1
350	6
351	7
352	7
353	9
354	6
355	3
356	4
357	8
358	4
359	6
360	2
361	2
362	1
363	5
364	4
365	4
366	5
367	4
368	6
369	9
370	2
371	4
372	1
373	7
374	5
375	8
376	7
377	6
378	7
379	1
380	8
381	8
382	2
383	1
384	3
385	7
386	7
387	8
388	5
389	4
390	4
391	6
392	2
393	1
394	2
395	3
396	6
397	5
398	3
399	7
400	5
401	2
402	1
403	8
404	9
405	3
406	9
407	6
408	4
409	3
410	3
411	7
412	9
413	2
414	5
415	2
416	4
417	8
418	4
419	1
420	8
421	4
422	1
423	9
424	4
425	8
426	5
427	2
428	7
429	5
430	4
431	7
432	7
433	5
434	3
435	8
436	4
437	2
438	1
439	7
440	2
441	6
442	5
443	7
444	4
445	2
446	8
447	8
448	9
449	1
450	1
451	3
452	7
453	2
454	6
455	2
456	8
457	4
458	4
459	3
460	5
461	6
462	5
463	7
464	9
465	1
466	7
467	8
468	7
469	6
470	5
471	8
472	4
473	7
474	4
475	8
476	9
477	5
478	9
479	3
480	7
481	7
482	6
483	8
484	9
485	3
486	3
487	1
488	9
489	2
490	8
491	6
492	8
493	6
494	7
495	3
496	8
497	8
498	5
499	4
500	4
501	6
DEPOT_SECTION
1
-1
EOF
