NAME : n501-0044
COMMENT : "Generated by pyvrp_manuel (CVRP)"
TYPE : CVRP
DIMENSION : 501
EDGE_WEIGHT_TYPE : EUC_2D
CAPACITY : 100
NODE_COORD_SECTION
1	418	271
2	515	24
3	30	38
4	981	535
5	269	683
6	44	628
7	639	982
8	258	793
9	105	716
10	999	327
11	93	424
12	979	326
13	765	488
14	51	647
15	986	864
16	367	674
17	502	170
18	398	104
19	848	240
20	364	609
21	379	281
22	971	64
23	171	554
24	354	836
25	826	753
26	435	598
27	678	71
28	355	76
29	214	689
30	488	356
31	17	116
32	329	222
33	184	410
34	496	678
35	704	641
36	655	938
37	451	917
38	954	850
39	549	271
40	283	614
41	454	454
42	984	818
43	839	517
44	575	348
45	67	500
46	2	440
47	672	603
48	186	207
49	753	531
50	200	772
51	455	697
52	480	114
53	990	463
54	202	829
55	858	719
56	405	261
57	655	590
58	60	743
59	790	762
60	172	703
61	325	523
62	445	286
63	276	767
64	398	784
65	735	860
66	246	677
67	764	272
68	242	766
69	686	430
70	809	478
71	819	459
72	765	703
73	114	980
74	904	722
75	703	830
76	362	910
77	81	31
78	419	149
79	675	540
80	659	910
81	318	982
82	742	101
83	270	238
84	698	808
85	180	255
86	5	42
87	324	544
88	45	713
89	764	509
90	981	872
91	536	527
92	499	19
93	217	92
94	30	394
95	528	337
96	830	717
97	453	56
98	74	129
99	430	640
100	854	767
101	603	807
102	57	598
103	372	446
104	849	598
105	283	394
106	332	156
107	139	104
108	906	783
109	354	255
110	60	228
111	672	289
112	630	337
113	0	630
114	648	642
115	128	385
116	957	534
117	442	663
118	959	927
119	651	957
120	263	622
121	781	17
122	27	102
123	51	596
124	520	392
125	302	64
126	219	988
127	343	537
128	306	262
129	852	400
130	538	850
131	409	648
132	192	825
133	472	778
134	51	574
135	630	168
136	854	218
137	306	806
138	247	842
139	853	437
140	615	183
141	225	443
142	896	897
143	937	296
144	108	854
145	764	958
146	992	222
147	903	944
148	400	219
149	198	270
150	801	514
151	380	403
152	920	592
153	210	759
154	213	842
155	49	627
156	757	853
157	444	720
158	492	927
159	349	62
160	358	624
161	559	105
162	279	671
163	655	951
164	388	631
165	229	4
166	500	377
167	900	105
168	76	192
169	467	829
170	834	415
171	729	798
172	367	255
173	614	167
174	922	687
175	434	364
176	519	572
177	48	51
178	438	236
179	183	571
180	849	164
181	485	752
182	822	677
183	429	199
184	890	215
185	521	190
186	527	123
187	383	329
188	829	492
189	640	298
190	11	126
191	672	997
192	178	260
193	761	983
194	103	236
195	25	661
196	371	343
197	843	400
198	203	46
199	945	453
200	803	365
201	362	621
202	828	489
203	135	354
204	368	800
205	195	389
206	378	979
207	629	833
208	154	627
209	430	197
210	668	130
211	600	175
212	450	152
213	188	924
214	506	548
215	17	138
216	595	921
217	175	971
218	475	848
219	971	196
220	862	892
221	131	333
222	135	13
223	477	376
224	800	267
225	44	66
226	538	379
227	622	78
228	145	604
229	525	848
230	455	191
231	912	146
232	897	972
233	862	851
234	488	104
235	300	155
236	613	821
237	647	667
238	274	839
239	463	506
240	406	96
241	139	846
242	406	560
243	106	465
244	436	179
245	781	893
246	160	679
247	850	454
248	259	366
249	501	994
250	937	287
251	600	617
252	726	826
253	405	546
254	183	974
255	905	664
256	945	246
257	294	279
258	451	790
259	605	369
260	196	581
261	886	306
262	145	969
263	736	690
264	408	986
265	159	682
266	188	19
267	136	984
268	932	173
269	295	151
270	308	732
271	177	964
272	270	804
273	206	213
274	708	724
275	772	516
276	912	634
277	358	459
278	286	416
279	386	835
280	666	488
281	644	733
282	336	35
283	601	4
284	945	629
285	978	315
286	275	260
287	514	858
288	587	215
289	142	979
290	530	822
291	37	417
292	588	875
293	376	379
294	756	309
295	529	555
296	457	562
297	185	594
298	111	359
299	72	397
300	716	830
301	505	410
302	126	444
303	105	757
304	852	496
305	599	744
306	396	417
307	964	66
308	630	95
309	91	49
310	962	590
311	455	15
312	126	431
313	160	160
314	367	342
315	749	993
316	574	931
317	776	506
318	330	690
319	555	194
320	73	574
321	355	801
322	725	211
323	586	344
324	901	718
325	115	652
326	817	236
327	833	134
328	770	379
329	688	626
330	923	464
331	948	410
332	98	210
333	13	646
334	549	109
335	159	186
336	299	757
337	754	75
338	371	704
339	401	225
340	515	219
341	33	971
342	34	378
343	717	462
344	130	793
345	434	833
346	920	748
347	366	428
348	529	632
349	32	295
350	535	946
351	152	223
352	503	976
353	967	509
354	119	339
355	200	428
356	382	145
357	368	303
358	364	726
359	295	862
360	330	566
361	372	279
362	452	333
363	938	374
364	369	719
365	651	414
366	175	808
367	680	341
368	455	435
369	108	161
370	576	43
371	226	307
372	576	358
373	643	706
374	519	627
375	821	359
376	781	385
377	966	559
378	957	593
379	524	121
380	301	318
381	807	458
382	378	521
383	470	425
384	482	472
385	601	721
386	778	954
387	808	467
388	612	417
389	970	575
390	34	471
391	301	293
392	767	624
393	933	95
394	740	606
395	706	218
396	741	602
397	322	797
398	656	840
399	487	740
400	850	805
401	324	918
402	740	384
403	654	826
404	317	785
405	248	289
406	704	541
407	994	355
408	482	468
409	455	206
410	635	629
411	602	312
412	807	752
413	760	406
414	577	776
415	324	364
416	519	198
417	620	397
418	291	717
419	632	342
420	158	52
421	262	18
422	574	126
423	368	228
424	833	647
425	657	972
426	881	620
427	303	977
428	659	711
429	292	155
430	612	716
431	488	441
432	968	931
433	498	384
434	564	644
435	749	31
436	977	649
437	201	839
438	883	890
439	721	290
440	326	879
441	358	506
442	260	290
443	732	748
444	466	734
445	80	6
446	114	690
447	117	586
448	492	445
449	959	813
450	107	29
451	758	789
452	120	622
453	584	684
454	577	863
455	907	691
456	927	640
457	333	429
458	740	153
459	270	327
460	482	479
461	65	687
462	658	824
463	535	586
464	991	1000
465	111	610
466	64	82
467	781	209
468	516	441
469	723	312
470	319	975
471	187	73
472	667	562
473	41	879
474	35	692
475	695	224
476	630	605
477	16	547
478	734	551
479	625	664
480	997	722
481	536	277
482	569	879
483	159	838
484	713	105
485	421	156
486	105	824
487	257	697
488	913	139
489	589	26
490	300	828
491	148	612
492	960	852
493	224	79
494	374	672
495	713	375
496	861	732
497	792	552
498	978	97
499	591	871
500	69	593
501	210	579
DEMAND_SECTION
1	0
2	2
3	8
4	7
5	9
6	5
7	9
8	5
9	4
10	1
11	6
12	3
13	1
14	2
15	4
16	4
17	1
18	4
19	1
20	2
21	8
22	9
23	4
24	1
25	7
26	1
27	3
28	7
29	9
30	1
31	8
32	9
33	8
34	6
35	1
36	3
37	4
38	1
39	4
40	1
41	6
42	9
43	9
44	5
45	1
46	2
47	1
48	8
49	7
50	8
51	6
52	5
53	9
54	9
55	3
56	3
57	5
58	2
59	8
60	9
61	5
62	6
63	9
64	6
65	3
66	3
67	6
68	5
69	8
70	2
71	8
72	9
73	5
74	9
75	6
76	1
77	8
78	6
79	3
80	1
81	3
82	2
83	2
84	3
85	2
86	6
87	6
88	7
89	3
90	4
91	9
92	3
93	3
94	5
95	6
96	4
97	6
98	3
99	2
100	1
101	4
102	3
103	7
104	7
105	8
106	2
107	2
108	5
109	7
110	8
111	9
112	1
113	5
114	3
115	4
116	5
117	2
118	6
119	8
120	1
121	2
122	2
123	1
124	6
125	7
126	6
127	5
128	1
129	2
130	7
131	1
132	2
133	1
134	4
135	6
136	2
137	4
138	1
139	5
140	8
141	9
142	4
143	2
144	7
145	3
146	2
147	1
148	9
149	1
150	9
151	4
152	8
153	1
154	5
155	8
156	6
157	9
158	9
159	3
160	2
161	2
162	6
163	7
164	6
165	9
166	9
167	5
168	3
169	1
170	9
171	8
172	7
173	4
174	7
175	6
176	7
177	1
178	7
179	8
180	5
181	3
182	8
183	2
184	8
185	5
186	9
187	9
188	1
189	6
190	7
191	3
192	6
193	9
194	4
195	7
196	3
197	1
198	5
199	4
200	7
201	7
202	6
203	3
204	8
205	8
206	3
207	8
208	4
209	5
210	8
211	9
212	2
213	3
214	7
215	8
216	6
217	4
218	7
219	6
220	5
221	2
222	6
223	8
224	9
225	2
226	6
227	3
228	4
229	3
230	7
231	9
232	7
233	4
234	5
235	2
236	6
237	5
238	7
239	4
240	3
241	7
242	7
243	4
244	9
245	4
246	6
247	7
248	5
249	4
250	5
251	9
252	1
253	4
254	2
255	5
256	9
257	1
258	9
259	4
260	9
261	1
262	3
263	4
264	3
265	4
266	3
267	3
268	1
269	2
270	1
271	5
272	4
273	3
274	7
275	5
276	2
277	3
278	3
279	4
280	6
281	6
282	2
283	4
284	6
285	9
286	2
287	8
288	4
289	3
290	9
291	2
292	9
293	1
294	2
295	8
296	6
297	3
298	8
299	8
300	4
301	7
302	9
303	2
304	5
305	1
306	3
307	3
308	9
309	9
310	5
311	9
312	4
313	8
314	7
315	9
316	7
317	6
318	6
319	3
320	1
321	4
322	3
323	7
324	2
325	7
326	1
327	4
328	5
329	5
330	9
331	1
332	9
333	8
334	5
335	8
336	7
337	5
338	4
339	5
340	8
341	7
342	6
343	2
344	5
345	1
346	7
347	2
348	6
349	1
350	6
351	1
352	8
353	5
354	1
355	9
356	3
357	9
358	5
359	9
360	2
361	5
362	4
363	8
364	8
365	1
366	5
367	3
368	4
369	2
370	7
371	3
372	8
373	8
374	5
375	9
376	8
377	8
378	3
379	7
380	4
381	2
382	5
383	2
384	1
385	1
386	5
387	4
388	4
389	5
390	9
391	5
392	8
393	2
394	4
395	1
396	4
397	9
398	7
399	4
400	8
401	7
402	7
403	1
404	2
405	1
406	6
407	3
408	1
409	4
410	2
411	6
412	1
413	7
414	9
415	5
416	9
417	9
418	2
419	6
420	3
421	5
422	9
423	5
424	2
425	8
426	1
427	1
428	5
429	9
430	3
431	5
432	7
433	7
434	7
435	3
436	5
437	7
438	6
439	5
440	1
441	4
442	1
443	8
444	5
445	4
446	1
447	8
448	6
449	7
450	4
451	1
452	1
453	8
454	1
455	8
456	8
457	4
458	4
459	9
460	2
461	6
462	5
463	7
464	6
465	6
466	6
467	3
468	3
469	4
470	3
471	8
472	8
473	1
474	5
475	8
476	3
477	7
478	7
479	5
480	2
481	2
482	2
483	4
484	3
485	5
486	8
487	9
488	5
489	5
490	3
491	8
492	9
493	3
494	1
495	1
496	7
497	3
498	4
499	3
500	6
501	1
DEPOT_SECTION
1
-1
EOF
