NAME : n501-0042
COMMENT : "Generated by pyvrp_manuel (CVRP)"
TYPE : CVRP
DIMENSION : 501
EDGE_WEIGHT_TYPE : EUC_2D
CAPACITY : 100
NODE_COORD_SECTION
1	880	1
2	306	886
3	553	681
4	528	283
5	168	71
6	193	2
7	111	689
8	145	151
9	512	482
10	599	610
11	186	631
12	328	904
13	157	964
14	449	333
15	506	610
16	583	266
17	252	5
18	278	294
19	457	780
20	315	304
21	695	969
22	100	806
23	338	127
24	425	529
25	528	352
26	104	700
27	19	241
28	882	829
29	104	512
30	712	657
31	506	611
32	78	322
33	451	9
34	8	789
35	367	216
36	918	766
37	480	488
38	754	780
39	822	785
40	885	266
41	94	60
42	151	863
43	263	428
44	431	349
45	362	661
46	574	424
47	191	282
48	357	909
49	400	293
50	807	831
51	656	161
52	879	126
53	115	338
54	556	85
55	479	903
56	675	444
57	936	628
58	633	527
59	509	33
60	952	147
61	680	21
62	190	309
63	926	535
64	430	412
65	545	580
66	310	313
67	271	607
68	734	227
69	388	329
70	333	746
71	353	976
72	386	727
73	960	74
74	670	177
75	632	843
76	702	740
77	909	108
78	921	56
79	912	52
80	823	464
81	859	751
82	854	145
83	671	559
84	808	274
85	677	833
86	725	998
87	468	2
88	328	675
89	282	428
90	747	754
91	909	321
92	94	539
93	1	691
94	71	216
95	272	486
96	206	629
97	857	504
98	526	427
99	33	132
100	635	43
101	314	520
102	575	512
103	126	263
104	486	577
105	430	655
106	274	947
107	268	898
108	2	559
109	624	487
110	81	371
111	968	662
112	178	356
113	344	359
114	589	921
115	414	609
116	769	369
117	548	871
118	248	387
119	687	503
120	677	274
121	746	905
122	3	167
123	130	431
124	673	943
125	17	501
126	455	816
127	228	842
128	495	92
129	199	758
130	899	208
131	131	673
132	995	460
133	934	413
134	110	9
135	82	26
136	542	2
137	707	206
138	635	484
139	595	387
140	255	254
141	983	840
142	106	540
143	904	526
144	724	936
145	722	302
146	208	303
147	481	741
148	223	342
149	24	659
150	662	304
151	764	873
152	778	605
153	357	122
154	195	520
155	921	23
156	854	271
157	887	30
158	559	948
159	899	161
160	643	915
161	316	807
162	117	293
163	44	575
164	626	881
165	787	656
166	802	407
167	604	768
168	358	936
169	674	237
170	962	628
171	178	748
172	576	310
173	548	182
174	102	251
175	870	654
176	273	61
177	98	2
178	237	891
179	761	25
180	303	141
181	804	332
182	741	224
183	499	984
184	189	9
185	524	717
186	984	358
187	654	184
188	689	284
189	201	295
190	91	879
191	433	360
192	514	424
193	784	180
194	133	549
195	407	850
196	449	856
197	307	265
198	484	338
199	20	432
200	134	281
201	53	781
202	374	457
203	85	310
204	102	264
205	78	507
206	396	277
207	399	157
208	957	372
209	518	325
210	319	846
211	540	229
212	441	724
213	419	424
214	327	315
215	251	806
216	669	637
217	796	507
218	386	673
219	529	973
220	87	904
221	471	481
222	552	593
223	507	806
224	613	257
225	430	760
226	37	941
227	703	976
228	101	581
229	903	624
230	267	64
231	681	866
232	795	578
233	955	734
234	723	651
235	194	579
236	275	793
237	501	260
238	132	845
239	639	339
240	878	543
241	77	983
242	778	62
243	318	142
244	928	354
245	945	467
246	979	739
247	984	853
248	66	709
249	312	919
250	139	85
251	321	339
252	694	341
253	633	985
254	613	950
255	197	652
256	131	697
257	906	0
258	239	424
259	795	213
260	249	243
261	515	521
262	618	635
263	254	350
264	162	291
265	56	354
266	942	931
267	86	681
268	26	987
269	816	408
270	298	653
271	174	929
272	580	601
273	51	134
274	373	651
275	827	844
276	937	564
277	690	774
278	669	122
279	689	614
280	274	568
281	612	216
282	433	608
283	684	704
284	200	966
285	434	208
286	575	837
287	2	600
288	977	486
289	821	186
290	1000	688
291	946	997
292	387	118
293	577	65
294	343	776
295	303	304
296	239	318
297	803	314
298	601	545
299	87	414
300	990	815
301	464	783
302	943	480
303	377	707
304	390	655
305	420	688
306	164	919
307	113	793
308	528	951
309	96	920
310	274	337
311	185	102
312	196	948
313	713	316
314	57	60
315	43	578
316	388	965
317	704	627
318	298	873
319	593	431
320	896	872
321	889	832
322	189	221
323	869	665
324	55	804
325	221	699
326	200	392
327	728	567
328	383	652
329	747	326
330	620	521
331	406	169
332	201	887
333	685	665
334	92	263
335	426	582
336	533	2
337	27	572
338	974	468
339	917	851
340	482	443
341	551	902
342	710	292
343	800	11
344	456	631
345	453	535
346	139	643
347	782	880
348	910	833
349	953	874
350	555	628
351	16	400
352	774	156
353	106	799
354	671	936
355	513	582
356	698	803
357	47	346
358	819	127
359	50	706
360	735	593
361	712	958
362	716	368
363	801	92
364	930	596
365	708	57
366	213	257
367	377	612
368	915	366
369	358	803
370	509	734
371	358	243
372	999	32
373	299	12
374	703	33
375	148	649
376	472	538
377	6	689
378	337	375
379	131	101
380	993	634
381	895	176
382	598	458
383	965	513
384	732	506
385	771	113
386	545	527
387	77	943
388	118	473
389	85	472
390	578	943
391	432	574
392	785	712
393	936	516
394	14	951
395	783	507
396	900	376
397	582	1
398	423	535
399	474	745
400	554	824
401	106	387
402	746	733
403	365	94
404	132	362
405	285	608
406	937	696
407	791	974
408	994	967
409	315	107
410	556	962
411	457	270
412	228	797
413	114	656
414	18	890
415	160	883
416	875	595
417	281	77
418	199	314
419	902	42
420	174	750
421	994	434
422	592	354
423	248	561
424	478	847
425	268	446
426	758	491
427	530	902
428	183	117
429	502	174
430	223	229
431	260	744
432	684	807
433	321	522
434	234	306
435	555	507
436	341	761
437	836	430
438	577	166
439	448	275
440	132	264
441	21	255
442	385	366
443	169	773
444	131	777
445	387	258
446	632	468
447	30	227
448	358	881
449	526	828
450	735	78
451	453	117
452	840	333
453	109	480
454	725	834
455	360	275
456	917	752
457	917	238
458	736	351
459	512	850
460	475	348
461	649	179
462	739	220
463	924	876
464	379	708
465	321	66
466	312	893
467	561	592
468	765	825
469	114	68
470	509	361
471	425	260
472	691	735
473	619	570
474	98	456
475	898	841
476	661	499
477	810	564
478	652	875
479	913	329
480	763	199
481	282	797
482	661	36
483	229	37
484	631	464
485	362	318
486	270	867
487	646	947
488	780	977
489	871	672
490	406	887
491	188	271
492	82	379
493	855	385
494	85	502
495	395	745
496	71	745
497	366	151
498	256	891
499	318	851
500	538	331
501	936	588
DEMAND_SECTION
1	0
2	7
3	1
4	1
5	2
6	2
7	6
8	2
9	6
10	3
11	1
12	3
13	2
14	7
15	9
16	8
17	7
18	2
19	8
20	8
21	5
22	6
23	6
24	1
25	1
26	2
27	5
28	8
29	4
30	1
31	3
32	1
33	9
34	2
35	5
36	6
37	2
38	1
39	8
40	1
41	3
42	4
43	4
44	7
45	2
46	7
47	9
48	3
49	6
50	8
51	4
52	8
53	8
54	6
55	7
56	9
57	5
58	3
59	8
60	4
61	7
62	2
63	4
64	5
65	5
66	2
67	6
68	5
69	5
70	4
71	7
72	2
73	7
74	9
75	9
76	9
77	9
78	3
79	2
80	2
81	7
82	6
83	7
84	5
85	6
86	9
87	6
88	1
89	3
90	7
91	5
92	4
93	5
94	7
95	9
96	3
97	6
98	1
99	5
100	5
101	3
102	4
103	7
104	7
105	1
106	6
107	5
108	6
109	7
110	7
111	4
112	4
113	8
114	5
115	1
116	7
117	7
118	5
119	1
120	3
121	8
122	3
123	5
124	1
125	1
126	2
127	4
128	8
129	5
130	1
131	8
132	9
133	1
134	5
135	5
136	1
137	6
138	6
139	6
140	7
141	7
142	5
143	9
144	8
145	9
146	5
147	6
148	2
149	3
150	7
151	3
152	9
153	2
154	3
155	6
156	2
157	5
158	7
159	7
160	5
161	1
162	6
163	5
164	7
165	1
166	5
167	4
168	6
169	1
170	2
171	4
172	3
173	5
174	6
175	5
176	2
177	4
178	7
179	4
180	2
181	9
182	9
183	8
184	7
185	3
186	8
187	3
188	9
189	7
190	4
191	7
192	9
193	7
194	6
195	4
196	3
197	2
198	2
199	2
200	5
201	6
202	7
203	4
204	9
205	4
206	8
207	3
208	2
209	8
210	3
211	8
212	4
213	1
214	5
215	6
216	7
217	2
218	4
219	9
220	2
221	3
222	2
223	9
224	2
225	5
226	3
227	9
228	2
229	7
230	7
231	1
232	3
233	6
234	3
235	6
236	4
237	1
238	6
239	8
240	4
241	9
242	9
243	8
244	2
245	1
246	7
247	6
248	3
249	9
250	1
251	9
252	1
253	3
254	1
255	9
256	7
257	3
258	2
259	9
260	1
261	8
262	3
263	9
264	8
265	4
266	5
267	4
268	4
269	6
270	3
271	8
272	4
273	3
274	3
275	4
276	5
277	5
278	4
279	2
280	2
281	8
282	2
283	2
284	5
285	4
286	3
287	9
288	6
289	7
290	5
291	4
292	3
293	2
294	6
295	5
296	7
297	3
298	9
299	4
300	3
301	2
302	5
303	5
304	3
305	5
306	1
307	6
308	3
309	1
310	3
311	3
312	7
313	5
314	7
315	8
316	3
317	9
318	9
319	8
320	7
321	5
322	7
323	2
324	3
325	3
326	2
327	8
328	2
329	9
330	5
331	7
332	6
333	7
334	9
335	8
336	8
337	3
338	3
339	7
340	3
341	9
342	5
343	1
344	7
345	7
346	5
347	5
348	1
349	8
350	3
351	2
352	9
353	5
354	4
355	6
356	9
357	4
358	5
359	6
360	4
361	5
362	1
363	2
364	6
365	8
366	3
367	5
368	4
369	2
370	9
371	4
372	7
373	5
374	5
375	6
376	3
377	4
378	2
379	2
380	9
381	5
382	4
383	8
384	6
385	6
386	5
387	7
388	7
389	5
390	4
391	2
392	8
393	7
394	2
395	6
396	8
397	1
398	6
399	1
400	3
401	5
402	6
403	6
404	2
405	4
406	7
407	4
408	4
409	4
410	7
411	1
412	8
413	6
414	9
415	3
416	6
417	4
418	5
419	3
420	6
421	4
422	7
423	6
424	1
425	8
426	3
427	8
428	5
429	2
430	6
431	7
432	7
433	6
434	5
435	9
436	1
437	9
438	7
439	1
440	1
441	8
442	1
443	7
444	1
445	3
446	1
447	1
448	3
449	1
450	3
451	6
452	1
453	6
454	7
455	4
456	2
457	4
458	2
459	5
460	7
461	6
462	7
463	4
464	3
465	9
466	4
467	5
468	9
469	5
470	4
471	2
472	6
473	8
474	7
475	7
476	1
477	7
478	3
479	2
480	4
481	6
482	3
483	6
484	5
485	5
486	4
487	5
488	7
489	7
490	5
491	8
492	1
493	5
494	3
495	4
496	2
497	9
498	3
499	6
500	6
501	6
DEPOT_SECTION
1
-1
EOF
