NAME : n501-0026
COMMENT : "Generated by pyvrp_manuel (CVRP)"
TYPE : CVRP
DIMENSION : 501
EDGE_WEIGHT_TYPE : EUC_2D
CAPACITY : 100
NODE_COORD_SECTION
1	820	997
2	949	179
3	902	115
4	543	486
5	694	568
6	935	393
7	947	371
8	94	868
9	603	629
10	652	803
11	752	669
12	573	537
13	772	957
14	363	53
15	618	760
16	150	171
17	104	475
18	211	655
19	745	269
20	188	32
21	173	598
22	479	312
23	480	312
24	4	112
25	371	50
26	787	258
27	165	465
28	79	861
29	809	606
30	124	768
31	101	900
32	388	472
33	55	663
34	375	411
35	341	314
36	564	625
37	855	424
38	795	14
39	615	519
40	369	683
41	485	449
42	968	55
43	192	305
44	936	339
45	575	399
46	829	819
47	159	544
48	20	284
49	128	348
50	499	325
51	305	339
52	575	89
53	905	269
54	491	125
55	57	188
56	82	8
57	840	982
58	199	945
59	559	973
60	100	588
61	656	61
62	812	380
63	826	378
64	197	788
65	641	832
66	518	764
67	298	972
68	765	4
69	256	184
70	252	497
71	971	313
72	294	590
73	621	410
74	325	415
75	565	156
76	964	452
77	877	351
78	526	573
79	31	589
80	410	583
81	610	811
82	351	330
83	806	694
84	633	176
85	250	120
86	720	257
87	808	118
88	45	243
89	860	754
90	150	612
91	86	129
92	271	764
93	564	388
94	657	596
95	780	702
96	480	513
97	349	907
98	828	32
99	351	475
100	709	357
101	951	471
102	943	146
103	832	642
104	845	665
105	28	647
106	256	330
107	90	627
108	382	430
109	120	908
110	880	302
111	510	97
112	345	856
113	826	655
114	193	736
115	348	452
116	586	54
117	478	267
118	255	609
119	359	655
120	666	28
121	521	937
122	189	753
123	48	677
124	138	888
125	110	518
126	966	744
127	423	721
128	622	346
129	370	350
130	38	176
131	466	766
132	99	860
133	947	221
134	716	835
135	250	747
136	952	876
137	32	460
138	463	728
139	558	199
140	39	370
141	478	169
142	689	341
143	344	239
144	166	823
145	885	454
146	242	488
147	400	727
148	388	229
149	817	352
150	871	526
151	791	471
152	386	518
153	428	546
154	559	727
155	510	462
156	525	566
157	964	635
158	941	706
159	844	155
160	853	229
161	539	939
162	488	766
163	453	154
164	891	221
165	988	424
166	290	84
167	796	94
168	429	464
169	699	289
170	624	136
171	703	358
172	780	945
173	946	144
174	56	678
175	178	428
176	728	773
177	417	816
178	277	403
179	775	589
180	945	767
181	871	635
182	491	389
183	892	511
184	541	180
185	477	540
186	631	756
187	699	22
188	87	842
189	19	760
190	513	678
191	128	664
192	249	996
193	302	404
194	511	632
195	287	945
196	215	448
197	657	13
198	92	807
199	991	746
200	221	616
201	19	533
202	144	349
203	808	950
204	328	839
205	44	552
206	704	203
207	793	889
208	586	783
209	912	616
210	745	442
211	506	658
212	974	91
213	882	626
214	214	713
215	531	346
216	955	602
217	106	924
218	285	814
219	798	408
220	959	484
221	850	787
222	202	856
223	375	425
224	785	642
225	990	836
226	542	986
227	327	128
228	306	207
229	463	309
230	105	519
231	270	492
232	329	255
233	990	569
234	447	409
235	913	117
236	867	997
237	326	233
238	719	942
239	467	922
240	374	8
241	749	979
242	371	396
243	611	949
244	947	208
245	864	271
246	360	604
247	867	216
248	572	183
249	60	250
250	358	164
251	124	401
252	584	368
253	589	284
254	47	398
255	75	807
256	93	956
257	152	699
258	776	142
259	522	981
260	993	53
261	597	841
262	295	738
263	295	884
264	808	289
265	958	598
266	439	788
267	628	390
268	320	902
269	238	122
270	364	227
271	650	531
272	619	132
273	746	906
274	439	971
275	786	125
276	439	303
277	584	799
278	92	989
279	212	66
280	475	688
281	973	629
282	595	76
283	95	755
284	157	271
285	648	91
286	704	640
287	853	746
288	126	686
289	932	656
290	792	79
291	626	973
292	360	726
293	690	584
294	780	651
295	31	440
296	273	790
297	246	271
298	661	525
299	361	202
300	518	769
301	505	295
302	68	245
303	270	954
304	231	442
305	379	262
306	944	471
307	157	415
308	902	398
309	42	198
310	455	692
311	550	706
312	141	651
313	658	170
314	538	839
315	601	445
316	784	933
317	452	905
318	326	897
319	88	67
320	197	796
321	587	954
322	903	917
323	156	356
324	416	854
325	380	37
326	745	713
327	949	312
328	651	10
329	614	279
330	620	172
331	237	363
332	513	393
333	818	708
334	370	631
335	970	247
336	398	723
337	530	58
338	239	948
339	465	989
340	783	312
341	600	841
342	129	649
343	528	470
344	89	189
345	718	144
346	211	268
347	547	540
348	326	523
349	967	358
350	585	159
351	503	890
352	594	26
353	508	405
354	347	951
355	874	132
356	834	619
357	57	761
358	158	341
359	575	498
360	186	480
361	988	638
362	801	113
363	940	460
364	659	4
365	871	564
366	387	960
367	852	552
368	544	692
369	107	309
370	58	980
371	680	297
372	927	739
373	61	276
374	929	250
375	639	525
376	442	645
377	626	599
378	485	184
379	427	231
380	836	435
381	95	823
382	252	767
383	12	734
384	612	180
385	650	543
386	476	633
387	346	288
388	260	961
389	297	238
390	550	829
391	902	762
392	195	495
393	894	747
394	324	393
395	854	945
396	885	609
397	783	770
398	732	326
399	699	438
400	835	838
401	794	74
402	984	3
403	548	254
404	420	967
405	197	505
406	832	895
407	627	830
408	754	707
409	115	629
410	105	900
411	589	192
412	716	665
413	301	440
414	953	189
415	350	378
416	147	895
417	146	701
418	445	199
419	838	173
420	397	858
421	828	967
422	706	753
423	100	379
424	412	386
425	519	598
426	378	626
427	614	406
428	688	168
429	330	409
430	445	211
431	473	778
432	844	651
433	142	951
434	51	645
435	989	361
436	473	388
437	44	970
438	715	672
439	364	908
440	315	667
441	99	286
442	567	528
443	559	718
444	19	664
445	666	722
446	797	885
447	825	751
448	274	844
449	125	632
450	615	830
451	996	871
452	378	165
453	40	961
454	65	76
455	487	512
456	416	163
457	970	801
458	684	437
459	119	367
460	935	609
461	937	746
462	958	863
463	769	518
464	580	54
465	943	79
466	115	603
467	631	832
468	946	9
469	116	67
470	893	231
471	248	343
472	474	646
473	251	661
474	898	388
475	493	684
476	350	337
477	29	519
478	108	447
479	8	166
480	998	123
481	814	67
482	63	184
483	95	330
484	434	260
485	78	456
486	406	41
487	493	814
488	44	696
489	7	640
490	201	509
491	102	855
492	572	509
493	522	12
494	911	964
495	736	104
496	690	275
497	709	65
498	238	208
499	96	609
500	619	658
501	587	482
DEMAND_SECTION
1	0
2	5
3	9
4	4
5	4
6	5
7	9
8	2
9	2
10	3
11	4
12	6
13	9
14	4
15	5
16	7
17	1
18	4
19	2
20	6
21	9
22	1
23	1
24	3
25	7
26	2
27	5
28	7
29	4
30	8
31	8
32	5
33	9
34	5
35	3
36	7
37	4
38	4
39	1
40	2
41	6
42	6
43	3
44	3
45	8
46	1
47	1
48	1
49	7
50	2
51	1
52	9
53	3
54	7
55	6
56	3
57	7
58	9
59	1
60	4
61	3
62	8
63	8
64	1
65	8
66	2
67	1
68	4
69	4
70	8
71	6
72	2
73	2
74	7
75	3
76	6
77	3
78	6
79	5
80	5
81	1
82	5
83	1
84	4
85	7
86	5
87	6
88	4
89	1
90	3
91	1
92	7
93	3
94	3
95	2
96	1
97	3
98	6
99	4
100	2
101	9
102	4
103	4
104	9
105	3
106	4
107	7
108	3
109	4
110	4
111	5
112	7
113	1
114	2
115	3
116	9
117	1
118	5
119	3
120	2
121	4
122	6
123	5
124	8
125	3
126	9
127	5
128	3
129	2
130	9
131	3
132	9
133	7
134	5
135	5
136	2
137	5
138	1
139	7
140	5
141	2
142	5
143	7
144	5
145	3
146	8
147	3
148	9
149	3
150	2
151	2
152	1
153	4
154	2
155	6
156	1
157	9
158	8
159	9
160	2
161	7
162	1
163	9
164	7
165	7
166	6
167	8
168	1
169	7
170	5
171	1
172	4
173	1
174	4
175	8
176	6
177	2
178	1
179	4
180	6
181	8
182	1
183	3
184	4
185	2
186	2
187	8
188	4
189	2
190	5
191	7
192	6
193	5
194	7
195	2
196	8
197	5
198	5
199	5
200	7
201	5
202	5
203	6
204	7
205	9
206	8
207	7
208	3
209	1
210	7
211	5
212	8
213	8
214	7
215	8
216	7
217	2
218	3
219	7
220	2
221	6
222	3
223	1
224	5
225	3
226	2
227	1
228	6
229	1
230	4
231	4
232	3
233	6
234	6
235	1
236	9
237	4
238	6
239	6
240	9
241	3
242	9
243	4
244	3
245	5
246	6
247	4
248	6
249	4
250	7
251	3
252	7
253	1
254	4
255	1
256	5
257	1
258	3
259	6
260	9
261	1
262	8
263	6
264	3
265	1
266	8
267	4
268	7
269	4
270	4
271	6
272	7
273	5
274	9
275	7
276	5
277	2
278	1
279	5
280	5
281	1
282	7
283	3
284	4
285	6
286	7
287	4
288	1
289	6
290	4
291	8
292	8
293	8
294	7
295	7
296	1
297	5
298	4
299	7
300	9
301	4
302	6
303	5
304	4
305	3
306	2
307	8
308	1
309	4
310	8
311	9
312	4
313	1
314	9
315	9
316	5
317	8
318	2
319	8
320	2
321	3
322	5
323	8
324	3
325	4
326	5
327	8
328	4
329	9
330	3
331	8
332	3
333	8
334	5
335	3
336	8
337	4
338	9
339	9
340	1
341	7
342	1
343	1
344	4
345	8
346	1
347	9
348	6
349	5
350	1
351	5
352	8
353	6
354	7
355	5
356	9
357	5
358	1
359	5
360	6
361	6
362	9
363	7
364	9
365	5
366	7
367	5
368	8
369	1
370	6
371	6
372	8
373	3
374	6
375	7
376	7
377	2
378	1
379	6
380	3
381	8
382	2
383	6
384	2
385	1
386	9
387	5
388	5
389	5
390	5
391	4
392	7
393	4
394	5
395	3
396	9
397	2
398	6
399	3
400	9
401	9
402	9
403	1
404	8
405	9
406	3
407	3
408	7
409	6
410	2
411	6
412	9
413	4
414	5
415	8
416	1
417	1
418	8
419	9
420	9
421	5
422	2
423	6
424	4
425	1
426	1
427	5
428	5
429	5
430	2
431	2
432	9
433	7
434	8
435	6
436	9
437	7
438	4
439	5
440	8
441	3
442	3
443	8
444	7
445	2
446	9
447	8
448	7
449	8
450	7
451	5
452	5
453	1
454	2
455	1
456	8
457	2
458	3
459	1
460	8
461	7
462	4
463	8
464	7
465	2
466	8
467	5
468	8
469	1
470	7
471	4
472	4
473	4
474	6
475	6
476	8
477	9
478	2
479	1
480	5
481	6
482	4
483	1
484	7
485	1
486	1
487	7
488	7
489	3
490	2
491	6
492	2
493	2
494	2
495	2
496	3
497	8
498	1
499	8
500	3
501	3
DEPOT_SECTION
1
-1
EOF
