NAME : n501-0045
COMMENT : "Generated by pyvrp_manuel (CVRP)"
TYPE : CVRP
DIMENSION : 501
EDGE_WEIGHT_TYPE : EUC_2D
CAPACITY : 100
NODE_COORD_SECTION
1	692	204
2	517	51
3	259	335
4	415	90
5	383	306
6	16	186
7	158	929
8	580	171
9	995	359
10	309	867
11	470	713
12	451	474
13	894	343
14	852	928
15	92	466
16	76	686
17	116	468
18	105	818
19	735	687
20	646	479
21	78	113
22	132	783
23	184	206
24	738	95
25	874	105
26	183	429
27	431	908
28	471	662
29	688	140
30	703	106
31	142	559
32	533	506
33	880	530
34	320	964
35	98	529
36	997	622
37	583	97
38	780	314
39	262	818
40	914	938
41	616	579
42	241	842
43	456	298
44	719	952
45	394	457
46	514	57
47	152	614
48	11	501
49	582	794
50	319	339
51	420	308
52	461	500
53	905	85
54	528	819
55	438	250
56	609	966
57	128	752
58	239	446
59	21	119
60	843	470
61	485	633
62	956	513
63	74	839
64	151	218
65	486	221
66	943	864
67	901	556
68	753	208
69	12	949
70	889	857
71	466	583
72	903	88
73	288	684
74	926	191
75	980	238
76	804	339
77	808	894
78	160	283
79	918	962
80	544	690
81	516	594
82	754	28
83	453	523
84	134	727
85	414	149
86	678	622
87	41	542
88	358	960
89	201	846
90	347	952
91	234	54
92	265	13
93	583	243
94	560	386
95	208	911
96	575	857
97	646	743
98	950	936
99	307	820
100	440	922
101	278	82
102	419	470
103	187	194
104	345	514
105	19	664
106	53	982
107	331	225
108	330	934
109	125	610
110	691	277
111	446	282
112	324	794
113	869	689
114	266	693
115	771	451
116	553	982
117	190	146
118	934	517
119	266	159
120	70	69
121	31	259
122	602	147
123	985	666
124	386	955
125	705	809
126	6	580
127	955	246
128	823	432
129	117	454
130	633	879
131	309	849
132	977	539
133	598	247
134	416	247
135	637	690
136	447	270
137	513	736
138	75	179
139	366	37
140	136	797
141	252	246
142	31	625
143	540	357
144	53	91
145	454	292
146	582	239
147	430	340
148	60	189
149	887	574
150	216	267
151	19	657
152	950	9
153	8	816
154	899	383
155	42	55
156	867	642
157	203	317
158	190	726
159	729	182
160	429	564
161	896	598
162	642	602
163	68	965
164	73	675
165	24	174
166	507	661
167	923	243
168	663	881
169	778	584
170	557	361
171	607	495
172	930	399
173	500	867
174	116	684
175	108	179
176	236	867
177	473	951
178	807	374
179	562	417
180	115	919
181	25	21
182	677	704
183	301	765
184	783	629
185	931	371
186	424	237
187	464	313
188	379	241
189	244	458
190	510	38
191	759	351
192	9	208
193	832	96
194	124	245
195	208	13
196	361	468
197	935	666
198	238	338
199	124	725
200	635	819
201	599	775
202	950	500
203	616	614
204	310	863
205	179	499
206	427	753
207	7	308
208	966	413
209	878	369
210	181	257
211	551	346
212	727	335
213	355	222
214	113	805
215	681	314
216	838	448
217	279	972
218	112	986
219	507	788
220	643	762
221	198	997
222	555	352
223	18	218
224	618	699
225	648	640
226	744	529
227	634	976
228	558	361
229	838	362
230	621	278
231	703	326
232	999	510
233	251	273
234	985	473
235	684	322
236	562	976
237	580	947
238	568	687
239	976	952
240	609	717
241	641	770
242	810	905
243	456	366
244	29	101
245	586	849
246	581	952
247	594	729
248	451	961
249	539	393
250	206	820
251	957	46
252	62	952
253	2	556
254	512	779
255	308	708
256	993	584
257	539	54
258	573	635
259	674	721
260	268	193
261	435	394
262	238	89
263	142	442
264	502	700
265	899	496
266	603	59
267	157	910
268	577	651
269	607	224
270	400	936
271	294	755
272	315	253
273	347	188
274	364	317
275	255	105
276	349	263
277	312	186
278	409	328
279	366	469
280	111	737
281	441	252
282	704	919
283	575	519
284	357	610
285	765	743
286	479	172
287	41	758
288	782	991
289	709	60
290	461	977
291	520	879
292	26	285
293	763	214
294	651	2
295	808	542
296	641	763
297	495	37
298	956	796
299	362	442
300	572	256
301	444	23
302	390	418
303	511	741
304	811	824
305	14	810
306	904	97
307	776	353
308	296	797
309	325	566
310	728	425
311	130	518
312	608	120
313	559	721
314	617	745
315	802	925
316	783	244
317	319	683
318	438	70
319	1	512
320	30	374
321	884	425
322	82	27
323	229	870
324	180	711
325	10	95
326	684	368
327	834	168
328	997	608
329	142	492
330	756	144
331	312	606
332	379	674
333	79	575
334	422	543
335	701	602
336	874	380
337	706	667
338	133	973
339	378	682
340	683	586
341	39	498
342	743	188
343	691	19
344	850	914
345	338	472
346	481	230
347	46	594
348	615	422
349	720	358
350	65	888
351	525	844
352	57	707
353	954	254
354	304	68
355	584	712
356	229	16
357	655	355
358	846	104
359	111	184
360	343	324
361	900	674
362	446	169
363	299	588
364	271	491
365	5	705
366	514	161
367	396	756
368	980	917
369	240	386
370	40	211
371	836	233
372	363	923
373	752	353
374	464	645
375	191	575
376	621	251
377	765	348
378	59	792
379	631	345
380	217	223
381	798	31
382	625	60
383	936	485
384	435	666
385	681	303
386	524	382
387	820	979
388	226	166
389	837	738
390	419	614
391	134	336
392	481	543
393	849	474
394	425	794
395	196	99
396	504	129
397	419	634
398	334	952
399	405	95
400	439	660
401	834	626
402	188	714
403	531	313
404	286	162
405	220	772
406	502	923
407	605	86
408	206	546
409	191	184
410	593	179
411	533	905
412	247	328
413	779	631
414	160	867
415	386	417
416	296	918
417	858	168
418	551	255
419	696	466
420	405	165
421	246	106
422	669	449
423	615	348
424	520	48
425	306	958
426	978	137
427	720	772
428	348	752
429	870	429
430	62	148
431	784	875
432	332	139
433	685	671
434	222	737
435	304	19
436	748	587
437	151	329
438	427	631
439	32	498
440	680	80
441	417	823
442	940	930
443	464	311
444	568	269
445	68	368
446	33	193
447	257	240
448	283	802
449	708	176
450	77	567
451	95	93
452	837	259
453	75	826
454	346	118
455	318	283
456	640	177
457	321	575
458	437	123
459	224	166
460	132	955
461	726	613
462	279	719
463	130	759
464	777	800
465	254	39
466	572	157
467	413	400
468	35	586
469	834	842
470	229	810
471	383	511
472	622	271
473	187	746
474	148	199
475	351	43
476	906	898
477	596	681
478	20	694
479	771	216
480	95	324
481	936	982
482	502	454
483	353	497
484	348	772
485	23	425
486	593	785
487	673	414
488	618	273
489	60	881
490	999	990
491	84	549
492	755	827
493	776	351
494	291	768
495	631	990
496	500	375
497	587	797
498	850	708
499	980	122
500	481	238
501	565	504
DEMAND_SECTION
1	0
2	8
3	9
4	7
5	6
6	6
7	5
8	7
9	7
10	7
11	5
12	9
13	1
14	3
15	9
16	8
17	2
18	7
19	8
20	4
21	9
22	2
23	3
24	9
25	6
26	1
27	6
28	1
29	8
30	1
31	5
32	2
33	6
34	2
35	1
36	1
37	4
38	4
39	3
40	4
41	7
42	1
43	6
44	2
45	6
46	6
47	4
48	8
49	9
50	8
51	9
52	2
53	4
54	5
55	2
56	4
57	4
58	8
59	3
60	4
61	9
62	5
63	3
64	7
65	6
66	7
67	8
68	6
69	1
70	9
71	4
72	4
73	9
74	2
75	4
76	6
77	3
78	4
79	5
80	2
81	6
82	2
83	9
84	5
85	2
86	7
87	3
88	1
89	3
90	2
91	7
92	7
93	2
94	2
95	2
96	3
97	4
98	8
99	6
100	8
101	5
102	2
103	9
104	5
105	6
106	1
107	2
108	8
109	6
110	8
111	3
112	9
113	6
114	1
115	1
116	1
117	5
118	5
119	8
120	2
121	3
122	3
123	4
124	2
125	6
126	4
127	4
128	4
129	3
130	4
131	4
132	6
133	6
134	2
135	5
136	4
137	3
138	2
139	7
140	6
141	5
142	6
143	3
144	7
145	7
146	7
147	6
148	9
149	1
150	6
151	9
152	5
153	1
154	3
155	5
156	5
157	8
158	9
159	9
160	7
161	5
162	4
163	9
164	9
165	8
166	9
167	6
168	2
169	8
170	9
171	6
172	2
173	9
174	7
175	6
176	2
177	8
178	1
179	3
180	7
181	3
182	3
183	7
184	9
185	5
186	4
187	2
188	7
189	4
190	3
191	5
192	3
193	1
194	4
195	7
196	3
197	3
198	9
199	3
200	7
201	7
202	9
203	8
204	7
205	8
206	5
207	2
208	8
209	4
210	6
211	1
212	2
213	8
214	1
215	6
216	7
217	6
218	1
219	9
220	1
221	8
222	6
223	9
224	3
225	8
226	7
227	4
228	4
229	2
230	3
231	4
232	9
233	3
234	7
235	2
236	5
237	6
238	9
239	6
240	6
241	4
242	8
243	9
244	6
245	4
246	6
247	1
248	6
249	5
250	2
251	7
252	8
253	2
254	7
255	5
256	2
257	6
258	2
259	7
260	8
261	4
262	2
263	7
264	8
265	6
266	9
267	4
268	7
269	9
270	6
271	3
272	4
273	7
274	3
275	4
276	2
277	9
278	1
279	4
280	4
281	4
282	4
283	6
284	9
285	9
286	4
287	2
288	9
289	1
290	5
291	6
292	9
293	4
294	5
295	4
296	4
297	4
298	1
299	6
300	7
301	4
302	2
303	7
304	5
305	4
306	4
307	5
308	3
309	9
310	3
311	9
312	3
313	4
314	8
315	3
316	2
317	1
318	8
319	7
320	7
321	2
322	2
323	8
324	5
325	5
326	5
327	7
328	2
329	8
330	9
331	6
332	8
333	9
334	6
335	6
336	6
337	9
338	3
339	6
340	1
341	6
342	3
343	7
344	6
345	4
346	2
347	7
348	4
349	3
350	2
351	4
352	8
353	9
354	6
355	9
356	7
357	2
358	2
359	3
360	4
361	6
362	4
363	6
364	6
365	2
366	4
367	5
368	8
369	2
370	4
371	7
372	6
373	7
374	1
375	5
376	6
377	5
378	7
379	6
380	8
381	2
382	5
383	4
384	9
385	1
386	6
387	4
388	5
389	8
390	7
391	5
392	6
393	1
394	4
395	1
396	1
397	5
398	9
399	6
400	2
401	5
402	9
403	8
404	7
405	7
406	4
407	2
408	7
409	4
410	2
411	8
412	9
413	3
414	8
415	3
416	2
417	2
418	4
419	8
420	8
421	4
422	2
423	9
424	3
425	6
426	2
427	2
428	5
429	8
430	5
431	5
432	9
433	9
434	3
435	8
436	1
437	9
438	2
439	8
440	2
441	5
442	3
443	5
444	5
445	1
446	7
447	7
448	1
449	5
450	5
451	8
452	8
453	8
454	3
455	3
456	7
457	8
458	2
459	3
460	6
461	7
462	9
463	2
464	1
465	4
466	4
467	4
468	7
469	8
470	3
471	1
472	9
473	8
474	2
475	6
476	6
477	8
478	9
479	4
480	3
481	6
482	3
483	8
484	6
485	6
486	5
487	1
488	2
489	5
490	7
491	1
492	8
493	5
494	1
495	2
496	4
497	4
498	5
499	3
500	8
501	8
DEPOT_SECTION
1
-1
EOF
