NAME : n501-0005
COMMENT : "Generated by pyvrp_manuel (VRPBLTW)"
TYPE : VRPBLTW
DIMENSION : 501
EDGE_WEIGHT_TYPE : EUC_2D
CAPACITY : 100
VEHICLES : 500
DISTANCE : 3000
SERVICE_TIME : 200
NODE_COORD_SECTION
1	906	621
2	25	641
3	953	592
4	884	97
5	418	144
6	934	149
7	87	957
8	398	873
9	806	820
10	196	540
11	586	117
12	382	53
13	639	257
14	416	673
15	959	940
16	17	160
17	504	895
18	89	798
19	14	194
20	207	282
21	540	607
22	885	252
23	166	355
24	490	699
25	15	706
26	342	862
27	143	209
28	765	980
29	57	34
30	162	754
31	187	46
32	805	741
33	97	541
34	746	683
35	343	130
36	501	899
37	909	812
38	695	697
39	937	946
40	938	15
41	558	395
42	223	96
43	685	529
44	435	463
45	406	949
46	660	70
47	930	947
48	316	608
49	951	648
50	319	857
51	201	917
52	646	544
53	645	757
54	230	232
55	847	160
56	779	607
57	254	581
58	767	792
59	32	226
60	572	620
61	641	396
62	344	222
63	77	551
64	62	545
65	680	47
66	746	263
67	334	359
68	379	14
69	828	690
70	108	816
71	116	107
72	12	689
73	685	82
74	771	662
75	369	721
76	56	30
77	651	678
78	499	396
79	3	112
80	643	440
81	446	361
82	921	283
83	403	839
84	278	993
85	83	178
86	127	402
87	813	536
88	197	915
89	162	390
90	384	398
91	245	72
92	488	801
93	444	968
94	395	596
95	638	935
96	413	210
97	571	695
98	502	429
99	745	916
100	94	236
101	113	353
102	406	219
103	997	801
104	15	926
105	490	234
106	757	402
107	985	242
108	443	737
109	616	20
110	885	149
111	987	279
112	914	407
113	479	99
114	575	894
115	622	425
116	92	403
117	955	740
118	795	649
119	20	59
120	555	447
121	565	436
122	410	796
123	805	251
124	94	884
125	107	956
126	18	286
127	47	441
128	808	839
129	685	366
130	136	440
131	419	985
132	291	352
133	645	680
134	927	626
135	309	462
136	485	249
137	501	33
138	640	659
139	848	637
140	175	343
141	57	169
142	268	18
143	450	823
144	753	52
145	13	861
146	259	444
147	814	542
148	865	285
149	727	498
150	828	18
151	166	525
152	908	361
153	73	137
154	351	601
155	658	545
156	104	681
157	33	729
158	261	366
159	807	786
160	622	258
161	775	208
162	33	116
163	710	160
164	316	502
165	105	921
166	135	21
167	238	659
168	512	978
169	536	378
170	45	550
171	683	714
172	421	286
173	868	296
174	517	700
175	794	27
176	347	153
177	494	668
178	608	88
179	275	944
180	547	164
181	106	384
182	568	358
183	311	846
184	627	177
185	69	190
186	596	818
187	508	746
188	629	330
189	570	899
190	514	297
191	615	834
192	242	561
193	558	807
194	432	987
195	940	469
196	685	472
197	409	80
198	580	153
199	813	786
200	116	953
201	737	350
202	950	587
203	897	954
204	501	267
205	209	474
206	930	689
207	331	254
208	719	842
209	844	57
210	957	740
211	468	308
212	408	747
213	298	588
214	632	626
215	42	829
216	330	963
217	208	515
218	252	387
219	367	985
220	704	486
221	797	961
222	248	171
223	632	486
224	815	271
225	888	118
226	182	685
227	86	329
228	628	354
229	852	123
230	982	415
231	149	671
232	713	566
233	320	995
234	802	232
235	712	615
236	800	631
237	408	730
238	667	666
239	31	624
240	579	769
241	345	614
242	857	226
243	362	615
244	712	48
245	435	179
246	64	460
247	848	827
248	350	826
249	789	208
250	21	762
251	495	575
252	606	841
253	174	831
254	668	981
255	65	707
256	945	294
257	99	267
258	749	124
259	43	747
260	299	880
261	674	999
262	656	700
263	881	110
264	24	501
265	608	758
266	547	1
267	487	222
268	653	952
269	440	361
270	622	291
271	897	784
272	686	481
273	431	824
274	982	587
275	523	764
276	219	554
277	244	525
278	401	263
279	960	84
280	938	559
281	858	422
282	380	602
283	893	297
284	215	760
285	858	255
286	269	332
287	963	55
288	177	687
289	990	212
290	958	924
291	647	208
292	372	485
293	442	809
294	673	457
295	515	592
296	611	889
297	88	436
298	509	843
299	536	587
300	967	626
301	285	891
302	635	425
303	99	904
304	461	97
305	812	652
306	944	73
307	393	596
308	401	828
309	358	557
310	334	881
311	86	805
312	428	291
313	236	491
314	358	881
315	284	179
316	893	301
317	917	151
318	107	406
319	632	307
320	141	829
321	553	263
322	747	232
323	629	93
324	327	64
325	38	363
326	375	562
327	841	524
328	162	479
329	529	73
330	243	433
331	851	968
332	558	127
333	393	463
334	719	621
335	841	327
336	494	495
337	352	685
338	209	154
339	37	356
340	761	256
341	510	150
342	104	941
343	857	51
344	70	332
345	977	967
346	95	561
347	452	72
348	698	125
349	374	460
350	970	760
351	201	340
352	929	228
353	199	133
354	262	996
355	816	540
356	226	634
357	186	819
358	562	908
359	514	38
360	506	878
361	464	14
362	600	611
363	340	451
364	905	786
365	125	437
366	328	296
367	886	896
368	847	581
369	506	388
370	472	946
371	370	548
372	293	940
373	702	605
374	337	145
375	6	174
376	824	152
377	885	636
378	71	729
379	592	326
380	78	359
381	806	816
382	855	497
383	224	464
384	439	503
385	774	410
386	616	70
387	590	842
388	202	268
389	148	488
390	950	258
391	433	101
392	635	20
393	392	262
394	25	203
395	554	310
396	429	803
397	785	116
398	205	678
399	1	260
400	568	64
401	930	638
402	230	262
403	734	345
404	211	712
405	113	571
406	131	200
407	298	666
408	991	32
409	917	423
410	484	917
411	132	106
412	619	379
413	700	550
414	484	261
415	708	581
416	50	374
417	199	746
418	150	535
419	75	726
420	329	67
421	34	377
422	306	797
423	443	820
424	226	531
425	621	810
426	361	707
427	448	453
428	893	695
429	78	893
430	5	26
431	801	692
432	77	2
433	548	624
434	923	890
435	355	827
436	73	292
437	921	591
438	180	285
439	413	778
440	990	254
441	720	352
442	844	998
443	282	423
444	259	287
445	814	78
446	405	716
447	562	47
448	701	545
449	283	510
450	190	270
451	355	246
452	420	963
453	733	185
454	857	404
455	485	205
456	562	299
457	195	366
458	419	580
459	819	95
460	751	434
461	151	559
462	144	714
463	966	542
464	904	775
465	831	639
466	261	194
467	551	308
468	493	271
469	228	503
470	422	91
471	14	398
472	735	223
473	113	495
474	176	459
475	344	826
476	978	192
477	640	75
478	980	946
479	179	640
480	7	609
481	203	698
482	727	680
483	282	864
484	718	568
485	333	429
486	365	861
487	495	488
488	570	229
489	249	326
490	118	287
491	521	970
492	226	98
493	106	41
494	971	280
495	344	951
496	643	776
497	292	549
498	493	468
499	979	891
500	516	473
501	920	155
DEMAND_SECTION
1	0
2	8
3	1
4	8
5	7
6	3
7	7
8	9
9	8
10	3
11	9
12	9
13	6
14	2
15	8
16	8
17	1
18	1
19	8
20	6
21	7
22	5
23	2
24	4
25	2
26	6
27	4
28	7
29	3
30	6
31	7
32	3
33	8
34	2
35	1
36	5
37	1
38	5
39	4
40	6
41	1
42	2
43	8
44	2
45	3
46	4
47	7
48	2
49	6
50	6
51	4
52	7
53	7
54	5
55	9
56	2
57	7
58	1
59	9
60	2
61	2
62	8
63	5
64	4
65	7
66	7
67	9
68	7
69	9
70	6
71	2
72	8
73	7
74	8
75	2
76	1
77	5
78	4
79	4
80	5
81	7
82	1
83	8
84	3
85	1
86	7
87	5
88	3
89	4
90	4
91	4
92	2
93	3
94	2
95	5
96	7
97	9
98	9
99	6
100	3
101	8
102	8
103	8
104	5
105	1
106	6
107	3
108	1
109	9
110	3
111	8
112	1
113	7
114	4
115	4
116	6
117	1
118	7
119	1
120	9
121	9
122	6
123	8
124	5
125	5
126	5
127	7
128	4
129	4
130	5
131	7
132	9
133	5
134	2
135	6
136	7
137	3
138	5
139	5
140	3
141	9
142	4
143	8
144	9
145	2
146	5
147	1
148	6
149	2
150	1
151	6
152	1
153	5
154	2
155	3
156	8
157	2
158	3
159	4
160	7
161	6
162	9
163	5
164	7
165	8
166	7
167	3
168	4
169	9
170	2
171	2
172	6
173	7
174	1
175	9
176	4
177	5
178	2
179	7
180	1
181	4
182	8
183	5
184	5
185	4
186	1
187	2
188	6
189	8
190	9
191	1
192	5
193	2
194	1
195	9
196	6
197	7
198	4
199	2
200	2
201	2
202	3
203	7
204	5
205	3
206	2
207	6
208	3
209	4
210	3
211	4
212	2
213	4
214	9
215	3
216	3
217	6
218	5
219	4
220	7
221	1
222	1
223	7
224	8
225	2
226	5
227	2
228	2
229	4
230	7
231	1
232	1
233	8
234	2
235	6
236	1
237	1
238	3
239	9
240	1
241	7
242	9
243	6
244	1
245	5
246	4
247	3
248	6
249	6
250	9
251	3
252	7
253	2
254	1
255	5
256	1
257	4
258	6
259	5
260	5
261	1
262	5
263	3
264	2
265	3
266	5
267	7
268	2
269	3
270	2
271	4
272	7
273	7
274	9
275	6
276	2
277	5
278	3
279	4
280	3
281	6
282	5
283	7
284	7
285	8
286	1
287	8
288	4
289	1
290	6
291	5
292	2
293	5
294	2
295	4
296	1
297	8
298	1
299	4
300	8
301	3
302	2
303	3
304	9
305	2
306	1
307	3
308	1
309	6
310	4
311	4
312	7
313	6
314	5
315	3
316	1
317	2
318	6
319	3
320	9
321	9
322	9
323	3
324	7
325	2
326	5
327	5
328	3
329	3
330	9
331	2
332	2
333	4
334	8
335	6
336	2
337	9
338	7
339	3
340	6
341	7
342	7
343	9
344	4
345	8
346	2
347	5
348	5
349	9
350	2
351	3
352	9
353	2
354	4
355	5
356	1
357	6
358	9
359	7
360	2
361	8
362	4
363	8
364	5
365	7
366	8
367	7
368	8
369	4
370	2
371	1
372	6
373	6
374	1
375	8
376	2
377	7
378	5
379	8
380	7
381	4
382	6
383	2
384	6
385	1
386	4
387	1
388	2
389	2
390	9
391	7
392	1
393	8
394	1
395	1
396	4
397	5
398	8
399	8
400	2
401	6
402	3
403	2
404	9
405	9
406	7
407	1
408	9
409	3
410	4
411	1
412	4
413	2
414	5
415	1
416	3
417	7
418	4
419	5
420	6
421	7
422	4
423	5
424	1
425	7
426	2
427	4
428	1
429	6
430	2
431	7
432	2
433	4
434	8
435	7
436	7
437	9
438	7
439	4
440	9
441	2
442	9
443	1
444	4
445	1
446	8
447	5
448	4
449	1
450	1
451	4
452	4
453	5
454	7
455	3
456	9
457	2
458	4
459	4
460	6
461	8
462	1
463	8
464	7
465	8
466	9
467	2
468	9
469	9
470	2
471	6
472	3
473	5
474	9
475	9
476	5
477	5
478	7
479	5
480	2
481	5
482	5
483	9
484	9
485	9
486	9
487	3
488	9
489	6
490	4
491	7
492	4
493	7
494	7
495	5
496	9
497	5
498	3
499	9
500	5
501	9
TIME_WINDOW_SECTION
1	0	3000
2	585	1639
3	1256	1835
4	0	1469
5	650	2210
6	277	1780
7	355	1944
8	0	1785
9	408	1260
10	1385	1691
11	1043	2939
12	645	1712
13	736	2710
14	1497	2773
15	0	1091
16	1323	1879
17	458	861
18	528	2310
19	553	1713
20	1150	2841
21	990	2000
22	394	921
23	809	2357
24	1625	2530
25	899	2067
26	786	1694
27	408	1639
28	1726	2126
29	424	1693
30	1408	1795
31	831	1716
32	1000	2152
33	423	1543
34	993	2189
35	1060	1399
36	356	2027
37	644	1022
38	1762	2143
39	1379	1662
40	1179	2560
41	345	2282
42	605	2478
43	1330	2246
44	984	1977
45	389	1765
46	1381	1924
47	1361	3000
48	1074	1696
49	0	1227
50	636	2251
51	952	1197
52	0	919
53	1029	2271
54	644	2337
55	1257	1659
56	1701	3000
57	532	1991
58	1815	2286
59	657	1943
60	780	1965
61	605	1739
62	659	869
63	1047	1284
64	1347	2363
65	905	1220
66	1749	2417
67	861	1323
68	941	1867
69	2325	3000
70	530	1699
71	487	1916
72	867	1259
73	1623	1915
74	0	402
75	820	1900
76	1263	1500
77	881	2467
78	1307	2803
79	644	1919
80	1768	2011
81	837	2152
82	1348	3000
83	1468	2824
84	186	1412
85	1158	1935
86	927	2526
87	214	1584
88	86	1753
89	398	1528
90	1202	1534
91	1054	1457
92	0	1388
93	1002	2101
94	687	1858
95	1117	2043
96	738	966
97	963	1912
98	1387	2322
99	744	1229
100	455	1883
101	325	1582
102	24	1924
103	1131	2815
104	936	2198
105	514	1071
106	99	590
107	495	1144
108	0	1414
109	825	2360
110	0	1395
111	162	1925
112	0	1218
113	589	1286
114	691	1017
115	356	1484
116	1598	2186
117	0	1035
118	1558	2432
119	1115	2214
120	1641	2699
121	1498	2156
122	843	1602
123	601	2043
124	726	1188
125	737	2278
126	1240	2243
127	721	1724
128	1172	2629
129	334	1580
130	732	2671
131	813	1285
132	1058	2093
133	1834	2117
134	410	1295
135	492	1570
136	795	1174
137	1291	2845
138	142	2022
139	0	970
140	1303	2414
141	682	1488
142	500	2258
143	859	1582
144	713	1983
145	1339	2163
146	1244	2107
147	1676	2493
148	2	1261
149	0	1729
150	0	1907
151	1004	1781
152	1574	3000
153	884	2485
154	1322	2259
155	1093	2208
156	561	2494
157	738	1805
158	632	1728
159	2249	2689
160	1824	2615
161	331	2034
162	741	1381
163	1609	2953
164	477	1278
165	1173	1499
166	202	2169
167	766	2136
168	1573	2950
169	1067	1435
170	927	1410
171	96	1763
172	0	1671
173	1043	1606
174	1465	2446
175	751	2628
176	1410	1784
177	1860	2677
178	1353	2605
179	1304	2090
180	1976	2388
181	578	1800
182	1065	1582
183	935	2469
184	208	942
185	1424	1952
186	637	898
187	1091	2050
188	672	1455
189	612	2327
190	0	1309
191	575	1693
192	0	1660
193	248	609
194	709	2319
195	2220	2784
196	433	1923
197	1721	1988
198	1293	2687
199	0	1350
200	1077	2658
201	0	908
202	0	1562
203	674	1953
204	1487	2563
205	1123	2824
206	935	1838
207	1458	2129
208	622	2066
209	1049	2303
210	361	1697
211	0	1526
212	1975	2569
213	976	2389
214	720	1208
215	1092	2220
216	884	1565
217	837	1653
218	1523	1799
219	806	1423
220	1786	2458
221	295	808
222	1066	2925
223	927	2722
224	0	1641
225	0	1574
226	249	1482
227	592	1194
228	1628	2775
229	1375	1623
230	1032	2269
231	210	1508
232	368	712
233	938	1931
234	878	2037
235	1414	3000
236	515	1662
237	1230	2242
238	1053	1993
239	582	2329
240	1052	2608
241	397	1578
242	1405	2309
243	46	1547
244	1629	2595
245	243	1203
246	496	2385
247	75	1113
248	1167	2160
249	1014	2381
250	1563	1993
251	0	1714
252	761	1950
253	782	1035
254	1318	2166
255	803	2712
256	1714	3000
257	341	1577
258	1246	2950
259	797	1114
260	183	1240
261	110	909
262	2030	2615
263	100	1879
264	322	2282
265	167	1764
266	679	1689
267	1061	2219
268	274	2055
269	1381	1719
270	1458	3000
271	36	735
272	1551	2280
273	255	1142
274	1517	2731
275	54	1666
276	1025	2243
277	951	1973
278	955	1937
279	1547	1859
280	475	1952
281	2080	2683
282	690	1011
283	821	1532
284	1361	2412
285	303	1745
286	1457	2663
287	1196	3000
288	829	2436
289	535	1880
290	968	2732
291	974	2411
292	1445	2835
293	1680	2008
294	1647	2285
295	950	2092
296	440	1647
297	548	1437
298	73	868
299	538	1117
300	1522	2472
301	1387	2751
302	1147	3000
303	565	1219
304	320	1433
305	1664	2077
306	1089	2728
307	1275	1606
308	1372	2676
309	492	1911
310	1387	1588
311	777	1810
312	0	1374
313	892	1812
314	813	1306
315	855	2015
316	206	688
317	1247	2259
318	1290	2573
319	1214	2785
320	668	1265
321	492	1471
322	790	2106
323	1486	2904
324	714	2047
325	914	1544
326	707	2293
327	797	2145
328	550	1857
329	856	1243
330	1467	2414
331	1130	3000
332	995	2263
333	0	1852
334	0	883
335	590	1170
336	1870	2388
337	221	1105
338	1606	1906
339	1126	1433
340	0	1307
341	1039	1400
342	1232	2371
343	500	2204
344	530	2193
345	116	1133
346	30	1735
347	733	1288
348	0	1954
349	0	1420
350	99	984
351	738	2684
352	0	1444
353	493	1939
354	678	2038
355	1030	2367
356	1537	2604
357	746	1830
358	1901	2561
359	722	2499
360	773	1910
361	1270	2700
362	0	1409
363	0	1627
364	1073	1817
365	1516	2355
366	826	1834
367	1297	1548
368	406	1831
369	32	1264
370	2029	2440
371	859	1602
372	693	1397
373	449	2299
374	1203	1789
375	1549	1972
376	868	2204
377	697	2634
378	1053	2552
379	1182	2326
380	208	2109
381	1738	2361
382	1216	2445
383	1137	1339
384	1174	2137
385	0	700
386	343	1098
387	824	2720
388	555	1120
389	1290	2254
390	1983	2760
391	1639	2201
392	1880	2243
393	291	1636
394	917	1965
395	653	1430
396	456	1349
397	1543	2382
398	1012	2507
399	190	2004
400	1069	1813
401	426	2243
402	563	1190
403	1246	1634
404	908	2306
405	1300	1634
406	330	1484
407	1211	2800
408	685	950
409	461	1056
410	1499	1796
411	1010	2438
412	1314	2272
413	1891	2097
414	1133	2468
415	0	1339
416	281	2070
417	865	1725
418	1683	2317
419	1108	1745
420	920	1654
421	881	2752
422	1648	2548
423	13	1265
424	763	1017
425	1262	3000
426	1400	2234
427	374	1369
428	0	1428
429	964	1865
430	667	2233
431	1981	2770
432	1018	2403
433	0	1678
434	0	675
435	1025	2093
436	1164	1380
437	1305	3000
438	680	2276
439	1281	1819
440	529	1661
441	48	981
442	1519	2344
443	0	1731
444	402	1589
445	604	1832
446	1111	2501
447	524	2044
448	2314	2725
449	1072	1671
450	655	2488
451	819	1901
452	1542	2330
453	1599	2368
454	1342	2399
455	262	1777
456	382	1930
457	612	1462
458	933	1696
459	504	1488
460	1589	2283
461	372	2212
462	1139	1816
463	946	2647
464	0	1457
465	1876	3000
466	1256	2606
467	274	1598
468	479	1520
469	0	1865
470	1239	1839
471	320	1783
472	0	1235
473	0	1758
474	1683	1885
475	542	1439
476	352	1257
477	446	2112
478	165	1055
479	798	1610
480	504	1556
481	508	1023
482	1878	2684
483	620	2346
484	2022	2569
485	1054	1896
486	740	1750
487	1167	2813
488	1194	1611
489	1184	2650
490	1709	2137
491	1948	2289
492	850	2566
493	804	1268
494	1713	1958
495	1673	2009
496	1059	1628
497	1539	2442
498	1493	2583
499	1273	1765
500	1402	3000
501	1664	1895
BACKHAUL_SECTION
4	11	21	24	27	32	38	43	51	57	61	68	76	77	83	84	101	103	115	119	120	123	132	133	136	145	152	167	169	172	173	182	183	186	188	191	204	210	211	212	216	218	237	241	245	255	258	264	265	267	279	281	283	295	296	297	299	301	308	312	313	320	325	328	337	338	350	371	382	385	390	394	400	413	415	425	432	436	442	450	451	452	458	459	466	471	473	476	477	478	482	484	485	486	490	491	492	495	497	498	-1
DEPOT_SECTION
1
-1
EOF
