NAME : n501-0008
COMMENT : "Generated by pyvrp_manuel (VRPBLTW)"
TYPE : VRPBLTW
DIMENSION : 501
EDGE_WEIGHT_TYPE : EUC_2D
CAPACITY : 100
VEHICLES : 500
DISTANCE : 3000
SERVICE_TIME : 200
NODE_COORD_SECTION
1	722	457
2	623	485
3	292	593
4	110	72
5	508	287
6	959	866
7	281	285
8	6	853
9	736	742
10	481	707
11	84	83
12	269	734
13	44	859
14	924	955
15	562	950
16	288	214
17	270	265
18	863	614
19	545	590
20	78	212
21	203	941
22	510	83
23	220	528
24	632	604
25	89	41
26	950	730
27	864	166
28	920	715
29	898	257
30	886	832
31	19	121
32	83	922
33	179	946
34	502	146
35	754	451
36	85	157
37	980	153
38	780	961
39	413	699
40	951	653
41	279	369
42	409	372
43	65	165
44	234	185
45	738	325
46	656	70
47	556	393
48	970	827
49	300	147
50	415	463
51	61	376
52	265	396
53	856	786
54	247	537
55	839	445
56	353	929
57	418	449
58	847	735
59	931	938
60	607	576
61	888	661
62	900	395
63	465	465
64	75	339
65	859	137
66	818	638
67	973	57
68	140	513
69	972	813
70	509	479
71	507	768
72	20	310
73	182	786
74	442	980
75	470	4
76	357	932
77	361	549
78	651	685
79	870	5
80	577	449
81	237	537
82	349	196
83	552	468
84	386	651
85	722	406
86	769	56
87	721	886
88	253	182
89	350	169
90	434	962
91	81	632
92	204	874
93	883	844
94	680	944
95	932	508
96	169	713
97	938	1000
98	903	433
99	887	506
100	662	507
101	178	891
102	528	300
103	663	205
104	659	153
105	421	834
106	397	936
107	321	479
108	383	300
109	680	574
110	126	11
111	607	27
112	38	562
113	892	498
114	713	866
115	292	974
116	955	497
117	234	715
118	83	85
119	519	865
120	671	371
121	824	695
122	423	996
123	811	928
124	247	662
125	48	907
126	268	442
127	19	384
128	904	516
129	753	774
130	516	773
131	596	688
132	910	666
133	560	206
134	90	40
135	3	236
136	420	463
137	341	989
138	156	703
139	822	918
140	578	467
141	106	291
142	999	29
143	303	681
144	729	884
145	542	643
146	9	697
147	867	109
148	527	824
149	849	463
150	466	644
151	18	205
152	745	346
153	645	237
154	783	449
155	778	951
156	607	279
157	737	247
158	473	993
159	276	697
160	419	764
161	108	635
162	676	438
163	372	988
164	279	120
165	512	355
166	294	909
167	875	140
168	870	787
169	448	569
170	414	747
171	324	556
172	523	228
173	288	120
174	939	936
175	890	792
176	312	525
177	818	950
178	552	587
179	948	434
180	688	562
181	348	612
182	143	812
183	58	665
184	464	307
185	640	820
186	152	139
187	47	59
188	317	504
189	229	417
190	43	469
191	904	409
192	832	533
193	432	402
194	947	360
195	807	146
196	309	743
197	540	774
198	274	86
199	844	89
200	114	324
201	119	660
202	448	518
203	996	200
204	492	169
205	489	604
206	995	346
207	957	548
208	633	277
209	141	993
210	747	226
211	348	190
212	35	659
213	326	415
214	209	208
215	10	138
216	497	966
217	241	679
218	298	879
219	914	406
220	202	738
221	711	794
222	223	875
223	68	893
224	881	915
225	67	924
226	126	113
227	452	751
228	605	71
229	400	312
230	515	862
231	146	162
232	442	195
233	389	685
234	833	112
235	298	568
236	759	996
237	455	107
238	850	727
239	774	328
240	234	691
241	180	983
242	876	66
243	253	655
244	574	443
245	666	739
246	682	958
247	598	835
248	257	502
249	361	992
250	646	566
251	905	928
252	729	90
253	694	61
254	910	367
255	799	161
256	841	997
257	921	377
258	863	920
259	674	859
260	972	885
261	767	236
262	442	140
263	176	705
264	690	485
265	68	278
266	273	777
267	823	484
268	851	656
269	803	261
270	497	121
271	232	874
272	333	705
273	197	201
274	842	44
275	98	107
276	577	987
277	452	191
278	87	71
279	184	927
280	953	952
281	827	340
282	519	267
283	512	467
284	727	747
285	759	815
286	826	152
287	680	591
288	497	435
289	220	911
290	818	26
291	130	83
292	487	688
293	940	605
294	775	714
295	912	708
296	531	940
297	223	409
298	598	824
299	544	787
300	282	820
301	898	993
302	83	653
303	881	701
304	956	30
305	965	657
306	483	805
307	903	483
308	992	497
309	270	356
310	536	927
311	92	988
312	335	575
313	721	760
314	556	456
315	981	707
316	824	609
317	779	253
318	716	170
319	303	878
320	606	437
321	402	88
322	545	635
323	788	213
324	982	164
325	409	809
326	819	143
327	45	49
328	109	112
329	216	983
330	356	113
331	473	96
332	13	41
333	400	663
334	675	267
335	540	577
336	858	954
337	913	866
338	284	112
339	126	814
340	41	347
341	556	20
342	525	979
343	375	31
344	989	750
345	892	202
346	797	27
347	653	781
348	115	246
349	432	840
350	287	655
351	639	63
352	746	601
353	12	291
354	93	281
355	51	830
356	506	906
357	385	927
358	582	305
359	12	393
360	720	130
361	563	295
362	929	554
363	220	154
364	611	446
365	262	651
366	130	75
367	417	33
368	701	391
369	555	585
370	478	677
371	964	399
372	258	960
373	525	80
374	271	517
375	3	96
376	108	218
377	774	256
378	211	341
379	862	2
380	952	764
381	571	917
382	445	988
383	335	592
384	663	501
385	719	505
386	535	684
387	335	310
388	797	572
389	3	342
390	901	198
391	927	644
392	784	120
393	837	830
394	458	261
395	547	819
396	857	815
397	114	509
398	759	1000
399	773	938
400	616	316
401	118	576
402	78	821
403	951	193
404	380	75
405	135	889
406	337	916
407	458	817
408	783	489
409	798	212
410	812	710
411	32	449
412	953	153
413	885	764
414	434	276
415	133	351
416	210	497
417	35	178
418	910	680
419	515	864
420	651	913
421	123	419
422	491	905
423	351	951
424	608	222
425	399	656
426	568	364
427	766	316
428	999	619
429	807	767
430	455	166
431	648	336
432	519	688
433	690	507
434	150	620
435	750	793
436	743	441
437	964	221
438	62	662
439	932	528
440	809	263
441	558	100
442	960	206
443	742	844
444	729	712
445	284	414
446	53	23
447	762	42
448	387	229
449	547	245
450	203	259
451	164	372
452	790	483
453	559	816
454	99	785
455	884	866
456	91	252
457	696	8
458	907	319
459	827	362
460	831	251
461	262	975
462	194	789
463	17	609
464	365	778
465	164	324
466	113	41
467	71	703
468	252	42
469	392	245
470	686	802
471	460	764
472	775	411
473	630	902
474	837	57
475	145	93
476	796	867
477	668	7
478	650	305
479	954	76
480	195	537
481	991	528
482	109	951
483	561	582
484	640	844
485	645	252
486	70	337
487	166	250
488	393	585
489	54	306
490	332	124
491	649	507
492	468	302
493	175	480
494	174	325
495	28	733
496	51	333
497	299	826
498	341	249
499	667	179
500	833	828
501	591	387
DEMAND_SECTION
1	0
2	9
3	4
4	2
5	8
6	3
7	2
8	4
9	8
10	9
11	1
12	6
13	9
14	1
15	7
16	8
17	8
18	4
19	7
20	3
21	5
22	6
23	5
24	9
25	3
26	5
27	2
28	3
29	5
30	3
31	1
32	5
33	7
34	2
35	2
36	5
37	3
38	3
39	2
40	2
41	2
42	5
43	4
44	6
45	7
46	3
47	9
48	7
49	5
50	8
51	5
52	6
53	3
54	4
55	9
56	1
57	2
58	5
59	4
60	7
61	8
62	8
63	5
64	9
65	4
66	3
67	5
68	3
69	4
70	9
71	9
72	3
73	5
74	5
75	4
76	2
77	1
78	6
79	3
80	3
81	4
82	3
83	6
84	1
85	1
86	8
87	2
88	3
89	2
90	2
91	3
92	2
93	7
94	3
95	6
96	7
97	3
98	9
99	1
100	3
101	7
102	6
103	5
104	6
105	3
106	4
107	6
108	2
109	4
110	6
111	5
112	5
113	8
114	2
115	7
116	6
117	5
118	3
119	6
120	2
121	2
122	1
123	8
124	6
125	1
126	2
127	6
128	6
129	6
130	2
131	5
132	9
133	2
134	9
135	7
136	6
137	3
138	5
139	4
140	2
141	8
142	6
143	7
144	6
145	1
146	5
147	6
148	6
149	2
150	3
151	2
152	9
153	6
154	7
155	7
156	4
157	8
158	1
159	8
160	3
161	8
162	7
163	2
164	9
165	5
166	3
167	3
168	5
169	9
170	6
171	5
172	9
173	9
174	8
175	8
176	6
177	7
178	4
179	7
180	6
181	4
182	8
183	1
184	1
185	9
186	1
187	7
188	8
189	5
190	3
191	9
192	5
193	2
194	2
195	6
196	8
197	4
198	7
199	4
200	6
201	2
202	2
203	9
204	4
205	3
206	2
207	4
208	1
209	3
210	1
211	1
212	2
213	1
214	4
215	7
216	5
217	8
218	5
219	3
220	9
221	2
222	2
223	5
224	4
225	2
226	8
227	2
228	1
229	8
230	4
231	5
232	3
233	6
234	1
235	4
236	1
237	9
238	4
239	5
240	1
241	1
242	9
243	3
244	5
245	9
246	4
247	5
248	4
249	2
250	1
251	3
252	8
253	6
254	6
255	6
256	2
257	8
258	6
259	2
260	9
261	2
262	4
263	6
264	9
265	6
266	9
267	8
268	8
269	1
270	1
271	5
272	4
273	5
274	6
275	8
276	3
277	3
278	3
279	5
280	7
281	7
282	5
283	2
284	2
285	7
286	9
287	9
288	1
289	3
290	5
291	1
292	7
293	9
294	5
295	7
296	5
297	4
298	1
299	1
300	1
301	2
302	3
303	5
304	1
305	2
306	7
307	8
308	1
309	5
310	9
311	6
312	8
313	6
314	2
315	8
316	6
317	1
318	1
319	4
320	2
321	8
322	6
323	6
324	9
325	1
326	7
327	6
328	1
329	2
330	4
331	4
332	8
333	4
334	3
335	2
336	3
337	7
338	3
339	4
340	4
341	8
342	9
343	2
344	7
345	4
346	8
347	4
348	7
349	2
350	1
351	6
352	4
353	6
354	5
355	4
356	5
357	2
358	8
359	2
360	4
361	5
362	6
363	9
364	3
365	5
366	3
367	4
368	6
369	5
370	3
371	6
372	7
373	5
374	6
375	5
376	9
377	2
378	3
379	4
380	3
381	5
382	9
383	7
384	6
385	3
386	1
387	4
388	9
389	2
390	2
391	2
392	1
393	1
394	1
395	5
396	5
397	9
398	6
399	3
400	4
401	8
402	9
403	9
404	5
405	1
406	7
407	3
408	2
409	8
410	7
411	8
412	1
413	7
414	3
415	2
416	9
417	8
418	2
419	6
420	6
421	3
422	7
423	4
424	6
425	1
426	7
427	4
428	8
429	9
430	8
431	4
432	6
433	7
434	4
435	8
436	5
437	3
438	6
439	8
440	3
441	6
442	6
443	4
444	8
445	2
446	4
447	5
448	9
449	4
450	6
451	8
452	5
453	1
454	7
455	2
456	2
457	1
458	1
459	3
460	1
461	8
462	8
463	2
464	4
465	2
466	6
467	3
468	3
469	9
470	1
471	1
472	9
473	2
474	4
475	9
476	3
477	2
478	1
479	6
480	5
481	9
482	4
483	6
484	3
485	4
486	8
487	1
488	2
489	4
490	8
491	8
492	9
493	1
494	2
495	6
496	6
497	9
498	1
499	3
500	7
501	5
TIME_WINDOW_SECTION
1	0	3000
2	610	2203
3	729	1883
4	1174	2415
5	1982	2254
6	1875	2602
7	849	1483
8	1345	2494
9	245	799
10	0	1066
11	171	1504
12	318	1033
13	1259	1700
14	1049	1734
15	770	1263
16	336	1851
17	662	2497
18	417	1841
19	0	644
20	0	1512
21	829	2664
22	713	2339
23	134	1716
24	1605	2304
25	329	1951
26	641	2543
27	1043	2713
28	872	2117
29	0	900
30	0	1502
31	723	1566
32	200	1768
33	1522	2134
34	719	1516
35	1380	3000
36	1379	2441
37	850	1912
38	671	1654
39	51	841
40	399	950
41	1635	2574
42	1489	1944
43	221	1291
44	701	2211
45	1680	3000
46	2142	2490
47	918	1654
48	830	1622
49	1139	2987
50	1891	2843
51	788	2095
52	1568	2902
53	810	1294
54	1401	2200
55	271	1666
56	1269	1716
57	400	1793
58	489	2388
59	1077	1727
60	1949	2338
61	94	1223
62	0	1788
63	639	2250
64	1956	2243
65	295	1073
66	1135	1861
67	1023	2396
68	1340	2405
69	1276	2564
70	0	1040
71	1206	1682
72	1050	1880
73	211	1891
74	1206	3000
75	1202	1534
76	525	2077
77	1618	3000
78	251	1008
79	890	1984
80	0	940
81	825	2043
82	326	1375
83	1155	1937
84	1526	2879
85	17	1664
86	168	1599
87	1083	2656
88	758	1222
89	9	1427
90	1007	1863
91	35	1563
92	21	1673
93	1541	2213
94	1342	3000
95	558	1186
96	595	1726
97	82	1285
98	1219	1867
99	18	1804
100	952	1911
101	1921	2273
102	1475	2224
103	825	2165
104	116	1052
105	1293	1991
106	1595	2446
107	689	1854
108	1488	2029
109	1824	2471
110	1015	2646
111	246	1372
112	386	1084
113	663	2076
114	828	1506
115	820	1413
116	1054	2846
117	630	2148
118	995	2790
119	1041	2187
120	0	1022
121	799	1397
122	1279	2329
123	1264	1882
124	295	1656
125	671	2026
126	495	1916
127	1178	1696
128	138	1890
129	231	2015
130	1323	1757
131	1646	2966
132	1157	1578
133	1655	2784
134	649	2180
135	1073	1539
136	0	1149
137	711	1754
138	1364	1892
139	783	1740
140	0	646
141	1466	1690
142	402	1906
143	0	1630
144	922	1421
145	1248	2235
146	662	1456
147	1651	2291
148	1114	1488
149	394	1455
150	1484	3000
151	759	2558
152	1524	3000
153	374	1560
154	0	1144
155	895	1611
156	1975	3000
157	117	1461
158	1225	1631
159	2001	2547
160	407	2041
161	1451	2512
162	511	1801
163	404	1496
164	1291	2819
165	2228	2534
166	708	2237
167	0	1461
168	743	1250
169	0	1192
170	487	1985
171	1241	3000
172	0	1417
173	1640	2813
174	402	2017
175	2027	2437
176	1357	2914
177	713	2334
178	0	938
179	700	2535
180	956	2009
181	265	1407
182	1007	2775
183	688	1245
184	1063	2067
185	2213	2498
186	1599	2615
187	1110	2318
188	1277	2808
189	722	2106
190	915	2652
191	340	594
192	2465	2734
193	926	2841
194	689	1702
195	872	1966
196	915	2121
197	991	2881
198	483	1835
199	1079	2786
200	1875	2116
201	531	2321
202	739	1561
203	1836	2866
204	1976	2378
205	148	1783
206	136	1269
207	606	2267
208	446	2328
209	91	2016
210	1761	2973
211	940	2746
212	479	2469
213	1742	2934
214	1651	1900
215	647	2286
216	1941	2287
217	1589	2444
218	153	1156
219	817	2492
220	0	1899
221	97	1879
222	938	2518
223	897	1864
224	726	1894
225	1326	2155
226	318	1196
227	963	2417
228	1957	2511
229	2199	2401
230	333	1591
231	0	1650
232	94	1877
233	1969	2326
234	2151	2476
235	1407	2536
236	797	2647
237	0	1430
238	1404	2232
239	0	1017
240	643	1651
241	885	2530
242	0	1502
243	57	1903
244	0	908
245	1743	3000
246	217	1989
247	71	2023
248	696	2277
249	504	1950
250	1537	3000
251	1121	2570
252	0	1088
253	569	1971
254	1085	1570
255	1261	3000
256	1738	2753
257	0	1248
258	1970	2599
259	1417	3000
260	596	1364
261	1072	2992
262	519	1047
263	696	1911
264	793	2546
265	793	2159
266	1722	2128
267	223	540
268	1394	1756
269	220	2152
270	2062	2529
271	1941	2199
272	1357	1937
273	1607	2732
274	961	1355
275	47	1869
276	0	1393
277	277	1714
278	858	2231
279	1390	2724
280	965	1622
281	1644	2308
282	1069	1654
283	0	1245
284	540	1278
285	0	1220
286	0	1658
287	2334	2927
288	327	1701
289	911	1523
290	1514	2940
291	513	2063
292	372	1922
293	308	1264
294	1549	2129
295	0	1332
296	611	1801
297	1578	2742
298	207	724
299	560	1822
300	0	1333
301	1029	2528
302	171	1304
303	525	2327
304	755	1130
305	1765	2710
306	1373	1979
307	71	328
308	440	1977
309	1713	2747
310	186	1531
311	907	2108
312	785	1508
313	0	1727
314	0	1126
315	2100	2507
316	1112	1334
317	1043	2725
318	1435	3000
319	909	2567
320	2315	2671
321	1432	2535
322	1400	2607
323	988	2197
324	473	2446
325	1763	2667
326	1464	3000
327	575	2488
328	479	2220
329	0	1637
330	1178	1865
331	28	877
332	875	1233
333	725	1298
334	1340	2995
335	835	2306
336	399	994
337	1579	1853
338	419	1122
339	1278	2307
340	925	1850
341	894	1677
342	427	1077
343	214	1079
344	666	1187
345	0	1473
346	592	1732
347	1517	2715
348	1435	1976
349	1789	2341
350	969	1421
351	1004	2200
352	375	1695
353	198	2093
354	741	2356
355	265	2097
356	636	1469
357	189	1839
358	657	2240
359	0	1794
360	1260	1689
361	797	1185
362	1206	1448
363	1364	1713
364	1873	2670
365	327	1408
366	1206	2576
367	1749	2357
368	2076	3000
369	1304	2192
370	0	1908
371	454	768
372	1208	1583
373	95	2007
374	1045	1745
375	0	1951
376	602	2594
377	38	904
378	986	2981
379	1199	2214
380	1569	1962
381	0	1617
382	642	1994
383	0	1248
384	1113	2563
385	99	305
386	1011	1804
387	1458	2438
388	872	1613
389	126	1811
390	1597	2719
391	1476	2444
392	1263	2902
393	444	2283
394	267	1018
395	1170	1536
396	454	1334
397	1232	1564
398	890	2661
399	1660	2298
400	638	2199
401	916	1291
402	234	2200
403	144	1538
404	1376	3000
405	500	1594
406	1360	2205
407	0	1033
408	337	1115
409	432	2341
410	626	2178
411	1100	1478
412	1613	2957
413	0	1361
414	1900	2182
415	1211	3000
416	1545	1859
417	1198	2087
418	0	953
419	277	1990
420	977	1944
421	1472	1729
422	651	2140
423	265	1984
424	469	734
425	0	1212
426	75	2025
427	315	1285
428	1797	2688
429	0	1201
430	846	1508
431	1749	2294
432	1656	2919
433	183	773
434	1068	3000
435	1577	2467
436	653	1239
437	1046	2719
438	763	1142
439	4	1879
440	817	2035
441	1422	1726
442	1824	2222
443	1967	2168
444	992	1307
445	27	1604
446	699	1881
447	1661	1982
448	268	2111
449	0	1363
450	994	1894
451	780	991
452	269	709
453	1405	1832
454	534	2341
455	1720	2151
456	672	1878
457	87	1876
458	0	1259
459	1022	1435
460	1110	1689
461	0	1524
462	583	2571
463	540	2024
464	333	1313
465	0	1771
466	1177	2210
467	0	1573
468	953	1868
469	1023	2004
470	0	1549
471	1364	2177
472	768	2500
473	1053	2119
474	998	1360
475	757	2509
476	1337	2904
477	336	999
478	1975	2864
479	757	2642
480	908	2157
481	1260	2636
482	913	1239
483	457	715
484	780	2506
485	987	1878
486	768	1159
487	178	1391
488	516	2269
489	1662	2285
490	0	1233
491	605	1145
492	397	793
493	867	1749
494	994	1754
495	680	1699
496	1707	2121
497	726	1378
498	1077	2319
499	318	2108
500	1197	2020
501	779	2352
BACKHAUL_SECTION
4	11	21	24	27	32	38	43	51	57	61	68	76	77	83	84	101	103	115	119	120	123	132	133	136	145	152	167	169	172	173	182	183	186	188	191	204	210	211	212	216	218	237	241	245	255	258	264	265	267	279	281	283	295	296	297	299	301	308	312	313	320	325	328	337	338	350	371	382	385	390	394	400	413	415	425	432	436	442	450	451	452	458	459	466	471	473	476	477	478	482	484	485	486	490	491	492	495	497	498	-1
DEPOT_SECTION
1
-1
EOF
