NAME : n501-0046
COMMENT : "Generated by pyvrp_manuel (VRPBLTW)"
TYPE : VRPBLTW
DIMENSION : 501
EDGE_WEIGHT_TYPE : EUC_2D
CAPACITY : 100
VEHICLES : 500
DISTANCE : 3000
SERVICE_TIME : 200
NODE_COORD_SECTION
1	826	571
2	278	669
3	302	856
4	475	724
5	824	750
6	471	619
7	739	305
8	502	623
9	565	383
10	138	64
11	914	103
12	670	826
13	920	183
14	491	986
15	77	901
16	856	72
17	548	239
18	345	673
19	238	193
20	582	493
21	279	852
22	739	857
23	322	154
24	776	875
25	968	409
26	448	445
27	151	273
28	912	48
29	299	867
30	4	164
31	723	452
32	775	585
33	569	805
34	705	811
35	816	97
36	631	203
37	443	122
38	804	566
39	695	817
40	661	608
41	702	732
42	386	902
43	453	90
44	65	309
45	189	743
46	241	315
47	359	492
48	50	796
49	77	184
50	299	329
51	329	5
52	803	12
53	768	859
54	530	396
55	731	623
56	663	413
57	94	556
58	574	81
59	568	554
60	352	81
61	118	25
62	594	326
63	315	49
64	309	233
65	557	747
66	652	539
67	891	201
68	579	471
69	901	26
70	755	3
71	326	57
72	11	902
73	834	860
74	223	407
75	485	254
76	384	94
77	782	451
78	89	978
79	754	688
80	318	135
81	877	903
82	229	542
83	749	702
84	607	156
85	445	816
86	288	50
87	969	680
88	410	228
89	535	271
90	741	427
91	834	834
92	760	906
93	477	116
94	583	103
95	481	674
96	848	777
97	613	897
98	677	335
99	394	293
100	893	937
101	723	898
102	956	878
103	724	596
104	780	445
105	390	896
106	393	744
107	865	167
108	450	649
109	823	480
110	439	732
111	95	639
112	552	215
113	724	942
114	400	976
115	239	360
116	541	934
117	82	543
118	52	904
119	769	454
120	787	780
121	883	931
122	697	489
123	51	905
124	272	727
125	532	594
126	870	651
127	671	230
128	442	25
129	420	312
130	4	443
131	419	390
132	828	138
133	301	52
134	301	849
135	970	438
136	770	838
137	256	779
138	815	667
139	918	90
140	224	874
141	991	403
142	648	738
143	440	31
144	904	521
145	723	796
146	515	823
147	365	998
148	247	681
149	419	864
150	313	753
151	673	60
152	122	916
153	165	317
154	724	697
155	412	846
156	987	607
157	549	925
158	107	796
159	381	702
160	289	862
161	559	817
162	702	804
163	404	737
164	413	577
165	969	584
166	686	810
167	736	731
168	1	19
169	429	361
170	584	800
171	184	883
172	275	985
173	444	942
174	385	784
175	899	100
176	758	650
177	352	434
178	628	824
179	317	674
180	993	228
181	536	427
182	126	17
183	311	432
184	474	969
185	147	300
186	443	26
187	621	171
188	950	62
189	433	748
190	19	995
191	607	93
192	447	823
193	924	79
194	179	843
195	350	789
196	439	409
197	12	589
198	660	30
199	651	414
200	882	985
201	905	444
202	725	252
203	686	113
204	984	891
205	709	28
206	936	207
207	159	247
208	537	262
209	262	560
210	841	619
211	45	714
212	315	127
213	690	853
214	371	670
215	642	322
216	272	14
217	811	473
218	611	886
219	124	865
220	841	553
221	944	235
222	340	376
223	993	961
224	829	227
225	896	367
226	828	97
227	135	565
228	967	541
229	485	276
230	831	288
231	239	597
232	348	861
233	523	290
234	169	683
235	823	999
236	139	477
237	997	865
238	361	51
239	835	604
240	153	162
241	187	292
242	211	959
243	887	390
244	548	295
245	505	981
246	414	536
247	956	241
248	165	502
249	95	37
250	79	338
251	429	335
252	577	703
253	991	850
254	161	778
255	981	575
256	602	460
257	333	645
258	499	10
259	690	404
260	53	102
261	211	449
262	771	391
263	533	292
264	321	437
265	399	179
266	857	854
267	596	315
268	98	779
269	688	915
270	96	761
271	720	126
272	103	774
273	265	107
274	136	383
275	850	600
276	89	11
277	445	244
278	724	368
279	832	305
280	742	661
281	641	962
282	692	672
283	701	3
284	351	503
285	377	223
286	201	135
287	22	297
288	145	773
289	265	401
290	744	408
291	408	182
292	716	289
293	726	699
294	399	199
295	586	230
296	897	683
297	660	697
298	589	799
299	394	69
300	639	112
301	222	677
302	361	39
303	138	388
304	452	644
305	833	132
306	789	879
307	11	44
308	692	248
309	846	336
310	347	448
311	686	67
312	137	832
313	483	802
314	890	194
315	261	172
316	638	728
317	249	704
318	704	312
319	980	269
320	867	113
321	113	556
322	956	869
323	886	622
324	365	348
325	493	545
326	171	951
327	983	943
328	394	950
329	490	736
330	827	494
331	553	915
332	470	679
333	331	441
334	748	592
335	329	404
336	21	969
337	554	337
338	151	338
339	972	778
340	582	37
341	992	307
342	431	899
343	393	198
344	795	295
345	732	869
346	956	313
347	462	858
348	846	224
349	775	736
350	403	240
351	280	16
352	172	119
353	187	197
354	752	200
355	254	453
356	122	38
357	811	904
358	481	39
359	360	869
360	203	728
361	152	347
362	51	792
363	128	783
364	623	967
365	484	309
366	57	676
367	24	346
368	956	890
369	612	723
370	318	770
371	757	331
372	723	914
373	435	55
374	967	205
375	811	803
376	78	675
377	289	564
378	450	161
379	62	906
380	610	236
381	317	585
382	329	944
383	611	537
384	65	576
385	820	671
386	78	884
387	600	638
388	457	883
389	525	572
390	714	547
391	77	407
392	454	361
393	397	84
394	212	8
395	884	134
396	595	703
397	239	796
398	40	922
399	675	551
400	196	793
401	673	575
402	126	435
403	760	803
404	210	907
405	846	102
406	907	953
407	950	217
408	922	97
409	131	766
410	856	144
411	6	512
412	264	670
413	663	238
414	969	283
415	815	605
416	40	23
417	222	509
418	805	803
419	820	964
420	810	409
421	379	156
422	78	775
423	297	694
424	11	535
425	885	635
426	427	516
427	171	112
428	532	206
429	739	87
430	662	211
431	518	156
432	235	439
433	416	548
434	359	241
435	179	355
436	153	333
437	340	708
438	133	196
439	293	105
440	109	76
441	805	738
442	676	195
443	746	537
444	70	967
445	436	710
446	21	360
447	752	818
448	478	939
449	433	713
450	567	57
451	748	431
452	210	561
453	105	80
454	247	737
455	430	797
456	254	442
457	750	755
458	209	909
459	506	293
460	469	561
461	455	219
462	934	235
463	303	443
464	386	649
465	461	413
466	889	780
467	698	253
468	823	771
469	333	940
470	385	258
471	903	398
472	3	684
473	591	999
474	515	413
475	68	330
476	458	994
477	241	422
478	128	118
479	419	231
480	37	574
481	390	394
482	234	958
483	963	500
484	503	42
485	807	931
486	880	152
487	432	70
488	584	503
489	4	902
490	193	192
491	622	328
492	866	132
493	8	402
494	948	237
495	180	294
496	773	843
497	367	501
498	113	606
499	303	607
500	62	396
501	523	448
DEMAND_SECTION
1	0
2	9
3	3
4	6
5	6
6	2
7	9
8	3
9	9
10	5
11	9
12	8
13	7
14	6
15	5
16	3
17	9
18	6
19	2
20	6
21	4
22	1
23	6
24	9
25	1
26	2
27	1
28	5
29	3
30	5
31	6
32	2
33	2
34	1
35	4
36	5
37	7
38	2
39	6
40	5
41	8
42	2
43	1
44	5
45	2
46	6
47	5
48	3
49	1
50	6
51	6
52	2
53	5
54	8
55	2
56	3
57	8
58	7
59	5
60	8
61	8
62	6
63	4
64	1
65	5
66	4
67	3
68	4
69	3
70	8
71	7
72	4
73	4
74	6
75	1
76	3
77	6
78	2
79	5
80	6
81	5
82	4
83	6
84	8
85	7
86	1
87	5
88	2
89	8
90	5
91	5
92	8
93	7
94	3
95	8
96	3
97	6
98	7
99	7
100	4
101	8
102	9
103	3
104	2
105	4
106	9
107	2
108	3
109	8
110	4
111	9
112	9
113	4
114	5
115	1
116	2
117	4
118	1
119	1
120	2
121	6
122	7
123	8
124	6
125	6
126	6
127	4
128	4
129	5
130	2
131	1
132	3
133	9
134	4
135	4
136	7
137	1
138	5
139	7
140	3
141	9
142	6
143	9
144	3
145	3
146	4
147	9
148	7
149	3
150	2
151	6
152	2
153	3
154	2
155	2
156	7
157	3
158	9
159	5
160	9
161	2
162	9
163	9
164	3
165	1
166	1
167	4
168	5
169	9
170	2
171	4
172	6
173	6
174	8
175	3
176	9
177	8
178	5
179	2
180	7
181	9
182	7
183	9
184	2
185	2
186	8
187	7
188	6
189	2
190	4
191	8
192	7
193	2
194	7
195	2
196	9
197	8
198	6
199	6
200	4
201	9
202	2
203	3
204	2
205	9
206	7
207	8
208	7
209	6
210	2
211	9
212	4
213	2
214	9
215	4
216	3
217	2
218	1
219	3
220	4
221	3
222	3
223	1
224	2
225	2
226	3
227	3
228	3
229	9
230	4
231	7
232	6
233	5
234	2
235	1
236	3
237	5
238	2
239	2
240	6
241	1
242	2
243	5
244	2
245	2
246	9
247	5
248	5
249	7
250	9
251	8
252	9
253	6
254	5
255	6
256	5
257	1
258	3
259	9
260	5
261	8
262	9
263	6
264	9
265	9
266	5
267	7
268	9
269	1
270	6
271	1
272	1
273	1
274	4
275	7
276	7
277	4
278	6
279	2
280	2
281	8
282	9
283	1
284	7
285	7
286	3
287	2
288	6
289	9
290	2
291	7
292	9
293	3
294	2
295	9
296	1
297	2
298	1
299	9
300	5
301	9
302	2
303	5
304	4
305	5
306	7
307	6
308	1
309	8
310	7
311	7
312	7
313	8
314	2
315	8
316	5
317	2
318	6
319	9
320	9
321	1
322	4
323	4
324	3
325	7
326	5
327	5
328	4
329	7
330	4
331	5
332	2
333	7
334	7
335	1
336	8
337	7
338	8
339	7
340	5
341	8
342	8
343	1
344	7
345	6
346	6
347	1
348	6
349	7
350	8
351	1
352	4
353	2
354	1
355	7
356	7
357	8
358	8
359	2
360	1
361	2
362	5
363	2
364	3
365	1
366	7
367	9
368	3
369	7
370	4
371	3
372	1
373	1
374	8
375	9
376	2
377	5
378	7
379	7
380	1
381	3
382	5
383	4
384	1
385	6
386	8
387	7
388	7
389	9
390	6
391	1
392	2
393	2
394	8
395	5
396	9
397	6
398	1
399	4
400	6
401	7
402	5
403	1
404	5
405	2
406	6
407	2
408	3
409	5
410	6
411	4
412	8
413	3
414	5
415	6
416	6
417	5
418	6
419	6
420	9
421	3
422	9
423	9
424	1
425	3
426	4
427	9
428	5
429	8
430	8
431	4
432	3
433	3
434	3
435	3
436	2
437	2
438	9
439	3
440	5
441	6
442	9
443	9
444	3
445	8
446	8
447	8
448	9
449	1
450	8
451	3
452	6
453	5
454	4
455	6
456	9
457	2
458	3
459	1
460	1
461	6
462	4
463	2
464	4
465	2
466	8
467	3
468	8
469	3
470	9
471	2
472	4
473	7
474	1
475	9
476	9
477	6
478	4
479	5
480	8
481	6
482	9
483	8
484	3
485	9
486	3
487	7
488	5
489	8
490	2
491	1
492	7
493	7
494	9
495	1
496	8
497	8
498	3
499	6
500	9
501	4
TIME_WINDOW_SECTION
1	0	3000
2	384	1248
3	1337	1898
4	604	2249
5	853	1969
6	348	1515
7	1422	2353
8	1944	2237
9	1521	3000
10	1037	1358
11	1118	2566
12	304	1405
13	685	1246
14	678	1877
15	1426	1632
16	582	1794
17	1739	2776
18	1664	1896
19	1255	2764
20	874	2573
21	766	978
22	752	2669
23	557	1774
24	1102	2067
25	636	1462
26	1683	2082
27	735	2472
28	641	1584
29	832	2737
30	916	2224
31	104	2044
32	2131	2970
33	1038	1506
34	1358	2305
35	1471	1906
36	908	2294
37	1056	1724
38	1553	1856
39	1650	1935
40	1720	2568
41	679	2657
42	1280	2242
43	98	1137
44	676	1675
45	288	1324
46	1066	1386
47	1639	2987
48	1811	2096
49	108	1879
50	418	1537
51	1527	2003
52	365	1608
53	1170	2715
54	408	745
55	760	1346
56	1667	2577
57	841	1340
58	1253	2126
59	553	1358
60	441	2267
61	1413	2228
62	1340	2347
63	724	1526
64	203	1219
65	830	2371
66	1261	1535
67	1436	2458
68	88	1280
69	331	2114
70	1511	2585
71	1740	2002
72	843	2092
73	1093	2160
74	1112	1424
75	79	1050
76	345	1656
77	1873	3000
78	796	2726
79	1441	2779
80	884	2478
81	907	1317
82	628	920
83	1464	1668
84	234	1821
85	1183	2752
86	337	2286
87	0	1149
88	1331	1629
89	1486	3000
90	1618	3000
91	944	1207
92	1320	2172
93	1058	1460
94	833	2598
95	341	892
96	196	1480
97	81	1173
98	593	2027
99	426	1100
100	727	1968
101	650	1213
102	167	2072
103	1954	2907
104	1394	2591
105	0	1542
106	508	1770
107	1568	2210
108	1559	2909
109	795	2536
110	1066	1979
111	831	1569
112	515	1694
113	2252	2547
114	120	1073
115	1229	2039
116	657	2255
117	821	2412
118	948	2198
119	1141	2800
120	46	2008
121	1055	2676
122	0	1665
123	1780	2049
124	1626	2582
125	1867	2964
126	0	1801
127	1111	2399
128	510	1376
129	427	1124
130	1608	1967
131	174	2024
132	1547	2969
133	972	2304
134	1579	2777
135	1083	2621
136	0	1221
137	829	1058
138	458	2310
139	1884	2265
140	1459	2619
141	1306	2154
142	0	1342
143	368	2110
144	1838	2316
145	1750	2481
146	1186	2523
147	872	2725
148	675	1201
149	1082	2733
150	933	2295
151	1772	2469
152	387	1213
153	536	2285
154	1627	2263
155	1195	3000
156	0	1396
157	1025	1594
158	452	2331
159	233	1121
160	1772	2098
161	0	1107
162	1960	2900
163	1910	2266
164	0	1196
165	48	816
166	1012	2802
167	1298	1502
168	687	1673
169	1226	2701
170	663	1319
171	1085	2407
172	0	1718
173	1324	1549
174	244	1438
175	897	1663
176	723	2376
177	417	1972
178	572	2195
179	1092	1896
180	1590	2261
181	1090	2696
182	1056	1449
183	715	1982
184	1194	2348
185	1444	2639
186	491	2192
187	787	1834
188	725	2110
189	1195	1585
190	1167	1911
191	864	2070
192	66	1520
193	723	2174
194	1568	2430
195	295	1217
196	0	1331
197	670	2193
198	181	1210
199	265	945
200	80	1652
201	1454	2947
202	1226	1447
203	641	2341
204	0	1456
205	84	1215
206	1857	2237
207	1179	2173
208	1280	2307
209	1679	2653
210	769	1123
211	944	2849
212	188	1570
213	1289	2739
214	1004	1472
215	877	2177
216	1346	2151
217	1917	2710
218	233	835
219	1004	2208
220	1145	3000
221	223	2150
222	0	1483
223	1601	2921
224	754	2717
225	1893	2591
226	41	1324
227	1316	1729
228	0	1749
229	1913	2493
230	1042	1516
231	1128	1835
232	1133	3000
233	703	977
234	1851	2131
235	347	2032
236	1098	2931
237	251	669
238	1540	1776
239	26	1229
240	847	1549
241	1673	2464
242	501	2051
243	197	1869
244	2171	2449
245	990	2386
246	768	2084
247	779	1735
248	1075	1594
249	683	1226
250	207	1361
251	396	708
252	0	1115
253	1760	2551
254	676	1300
255	886	2838
256	1286	2490
257	299	1135
258	483	2464
259	522	1160
260	644	1731
261	413	867
262	2069	2673
263	731	1498
264	1057	2798
265	643	909
266	685	2306
267	1418	3000
268	1861	2143
269	283	1475
270	708	2693
271	493	1428
272	742	2470
273	353	2029
274	1135	2082
275	1624	1994
276	685	1743
277	668	2344
278	1150	2140
279	988	2804
280	1249	2837
281	0	1770
282	38	1028
283	216	1954
284	1254	1731
285	977	2100
286	0	1596
287	866	1281
288	1143	1448
289	1575	1929
290	182	1304
291	0	1346
292	323	2247
293	1679	3000
294	1242	1766
295	635	2008
296	2049	2770
297	2002	2363
298	639	1877
299	86	1819
300	1697	2539
301	1038	2823
302	695	2460
303	6	1420
304	395	1579
305	1	1869
306	1596	3000
307	1521	2095
308	235	1618
309	463	696
310	532	2525
311	256	2139
312	1001	2917
313	1308	1855
314	392	1016
315	890	1597
316	0	743
317	1007	1300
318	1559	2095
319	1847	2358
320	1672	2641
321	467	2109
322	265	666
323	1461	3000
324	780	1438
325	521	972
326	600	2454
327	797	1542
328	1319	2726
329	728	1238
330	1737	2498
331	96	1496
332	1168	2553
333	896	2821
334	0	1485
335	1595	2157
336	297	2267
337	1653	2890
338	1153	2828
339	494	1062
340	487	2241
341	618	1567
342	1593	2519
343	81	1468
344	2002	2379
345	968	2048
346	925	2254
347	1306	2020
348	0	1796
349	1424	3000
350	771	991
351	1630	2206
352	815	1588
353	0	1737
354	454	1327
355	1164	2473
356	170	1894
357	1440	2061
358	1348	2619
359	732	2572
360	337	1644
361	1520	2480
362	691	1751
363	748	2390
364	114	1194
365	1061	1764
366	1254	1992
367	1141	2429
368	0	1148
369	981	1285
370	944	2769
371	525	800
372	976	2153
373	976	2911
374	361	1228
375	515	2377
376	220	2175
377	1471	2743
378	0	1503
379	805	1032
380	1403	2842
381	1568	2846
382	981	2099
383	2115	2901
384	793	2136
385	989	1719
386	1099	1522
387	1428	2228
388	1697	2180
389	208	920
390	0	914
391	591	2524
392	179	1299
393	0	1723
394	1127	1390
395	384	1781
396	1464	3000
397	13	1322
398	831	2470
399	0	1309
400	919	1590
401	904	2470
402	734	2223
403	1052	1656
404	679	1212
405	1051	1821
406	43	1510
407	1633	2583
408	1527	3000
409	473	1769
410	443	1767
411	688	2423
412	669	1710
413	898	2676
414	148	839
415	1374	2250
416	621	2302
417	820	2088
418	958	1672
419	1079	2539
420	1935	2662
421	1630	1882
422	189	1821
423	1825	2319
424	1395	1781
425	1244	3000
426	994	1395
427	899	1783
428	910	2840
429	486	2182
430	360	1337
431	1075	2015
432	1184	1958
433	1163	3000
434	707	1609
435	1288	1970
436	709	1530
437	1032	1905
438	1335	2169
439	1030	1870
440	573	2232
441	0	1190
442	379	1314
443	0	388
444	854	1467
445	1180	2597
446	1487	2034
447	658	1638
448	0	1593
449	1317	3000
450	1510	2013
451	1572	1818
452	765	1499
453	393	2134
454	1606	2437
455	1055	2514
456	1199	2566
457	2056	2803
458	1301	2253
459	583	1489
460	368	608
461	830	1238
462	808	1944
463	0	1432
464	1532	2505
465	1163	2856
466	1567	2289
467	509	1107
468	406	1368
469	0	1519
470	237	1755
471	318	1676
472	696	2392
473	470	1154
474	1216	1898
475	1040	1294
476	32	1108
477	262	990
478	1236	2095
479	378	765
480	928	2052
481	1037	1865
482	744	2195
483	872	1780
484	818	1501
485	1336	2982
486	203	1803
487	1308	2241
488	1697	2734
489	1358	1611
490	793	1762
491	1699	2733
492	1343	1836
493	851	1481
494	1406	3000
495	1410	1800
496	1018	2578
497	1415	3000
498	1078	2196
499	682	985
500	614	2023
501	908	2144
BACKHAUL_SECTION
4	11	21	24	27	32	38	43	51	57	61	68	76	77	83	84	101	103	115	119	120	123	132	133	136	145	152	167	169	172	173	182	183	186	188	191	204	210	211	212	216	218	237	241	245	255	258	264	265	267	279	281	283	295	296	297	299	301	308	312	313	320	325	328	337	338	350	371	382	385	390	394	400	413	415	425	432	436	442	450	451	452	458	459	466	471	473	476	477	478	482	484	485	486	490	491	492	495	497	498	-1
DEPOT_SECTION
1
-1
EOF
