NAME : n501-0007
COMMENT : "Generated by pyvrp_manuel (VRPBLTW)"
TYPE : VRPBLTW
DIMENSION : 501
EDGE_WEIGHT_TYPE : EUC_2D
CAPACITY : 100
VEHICLES : 500
DISTANCE : 3000
SERVICE_TIME : 200
NODE_COORD_SECTION
1	717	538
2	331	913
3	745	493
4	35	34
5	845	562
6	256	989
7	218	544
8	835	157
9	255	332
10	525	912
11	44	294
12	155	25
13	493	15
14	206	276
15	422	400
16	563	359
17	962	459
18	815	728
19	102	554
20	496	923
21	380	57
22	593	666
23	559	305
24	196	527
25	256	905
26	90	669
27	395	92
28	619	350
29	906	20
30	748	301
31	656	969
32	50	948
33	563	303
34	721	645
35	865	678
36	669	286
37	340	276
38	902	755
39	6	373
40	599	105
41	350	313
42	972	23
43	793	981
44	854	433
45	90	288
46	733	141
47	202	905
48	335	184
49	369	501
50	762	330
51	541	94
52	294	787
53	383	987
54	761	838
55	34	385
56	148	640
57	182	247
58	296	51
59	141	305
60	825	808
61	243	379
62	212	53
63	970	927
64	482	945
65	590	449
66	68	638
67	490	621
68	951	87
69	422	263
70	896	407
71	633	856
72	643	817
73	635	295
74	226	830
75	450	468
76	622	874
77	413	614
78	776	885
79	558	215
80	601	693
81	721	266
82	204	691
83	303	900
84	392	11
85	658	443
86	954	993
87	617	278
88	670	972
89	984	882
90	179	867
91	213	105
92	753	104
93	753	478
94	271	195
95	23	183
96	541	471
97	626	522
98	685	566
99	514	703
100	104	382
101	524	402
102	564	458
103	977	824
104	881	143
105	274	688
106	709	293
107	51	420
108	306	304
109	912	845
110	824	763
111	279	849
112	277	847
113	359	486
114	749	306
115	98	442
116	388	483
117	628	161
118	618	972
119	502	593
120	387	425
121	386	261
122	390	136
123	324	64
124	430	924
125	395	480
126	994	122
127	587	830
128	208	612
129	215	708
130	378	114
131	692	241
132	18	248
133	134	794
134	770	56
135	118	263
136	511	732
137	737	982
138	894	423
139	380	803
140	423	601
141	774	684
142	215	908
143	568	208
144	865	728
145	724	378
146	257	734
147	907	433
148	605	990
149	245	717
150	104	492
151	47	88
152	169	966
153	638	491
154	220	481
155	69	296
156	979	525
157	520	164
158	140	96
159	815	579
160	432	351
161	64	251
162	600	217
163	873	98
164	572	407
165	143	313
166	646	947
167	915	199
168	954	573
169	120	92
170	269	616
171	732	982
172	827	134
173	240	612
174	40	214
175	558	443
176	38	505
177	116	80
178	506	733
179	144	124
180	255	365
181	464	987
182	328	270
183	353	56
184	320	476
185	987	230
186	544	649
187	928	818
188	444	254
189	472	945
190	569	674
191	749	110
192	263	685
193	171	357
194	0	734
195	200	40
196	648	538
197	561	738
198	325	700
199	663	653
200	304	38
201	173	956
202	164	357
203	816	742
204	936	886
205	831	48
206	842	82
207	651	511
208	463	131
209	243	547
210	258	660
211	344	608
212	919	912
213	821	877
214	719	738
215	594	263
216	979	212
217	426	999
218	749	626
219	93	864
220	594	396
221	127	73
222	81	759
223	474	363
224	961	945
225	169	201
226	348	889
227	562	30
228	329	789
229	454	125
230	633	342
231	176	675
232	756	317
233	483	580
234	817	466
235	28	221
236	273	388
237	162	872
238	278	623
239	419	396
240	575	957
241	313	2
242	687	214
243	265	231
244	545	916
245	930	25
246	344	752
247	74	244
248	335	214
249	897	292
250	153	49
251	886	654
252	579	989
253	293	445
254	241	205
255	555	729
256	628	902
257	954	583
258	590	163
259	772	883
260	878	216
261	932	554
262	678	415
263	320	549
264	260	471
265	406	244
266	115	578
267	561	419
268	743	747
269	209	953
270	215	674
271	200	948
272	221	623
273	369	903
274	383	410
275	784	131
276	845	591
277	416	429
278	965	453
279	105	0
280	564	858
281	154	58
282	319	718
283	231	944
284	583	781
285	99	772
286	547	685
287	596	505
288	777	961
289	638	547
290	941	216
291	112	60
292	992	977
293	593	426
294	768	574
295	173	902
296	251	174
297	721	598
298	346	157
299	728	584
300	7	603
301	548	98
302	275	309
303	794	328
304	320	177
305	433	680
306	954	326
307	11	227
308	599	27
309	191	402
310	180	185
311	668	856
312	672	401
313	150	192
314	332	86
315	662	17
316	326	95
317	2	501
318	869	547
319	944	440
320	780	487
321	861	829
322	23	338
323	292	612
324	285	521
325	33	981
326	228	478
327	281	327
328	948	755
329	908	327
330	927	957
331	712	23
332	247	179
333	867	87
334	240	389
335	753	583
336	544	859
337	918	472
338	506	434
339	37	620
340	149	2
341	301	510
342	130	359
343	514	294
344	427	602
345	616	600
346	36	189
347	923	556
348	129	256
349	901	913
350	739	620
351	764	470
352	929	28
353	23	627
354	444	169
355	415	496
356	749	840
357	22	224
358	160	718
359	503	962
360	623	228
361	857	853
362	606	894
363	368	69
364	811	951
365	362	323
366	623	2
367	270	946
368	976	123
369	716	938
370	646	72
371	14	519
372	101	637
373	975	193
374	159	633
375	843	149
376	90	243
377	962	176
378	614	643
379	856	114
380	608	97
381	342	205
382	399	493
383	294	352
384	243	478
385	182	438
386	686	416
387	663	76
388	731	812
389	38	689
390	962	272
391	281	515
392	904	771
393	260	563
394	394	158
395	732	172
396	896	739
397	453	306
398	464	857
399	674	810
400	447	269
401	251	543
402	241	538
403	829	142
404	102	183
405	460	514
406	345	21
407	838	548
408	540	727
409	85	460
410	457	114
411	469	636
412	675	442
413	633	543
414	70	10
415	304	435
416	903	66
417	764	432
418	798	875
419	715	581
420	492	709
421	891	715
422	452	821
423	632	243
424	124	783
425	349	448
426	810	69
427	354	663
428	498	160
429	605	348
430	988	296
431	566	527
432	89	929
433	880	477
434	209	583
435	71	572
436	982	316
437	729	813
438	697	31
439	414	963
440	657	865
441	858	803
442	547	840
443	802	513
444	279	54
445	84	382
446	509	434
447	845	178
448	250	860
449	528	939
450	221	416
451	442	650
452	306	4
453	547	226
454	38	478
455	609	389
456	108	854
457	981	428
458	509	662
459	295	877
460	484	594
461	706	511
462	274	151
463	946	112
464	286	637
465	965	466
466	756	396
467	357	252
468	518	826
469	320	792
470	123	386
471	490	394
472	353	963
473	170	104
474	954	193
475	18	890
476	500	103
477	246	380
478	663	622
479	435	998
480	338	71
481	440	807
482	223	644
483	540	625
484	691	719
485	321	828
486	81	391
487	723	369
488	549	174
489	353	971
490	886	111
491	76	867
492	959	5
493	418	981
494	692	970
495	283	460
496	91	226
497	209	382
498	707	816
499	923	144
500	452	84
501	729	784
DEMAND_SECTION
1	0
2	6
3	7
4	8
5	6
6	7
7	4
8	1
9	4
10	3
11	9
12	6
13	2
14	9
15	6
16	8
17	8
18	9
19	9
20	9
21	7
22	1
23	5
24	1
25	6
26	7
27	8
28	6
29	2
30	8
31	3
32	8
33	3
34	8
35	4
36	6
37	8
38	9
39	4
40	8
41	1
42	7
43	1
44	6
45	2
46	1
47	1
48	6
49	2
50	1
51	8
52	1
53	8
54	4
55	3
56	6
57	6
58	3
59	8
60	6
61	9
62	1
63	2
64	8
65	3
66	9
67	3
68	9
69	5
70	5
71	6
72	8
73	3
74	2
75	6
76	9
77	5
78	2
79	3
80	6
81	5
82	1
83	9
84	9
85	8
86	5
87	2
88	8
89	9
90	4
91	9
92	3
93	4
94	3
95	9
96	7
97	4
98	6
99	6
100	8
101	2
102	6
103	8
104	9
105	5
106	9
107	1
108	2
109	6
110	3
111	9
112	4
113	6
114	6
115	2
116	1
117	1
118	6
119	2
120	9
121	4
122	9
123	3
124	8
125	4
126	7
127	8
128	3
129	1
130	2
131	1
132	1
133	1
134	8
135	1
136	9
137	4
138	9
139	9
140	3
141	3
142	5
143	5
144	4
145	2
146	2
147	2
148	7
149	3
150	4
151	2
152	7
153	1
154	8
155	2
156	2
157	7
158	7
159	1
160	1
161	9
162	6
163	8
164	6
165	6
166	3
167	7
168	9
169	8
170	7
171	4
172	6
173	1
174	5
175	2
176	6
177	1
178	7
179	9
180	5
181	1
182	8
183	8
184	7
185	1
186	3
187	7
188	1
189	6
190	7
191	4
192	4
193	1
194	2
195	5
196	1
197	6
198	6
199	9
200	8
201	1
202	1
203	6
204	5
205	7
206	8
207	4
208	8
209	6
210	9
211	3
212	8
213	8
214	4
215	1
216	9
217	9
218	4
219	9
220	8
221	3
222	2
223	3
224	2
225	5
226	1
227	6
228	6
229	8
230	8
231	2
232	3
233	7
234	6
235	2
236	2
237	2
238	9
239	6
240	3
241	1
242	1
243	8
244	3
245	7
246	4
247	8
248	4
249	6
250	1
251	4
252	2
253	1
254	4
255	9
256	7
257	9
258	9
259	9
260	4
261	4
262	3
263	4
264	6
265	1
266	8
267	1
268	4
269	4
270	6
271	1
272	1
273	8
274	7
275	8
276	9
277	4
278	4
279	4
280	5
281	9
282	9
283	6
284	4
285	6
286	4
287	5
288	2
289	5
290	1
291	2
292	3
293	9
294	7
295	3
296	8
297	9
298	9
299	1
300	5
301	5
302	2
303	8
304	5
305	3
306	4
307	5
308	1
309	4
310	7
311	2
312	3
313	9
314	9
315	3
316	2
317	3
318	8
319	2
320	7
321	6
322	3
323	1
324	5
325	2
326	4
327	6
328	8
329	7
330	1
331	6
332	3
333	4
334	5
335	9
336	1
337	3
338	7
339	5
340	4
341	7
342	3
343	2
344	4
345	3
346	3
347	3
348	8
349	9
350	1
351	7
352	8
353	1
354	9
355	3
356	4
357	4
358	9
359	6
360	9
361	5
362	5
363	8
364	3
365	4
366	3
367	8
368	7
369	6
370	8
371	2
372	9
373	4
374	3
375	7
376	1
377	6
378	3
379	1
380	9
381	9
382	2
383	7
384	1
385	9
386	2
387	6
388	1
389	8
390	5
391	9
392	4
393	1
394	4
395	8
396	3
397	2
398	6
399	1
400	8
401	6
402	6
403	7
404	1
405	5
406	4
407	7
408	2
409	2
410	3
411	5
412	6
413	1
414	5
415	3
416	2
417	5
418	9
419	6
420	2
421	3
422	2
423	2
424	8
425	5
426	2
427	1
428	4
429	4
430	8
431	6
432	8
433	7
434	5
435	9
436	8
437	7
438	1
439	1
440	1
441	8
442	2
443	8
444	5
445	7
446	7
447	2
448	2
449	6
450	6
451	3
452	1
453	5
454	4
455	2
456	8
457	8
458	1
459	5
460	2
461	7
462	2
463	9
464	5
465	6
466	9
467	2
468	8
469	9
470	6
471	7
472	6
473	9
474	2
475	3
476	9
477	1
478	6
479	8
480	8
481	4
482	4
483	1
484	1
485	8
486	7
487	7
488	3
489	9
490	4
491	3
492	5
493	9
494	6
495	4
496	8
497	1
498	2
499	5
500	2
501	1
TIME_WINDOW_SECTION
1	0	3000
2	1114	1848
3	1003	2921
4	835	2700
5	402	875
6	868	1869
7	427	1523
8	432	1364
9	346	2343
10	0	1572
11	1032	2001
12	1127	2306
13	1173	2357
14	775	2344
15	1551	2020
16	1989	2216
17	594	2123
18	2064	2400
19	1815	2137
20	1444	2031
21	407	1525
22	2138	2641
23	882	1086
24	1560	2590
25	1194	2540
26	561	1615
27	1120	2014
28	657	2377
29	545	1247
30	378	1417
31	34	1868
32	431	1586
33	0	1420
34	0	1506
35	773	2673
36	722	1873
37	517	1165
38	1997	2608
39	1306	2718
40	0	1513
41	0	1572
42	976	1858
43	1346	1904
44	1237	1621
45	1100	2372
46	1304	2885
47	291	2073
48	1003	1744
49	1764	2278
50	0	956
51	354	974
52	1624	2763
53	862	1137
54	1218	2721
55	728	2155
56	692	1190
57	28	1446
58	0	1739
59	960	1576
60	813	2289
61	1402	1903
62	811	2774
63	0	1255
64	1610	2191
65	1856	2301
66	264	1144
67	1415	3000
68	0	1131
69	1579	1953
70	1059	2978
71	357	1401
72	2016	2644
73	0	1539
74	413	1396
75	0	1364
76	1064	1838
77	406	2147
78	0	1445
79	1597	3000
80	157	1558
81	1049	2339
82	689	2526
83	522	1748
84	1480	2261
85	1713	3000
86	693	1475
87	571	1703
88	833	2769
89	1934	2203
90	958	1229
91	833	2207
92	1438	2354
93	360	861
94	1379	2006
95	799	2413
96	0	789
97	311	702
98	0	1453
99	1773	3000
100	1363	1894
101	1720	2941
102	570	2513
103	1224	1738
104	564	872
105	446	1704
106	1516	2219
107	527	1880
108	1203	1494
109	1417	1761
110	179	1230
111	1452	2203
112	1451	2981
113	701	1529
114	1032	1559
115	1951	2309
116	1224	3000
117	1715	2688
118	913	2404
119	1461	1666
120	1075	1359
121	335	799
122	746	2350
123	505	1499
124	1213	1956
125	848	2487
126	1312	2634
127	1581	3000
128	560	1220
129	280	1404
130	461	1402
131	334	1918
132	427	2422
133	156	1205
134	848	2271
135	1083	2816
136	0	1373
137	1046	1522
138	1310	1778
139	660	2046
140	1570	3000
141	0	1046
142	1146	1444
143	0	1570
144	1559	1930
145	355	2052
146	913	2479
147	1468	3000
148	228	992
149	375	1058
150	747	2214
151	742	1521
152	308	1409
153	685	1010
154	756	2001
155	480	2096
156	0	1726
157	576	2357
158	1254	1569
159	0	1103
160	191	799
161	433	1193
162	1261	2857
163	60	893
164	0	1051
165	978	2277
166	371	727
167	1335	1676
168	0	1120
169	1059	2384
170	878	1186
171	124	959
172	109	1952
173	1333	2916
174	1537	2219
175	0	1612
176	997	2104
177	696	1945
178	1653	2139
179	0	1811
180	982	2038
181	890	1557
182	857	1490
183	1820	2097
184	1479	2127
185	663	2352
186	746	1485
187	664	1573
188	1539	1910
189	564	1342
190	215	2129
191	595	1232
192	13	1882
193	1052	1345
194	1540	1875
195	1491	2173
196	163	867
197	1396	3000
198	217	1982
199	1534	2536
200	670	1910
201	717	1862
202	1085	2663
203	912	2771
204	1734	2233
205	577	2287
206	1706	2046
207	1013	2426
208	1100	1950
209	886	2006
210	1167	2745
211	2129	2381
212	0	1507
213	1527	1845
214	575	1744
215	2028	2414
216	354	1245
217	837	1166
218	1883	2593
219	433	1058
220	1745	3000
221	668	2352
222	930	2042
223	814	2110
224	747	1224
225	615	1492
226	666	878
227	356	1478
228	1499	2902
229	691	1643
230	103	1116
231	1278	1628
232	985	1567
233	1802	3000
234	1317	1712
235	633	2034
236	1704	2520
237	1281	2053
238	1956	2555
239	1470	2771
240	0	1199
241	809	1125
242	1268	2355
243	283	1677
244	0	1628
245	1212	2752
246	1158	2676
247	710	1418
248	445	2044
249	573	1238
250	1069	2077
251	0	1705
252	1354	2771
253	962	2645
254	507	1185
255	0	1404
256	507	1580
257	6	1072
258	1048	2069
259	2074	2795
260	2031	2658
261	1021	1381
262	108	675
263	1492	2818
264	0	1503
265	1520	2952
266	993	2989
267	645	1297
268	90	1446
269	1039	2025
270	1329	1910
271	1084	1744
272	1725	2213
273	1338	3000
274	0	1389
275	398	2059
276	1365	1647
277	531	869
278	1810	2128
279	905	1448
280	1396	2565
281	1126	1343
282	1232	2260
283	509	1162
284	0	1792
285	801	1876
286	853	2086
287	0	1181
288	297	2129
289	31	1733
290	363	2344
291	96	1567
292	929	2086
293	1439	2212
294	0	1092
295	1556	2471
296	454	1090
297	797	1123
298	632	2102
299	1124	2230
300	384	1251
301	1888	2197
302	1018	2748
303	703	2576
304	533	1454
305	188	861
306	749	1694
307	563	1457
308	0	1223
309	1581	2102
310	703	1469
311	397	834
312	1203	2527
313	21	1764
314	617	1221
315	619	1096
316	667	1849
317	1677	2089
318	0	1012
319	402	610
320	393	743
321	1659	2245
322	1230	1852
323	297	904
324	68	804
325	673	2237
326	1919	2364
327	1063	2741
328	389	2364
329	1060	1500
330	1910	2508
331	1266	2910
332	2019	2255
333	1632	2946
334	632	1346
335	1476	2713
336	610	1807
337	475	850
338	465	2188
339	1133	1401
340	667	960
341	853	2567
342	826	1906
343	713	1371
344	1482	2463
345	214	1448
346	448	1720
347	436	1828
348	857	1885
349	1309	3000
350	2202	3000
351	0	1077
352	726	1076
353	1246	2298
354	886	2567
355	647	957
356	177	1218
357	938	1555
358	923	1126
359	724	2055
360	0	1306
361	841	1204
362	1993	2796
363	1018	2632
364	271	1787
365	1715	2869
366	1157	2977
367	475	2290
368	1512	2781
369	1008	2618
370	1217	2671
371	1734	2373
372	158	1648
373	92	1256
374	1293	1567
375	17	1944
376	1074	2667
377	1048	2632
378	731	1920
379	678	2387
380	1207	1556
381	1263	1633
382	1890	2906
383	889	2336
384	1000	2892
385	1075	2271
386	1020	2357
387	82	1804
388	99	1155
389	0	1713
390	1516	2175
391	1677	2151
392	940	1767
393	1017	2221
394	355	1573
395	458	2289
396	95	1421
397	1323	1721
398	646	848
399	0	1960
400	285	773
401	236	1617
402	1040	2957
403	475	2227
404	1644	2319
405	1393	2895
406	805	2776
407	0	977
408	1368	2865
409	792	2495
410	319	688
411	1050	2623
412	0	868
413	2304	2963
414	1049	2215
415	843	1705
416	783	1875
417	0	681
418	1766	2585
419	0	580
420	292	1835
421	41	1290
422	693	2606
423	669	1358
424	117	2091
425	1206	2841
426	1328	3000
427	1077	1995
428	1317	1566
429	707	2297
430	984	2626
431	29	1322
432	156	1907
433	1331	3000
434	708	1205
435	1264	2655
436	0	1745
437	2054	2894
438	725	2156
439	961	2895
440	1183	2216
441	1298	2106
442	0	942
443	753	1368
444	1407	1991
445	221	1777
446	751	2649
447	1642	2773
448	536	1226
449	871	1363
450	1480	2752
451	224	1348
452	0	1547
453	764	1418
454	173	1314
455	1464	2829
456	544	1026
457	930	2898
458	440	2352
459	338	1230
460	2264	2843
461	2007	3000
462	872	1077
463	144	1894
464	1883	2587
465	488	1275
466	0	1344
467	1072	2390
468	1672	1919
469	0	1534
470	887	2576
471	301	507
472	1255	2038
473	473	1760
474	477	1263
475	1524	2420
476	509	1446
477	58	1968
478	1776	2479
479	970	1723
480	1184	2431
481	89	1845
482	1550	2049
483	1529	2810
484	920	2639
485	917	2066
486	452	1619
487	647	2352
488	886	2654
489	146	1632
490	2004	2537
491	433	1740
492	1132	1659
493	0	1598
494	45	1831
495	400	1004
496	1132	1684
497	1754	2032
498	797	1291
499	276	1266
500	60	1586
501	1268	3000
BACKHAUL_SECTION
4	11	21	24	27	32	38	43	51	57	61	68	76	77	83	84	101	103	115	119	120	123	132	133	136	145	152	167	169	172	173	182	183	186	188	191	204	210	211	212	216	218	237	241	245	255	258	264	265	267	279	281	283	295	296	297	299	301	308	312	313	320	325	328	337	338	350	371	382	385	390	394	400	413	415	425	432	436	442	450	451	452	458	459	466	471	473	476	477	478	482	484	485	486	490	491	492	495	497	498	-1
DEPOT_SECTION
1
-1
EOF
