NAME : n501-0011
COMMENT : "Generated by pyvrp_manuel (VRPBLTW)"
TYPE : VRPBLTW
DIMENSION : 501
EDGE_WEIGHT_TYPE : EUC_2D
CAPACITY : 100
VEHICLES : 500
DISTANCE : 3000
SERVICE_TIME : 200
NODE_COORD_SECTION
1	594	197
2	384	441
3	45	244
4	237	361
5	308	248
6	775	875
7	916	790
8	790	453
9	474	403
10	671	768
11	157	859
12	402	602
13	642	599
14	66	945
15	797	56
16	103	927
17	46	280
18	527	465
19	531	233
20	395	316
21	295	752
22	691	432
23	827	335
24	91	645
25	822	87
26	263	224
27	263	419
28	111	857
29	108	629
30	209	52
31	662	983
32	278	907
33	49	519
34	573	732
35	217	250
36	160	311
37	538	990
38	482	583
39	90	596
40	474	887
41	758	900
42	128	848
43	721	360
44	164	962
45	155	645
46	433	708
47	707	970
48	104	92
49	228	323
50	192	117
51	444	916
52	928	506
53	55	660
54	361	197
55	2	601
56	458	957
57	170	105
58	945	448
59	869	946
60	820	215
61	830	979
62	455	674
63	145	145
64	668	474
65	299	561
66	107	503
67	709	414
68	449	963
69	590	129
70	766	556
71	162	640
72	681	562
73	177	251
74	74	489
75	452	724
76	154	673
77	264	463
78	107	468
79	346	580
80	746	229
81	99	503
82	457	355
83	721	675
84	975	658
85	530	697
86	809	102
87	890	65
88	635	580
89	245	499
90	340	557
91	50	248
92	51	477
93	408	873
94	610	815
95	319	26
96	443	899
97	63	101
98	618	741
99	427	616
100	160	978
101	36	662
102	190	730
103	53	298
104	345	707
105	197	908
106	883	467
107	480	916
108	221	465
109	652	469
110	21	149
111	802	76
112	796	169
113	594	98
114	503	510
115	973	112
116	384	463
117	930	344
118	820	960
119	962	708
120	359	923
121	429	327
122	406	340
123	927	428
124	289	491
125	7	869
126	787	844
127	202	813
128	123	658
129	638	269
130	458	985
131	129	441
132	83	112
133	770	961
134	759	418
135	267	522
136	102	276
137	486	812
138	13	116
139	560	567
140	164	212
141	70	721
142	205	367
143	135	332
144	769	237
145	769	113
146	57	184
147	883	447
148	85	935
149	968	651
150	617	283
151	544	555
152	527	814
153	21	840
154	783	811
155	248	585
156	998	568
157	123	246
158	915	27
159	49	181
160	305	384
161	104	415
162	177	710
163	878	312
164	672	687
165	265	585
166	281	154
167	730	934
168	172	607
169	261	647
170	976	323
171	430	901
172	664	962
173	733	148
174	281	152
175	45	727
176	381	668
177	599	853
178	592	275
179	57	833
180	715	666
181	429	843
182	278	322
183	941	335
184	1	708
185	892	210
186	665	946
187	294	373
188	796	670
189	521	313
190	996	981
191	453	895
192	207	884
193	782	220
194	78	148
195	46	351
196	56	150
197	240	521
198	563	360
199	534	785
200	451	10
201	567	760
202	81	865
203	448	986
204	750	771
205	561	817
206	833	678
207	232	99
208	219	535
209	357	661
210	118	127
211	745	196
212	593	355
213	364	378
214	259	899
215	632	406
216	745	827
217	523	75
218	569	96
219	138	322
220	30	671
221	638	923
222	284	8
223	756	711
224	908	558
225	773	571
226	235	236
227	734	284
228	713	440
229	574	558
230	381	328
231	345	947
232	288	901
233	319	26
234	963	2
235	645	460
236	174	541
237	360	10
238	687	338
239	911	818
240	773	117
241	373	699
242	423	369
243	787	396
244	112	679
245	585	491
246	301	612
247	440	112
248	61	110
249	752	149
250	127	196
251	184	143
252	230	197
253	159	870
254	560	411
255	514	596
256	488	94
257	180	641
258	563	162
259	419	931
260	841	972
261	845	787
262	578	402
263	346	381
264	172	217
265	670	998
266	543	738
267	549	477
268	458	724
269	427	229
270	620	514
271	867	419
272	82	525
273	528	824
274	814	23
275	179	610
276	233	915
277	569	126
278	323	277
279	472	442
280	647	809
281	708	11
282	543	365
283	225	318
284	124	607
285	325	654
286	732	241
287	974	452
288	640	847
289	303	662
290	864	847
291	581	773
292	225	855
293	752	244
294	884	713
295	289	316
296	39	488
297	34	547
298	543	51
299	929	390
300	154	375
301	649	270
302	436	130
303	917	285
304	336	518
305	618	637
306	649	382
307	193	770
308	926	42
309	446	961
310	102	201
311	977	476
312	625	561
313	887	804
314	788	173
315	897	172
316	556	673
317	336	416
318	826	459
319	812	109
320	71	147
321	204	398
322	159	141
323	899	168
324	837	260
325	340	736
326	44	416
327	638	770
328	709	981
329	269	485
330	958	724
331	334	494
332	761	318
333	376	600
334	494	624
335	881	90
336	103	783
337	295	720
338	459	380
339	17	576
340	491	555
341	7	489
342	764	353
343	824	900
344	180	742
345	965	799
346	21	21
347	789	452
348	623	275
349	304	109
350	999	314
351	517	785
352	613	398
353	454	871
354	45	533
355	76	239
356	672	907
357	6	783
358	267	685
359	493	743
360	956	873
361	125	47
362	776	402
363	218	747
364	309	261
365	67	255
366	151	939
367	378	99
368	36	828
369	685	133
370	72	315
371	395	141
372	36	776
373	828	240
374	164	606
375	576	400
376	136	163
377	469	281
378	962	695
379	121	39
380	127	342
381	975	163
382	165	861
383	717	747
384	964	690
385	848	69
386	925	694
387	216	13
388	916	692
389	399	549
390	957	647
391	51	491
392	235	798
393	822	240
394	144	725
395	294	343
396	153	775
397	55	493
398	831	826
399	378	439
400	368	268
401	489	681
402	958	500
403	883	68
404	491	8
405	355	76
406	280	40
407	700	672
408	805	313
409	347	102
410	400	381
411	656	78
412	919	751
413	94	6
414	323	50
415	299	855
416	701	273
417	815	635
418	692	949
419	329	689
420	887	198
421	762	113
422	494	166
423	314	596
424	343	565
425	236	227
426	262	118
427	597	753
428	804	694
429	288	277
430	803	798
431	848	473
432	816	34
433	101	930
434	923	782
435	718	641
436	485	394
437	443	959
438	197	386
439	285	363
440	240	466
441	288	228
442	563	360
443	561	121
444	362	827
445	563	458
446	695	942
447	706	757
448	46	594
449	488	471
450	216	590
451	754	189
452	687	267
453	349	585
454	772	386
455	668	231
456	290	696
457	951	85
458	77	459
459	767	344
460	644	788
461	257	169
462	93	622
463	196	256
464	485	6
465	356	747
466	997	997
467	117	783
468	61	151
469	277	498
470	754	3
471	68	695
472	562	780
473	915	880
474	340	35
475	293	395
476	646	566
477	763	735
478	547	60
479	356	71
480	950	410
481	244	309
482	945	807
483	565	40
484	694	481
485	597	992
486	53	542
487	506	834
488	517	204
489	769	334
490	286	101
491	962	144
492	98	571
493	324	210
494	900	746
495	116	532
496	604	551
497	257	974
498	255	652
499	611	143
500	444	256
501	21	890
DEMAND_SECTION
1	0
2	9
3	7
4	7
5	7
6	6
7	2
8	1
9	6
10	4
11	2
12	3
13	8
14	1
15	2
16	6
17	6
18	3
19	8
20	3
21	7
22	9
23	1
24	2
25	7
26	3
27	9
28	5
29	6
30	1
31	3
32	3
33	5
34	5
35	6
36	1
37	4
38	9
39	5
40	7
41	6
42	6
43	4
44	8
45	7
46	3
47	2
48	5
49	9
50	8
51	4
52	8
53	4
54	2
55	3
56	2
57	8
58	1
59	9
60	4
61	4
62	1
63	9
64	2
65	7
66	4
67	6
68	3
69	4
70	3
71	5
72	5
73	3
74	3
75	4
76	3
77	9
78	1
79	1
80	2
81	5
82	1
83	9
84	9
85	1
86	8
87	6
88	8
89	2
90	6
91	5
92	6
93	1
94	1
95	4
96	5
97	7
98	4
99	3
100	9
101	8
102	5
103	1
104	9
105	4
106	4
107	3
108	3
109	6
110	2
111	1
112	2
113	6
114	6
115	8
116	6
117	8
118	6
119	5
120	5
121	5
122	1
123	2
124	7
125	6
126	2
127	8
128	8
129	5
130	9
131	1
132	9
133	4
134	8
135	7
136	7
137	2
138	4
139	2
140	1
141	4
142	2
143	9
144	5
145	3
146	1
147	7
148	6
149	9
150	7
151	5
152	9
153	8
154	9
155	7
156	5
157	5
158	4
159	2
160	2
161	3
162	7
163	3
164	7
165	3
166	8
167	2
168	3
169	3
170	8
171	8
172	4
173	1
174	6
175	5
176	5
177	1
178	7
179	7
180	1
181	7
182	1
183	7
184	4
185	2
186	9
187	8
188	9
189	1
190	1
191	8
192	6
193	3
194	8
195	5
196	1
197	5
198	2
199	4
200	6
201	4
202	8
203	3
204	9
205	7
206	9
207	5
208	1
209	3
210	4
211	3
212	9
213	4
214	5
215	3
216	9
217	7
218	8
219	5
220	6
221	7
222	5
223	1
224	8
225	8
226	2
227	2
228	3
229	7
230	3
231	1
232	4
233	9
234	3
235	3
236	7
237	8
238	8
239	2
240	6
241	1
242	3
243	1
244	3
245	7
246	9
247	3
248	2
249	7
250	1
251	5
252	2
253	1
254	8
255	6
256	5
257	4
258	1
259	2
260	1
261	6
262	4
263	7
264	1
265	8
266	9
267	5
268	2
269	1
270	4
271	6
272	6
273	3
274	5
275	9
276	6
277	3
278	2
279	3
280	8
281	9
282	9
283	2
284	7
285	3
286	5
287	5
288	1
289	7
290	2
291	7
292	2
293	3
294	7
295	8
296	1
297	3
298	7
299	3
300	3
301	4
302	5
303	3
304	9
305	8
306	8
307	2
308	3
309	9
310	4
311	2
312	1
313	9
314	3
315	5
316	7
317	6
318	5
319	2
320	1
321	8
322	3
323	9
324	9
325	8
326	2
327	8
328	4
329	2
330	9
331	8
332	7
333	2
334	5
335	9
336	6
337	4
338	2
339	8
340	4
341	5
342	2
343	4
344	4
345	1
346	8
347	4
348	9
349	6
350	5
351	3
352	1
353	5
354	6
355	4
356	7
357	7
358	5
359	2
360	2
361	9
362	7
363	8
364	2
365	7
366	1
367	8
368	2
369	7
370	1
371	1
372	7
373	4
374	6
375	8
376	8
377	5
378	9
379	3
380	1
381	5
382	7
383	6
384	8
385	4
386	8
387	4
388	2
389	8
390	2
391	8
392	5
393	6
394	2
395	4
396	9
397	8
398	5
399	4
400	3
401	2
402	7
403	3
404	8
405	6
406	4
407	6
408	9
409	3
410	3
411	2
412	7
413	8
414	8
415	4
416	5
417	9
418	8
419	8
420	1
421	4
422	1
423	3
424	2
425	4
426	3
427	5
428	3
429	4
430	9
431	1
432	6
433	1
434	7
435	8
436	9
437	5
438	6
439	3
440	3
441	2
442	5
443	6
444	3
445	8
446	7
447	7
448	9
449	4
450	7
451	7
452	9
453	4
454	4
455	8
456	6
457	2
458	3
459	6
460	6
461	1
462	1
463	8
464	6
465	5
466	9
467	6
468	1
469	9
470	9
471	4
472	3
473	7
474	7
475	7
476	5
477	1
478	7
479	5
480	2
481	4
482	8
483	8
484	2
485	3
486	2
487	8
488	9
489	4
490	7
491	9
492	2
493	7
494	9
495	5
496	9
497	4
498	2
499	8
500	9
501	7
TIME_WINDOW_SECTION
1	0	3000
2	1257	1952
3	1579	1999
4	1331	2688
5	1861	2470
6	852	2182
7	527	1095
8	79	1084
9	321	2310
10	344	961
11	1275	2420
12	1668	2152
13	1270	2619
14	970	1418
15	0	1428
16	1678	2036
17	1466	2472
18	733	2054
19	931	2787
20	1432	3000
21	1722	2507
22	449	1189
23	1159	1632
24	628	2568
25	2140	2688
26	1538	2733
27	0	1322
28	627	2486
29	1556	2460
30	0	1239
31	352	1857
32	752	1089
33	716	1183
34	131	1169
35	451	1933
36	0	1312
37	791	1396
38	1638	2186
39	346	1134
40	748	2730
41	1148	2505
42	458	2337
43	1723	2638
44	984	1619
45	759	1577
46	955	1812
47	563	1857
48	1752	2308
49	1324	2261
50	423	2422
51	903	2385
52	263	1499
53	979	2084
54	1300	2144
55	1077	1466
56	1272	1862
57	543	1693
58	780	2300
59	447	1474
60	1642	2621
61	755	2095
62	575	2309
63	1321	1660
64	719	1012
65	1003	2545
66	353	1660
67	0	1200
68	1005	1230
69	1691	2822
70	973	1341
71	494	1767
72	258	719
73	2030	2729
74	1858	2088
75	0	1234
76	1276	1981
77	0	1635
78	1363	2903
79	482	1623
80	2345	2856
81	684	2282
82	1671	2832
83	1700	2900
84	719	1120
85	1129	1874
86	714	2482
87	582	2539
88	1564	2632
89	855	2483
90	757	2137
91	1207	2261
92	1069	1363
93	1392	2384
94	0	1695
95	149	967
96	413	1195
97	547	2147
98	374	1717
99	1458	1881
100	233	1903
101	334	2059
102	1093	1483
103	1511	2118
104	834	1552
105	871	1225
106	1088	3000
107	1179	1574
108	0	1692
109	92	518
110	1204	2687
111	536	2195
112	2232	2536
113	25	660
114	1472	2584
115	1326	2325
116	1166	2404
117	1499	2053
118	449	1918
119	1490	2684
120	475	1906
121	235	1576
122	0	599
123	1307	1514
124	661	2504
125	1009	1428
126	859	1140
127	1232	2129
128	1289	2260
129	707	1897
130	1194	2674
131	0	1457
132	1084	2742
133	767	1005
134	725	2512
135	1183	1475
136	806	2107
137	806	2397
138	762	1557
139	803	1572
140	0	1597
141	792	2001
142	615	1349
143	1853	2566
144	241	1526
145	1056	2317
146	0	1464
147	1306	2209
148	1555	2056
149	1052	2473
150	1713	2247
151	1021	2716
152	460	2102
153	674	1521
154	734	2249
155	0	1737
156	763	2463
157	809	1106
158	1642	2195
159	0	1408
160	1716	2211
161	1181	2646
162	1723	2224
163	800	2718
164	1776	2584
165	577	2400
166	637	1755
167	901	2014
168	1068	2262
169	926	2883
170	118	1953
171	1357	2677
172	1277	2704
173	1451	2080
174	255	1473
175	1553	2081
176	649	1068
177	822	2606
178	0	256
179	1820	2112
180	495	1614
181	290	1925
182	0	1327
183	1464	1893
184	933	1617
185	386	1812
186	1281	1583
187	1438	1740
188	399	1591
189	0	637
190	589	1413
191	938	2039
192	1246	1531
193	401	2211
194	741	1202
195	96	1560
196	839	2670
197	1289	3000
198	2125	2491
199	55	1608
200	1501	2666
201	509	777
202	969	1746
203	1334	1622
204	0	1470
205	1189	2522
206	409	734
207	1469	2480
208	98	1756
209	1106	2990
210	957	1755
211	773	1627
212	1200	2043
213	520	2351
214	1893	2115
215	1589	2794
216	751	1540
217	1922	2562
218	0	1510
219	2024	2519
220	527	1045
221	1035	2805
222	1648	2820
223	1318	2953
224	746	2542
225	0	1613
226	76	742
227	2222	2534
228	1362	3000
229	0	1479
230	1329	2572
231	995	2398
232	626	1652
233	10	1980
234	0	1593
235	718	1873
236	0	1649
237	2268	2627
238	972	2733
239	1337	2241
240	1235	1857
241	568	959
242	1336	2120
243	858	1847
244	529	2296
245	1078	1733
246	809	2315
247	2066	2460
248	897	1180
249	1410	3000
250	679	2042
251	446	1224
252	1312	3000
253	1448	2526
254	195	509
255	1397	1892
256	120	1285
257	482	1814
258	1147	3000
259	1402	2013
260	1819	2103
261	457	2260
262	2147	2846
263	608	1490
264	751	2622
265	742	2454
266	905	1743
267	638	1498
268	906	2423
269	1238	2705
270	604	1455
271	1422	3000
272	138	1477
273	797	1909
274	721	2220
275	454	2180
276	1123	1330
277	584	1238
278	1111	3000
279	782	2578
280	1984	2272
281	867	1230
282	736	2526
283	139	1608
284	0	1841
285	313	1779
286	1337	2454
287	704	1557
288	506	1257
289	120	1273
290	116	1542
291	467	1921
292	1094	2139
293	1398	1972
294	47	1880
295	1607	2204
296	435	2317
297	1663	2364
298	1413	2660
299	1311	3000
300	1396	2252
301	230	646
302	0	1063
303	305	1391
304	1595	2191
305	1928	2691
306	330	616
307	1093	2989
308	213	1512
309	1183	1594
310	1705	2641
311	1573	1790
312	0	1263
313	1508	1992
314	1837	3000
315	432	1139
316	988	1935
317	0	927
318	1939	2675
319	1646	2897
320	1891	2248
321	0	1048
322	754	1633
323	0	1183
324	372	2186
325	1093	2871
326	0	1500
327	1223	1968
328	1448	1919
329	314	878
330	75	1595
331	1423	2783
332	538	902
333	967	2156
334	291	774
335	994	1641
336	1906	2124
337	0	1556
338	1951	2390
339	693	1428
340	371	1042
341	423	2356
342	954	1612
343	658	1123
344	1332	2445
345	725	1802
346	8	1212
347	1153	2407
348	1331	3000
349	938	2640
350	2168	2386
351	372	1441
352	1074	1690
353	770	2556
354	115	1354
355	925	2300
356	1509	2644
357	797	2431
358	73	1424
359	374	1606
360	1043	2918
361	913	1820
362	543	2031
363	85	1675
364	0	1562
365	1568	2783
366	475	2136
367	108	1054
368	1045	2535
369	894	1206
370	537	1133
371	774	1640
372	835	1292
373	774	1826
374	1500	2866
375	0	1319
376	1381	1709
377	0	1441
378	1912	2115
379	731	950
380	1528	2750
381	1526	1837
382	483	1257
383	385	2222
384	925	1587
385	658	1100
386	1480	1970
387	1541	2107
388	996	2846
389	271	1759
390	1376	2017
391	1360	1648
392	347	2306
393	1688	3000
394	1002	2082
395	1584	2588
396	251	2112
397	0	1427
398	1106	2708
399	1702	3000
400	136	1752
401	1398	1880
402	983	2337
403	1601	3000
404	0	1324
405	1891	2413
406	1076	1598
407	302	1918
408	667	2641
409	1295	2592
410	1566	3000
411	597	1142
412	1990	2233
413	1701	2749
414	123	536
415	986	2868
416	1645	3000
417	1188	2413
418	945	2817
419	517	1884
420	392	2027
421	1513	3000
422	365	1050
423	1466	2941
424	1587	1894
425	13	1321
426	357	1036
427	928	2222
428	880	2817
429	0	1171
430	899	1315
431	725	2586
432	332	1010
433	1666	2060
434	321	1859
435	1847	2453
436	1204	3000
437	596	1959
438	410	2073
439	122	1355
440	876	2215
441	0	906
442	0	1842
443	271	1410
444	1370	2440
445	1449	1706
446	1522	2288
447	1048	2183
448	541	1285
449	1723	2337
450	595	1728
451	379	618
452	595	1026
453	270	2265
454	446	2207
455	1356	3000
456	522	2015
457	569	1027
458	1094	2100
459	1640	2367
460	787	2265
461	1577	1930
462	1261	1483
463	384	1027
464	516	2371
465	417	883
466	940	2792
467	630	2550
468	1965	2559
469	1631	2073
470	508	1212
471	351	1808
472	739	1379
473	1043	2187
474	1317	1953
475	1339	1895
476	0	1205
477	0	1711
478	1203	1691
479	79	661
480	550	1436
481	1556	1796
482	923	2398
483	707	1369
484	0	1662
485	373	2036
486	751	2332
487	49	2015
488	0	1087
489	0	1268
490	1016	1587
491	256	737
492	413	2073
493	1245	1832
494	1290	1927
495	1884	2228
496	683	1019
497	1274	2039
498	1473	2327
499	936	2141
500	2242	2737
501	916	1933
BACKHAUL_SECTION
4	11	21	24	27	32	38	43	51	57	61	68	76	77	83	84	101	103	115	119	120	123	132	133	136	145	152	167	169	172	173	182	183	186	188	191	204	210	211	212	216	218	237	241	245	255	258	264	265	267	279	281	283	295	296	297	299	301	308	312	313	320	325	328	337	338	350	371	382	385	390	394	400	413	415	425	432	436	442	450	451	452	458	459	466	471	473	476	477	478	482	484	485	486	490	491	492	495	497	498	-1
DEPOT_SECTION
1
-1
EOF
