NAME : n501-0040
COMMENT : "Generated by pyvrp_manuel (VRPBLTW)"
TYPE : VRPBLTW
DIMENSION : 501
EDGE_WEIGHT_TYPE : EUC_2D
CAPACITY : 100
VEHICLES : 500
DISTANCE : 3000
SERVICE_TIME : 200
NODE_COORD_SECTION
1	420	865
2	948	816
3	309	752
4	727	458
5	610	777
6	593	194
7	587	738
8	765	335
9	390	1
10	39	719
11	423	932
12	590	287
13	294	623
14	139	290
15	284	957
16	370	760
17	654	758
18	299	699
19	157	519
20	574	163
21	9	483
22	985	624
23	882	837
24	375	887
25	286	443
26	924	525
27	590	894
28	629	234
29	15	550
30	541	74
31	5	865
32	192	740
33	50	889
34	793	306
35	593	695
36	775	232
37	337	639
38	860	915
39	126	398
40	222	181
41	856	210
42	30	661
43	633	854
44	293	865
45	465	420
46	655	491
47	175	651
48	358	310
49	5	169
50	67	739
51	238	650
52	557	353
53	125	991
54	329	354
55	784	799
56	926	467
57	408	699
58	940	315
59	188	309
60	715	929
61	351	841
62	111	917
63	986	632
64	623	911
65	331	804
66	72	91
67	284	512
68	460	887
69	440	812
70	943	994
71	9	492
72	274	146
73	877	67
74	115	205
75	265	488
76	503	183
77	211	126
78	836	763
79	507	101
80	254	670
81	683	737
82	448	989
83	131	995
84	294	700
85	311	488
86	343	230
87	763	652
88	589	447
89	845	296
90	610	72
91	180	299
92	862	480
93	178	614
94	116	593
95	505	350
96	248	568
97	755	35
98	157	706
99	882	824
100	844	477
101	381	403
102	889	103
103	624	742
104	967	308
105	549	841
106	9	620
107	760	237
108	573	626
109	544	302
110	133	919
111	89	964
112	715	200
113	412	450
114	410	800
115	781	437
116	997	487
117	47	557
118	563	902
119	186	2
120	173	505
121	215	129
122	664	223
123	111	502
124	499	949
125	910	323
126	514	275
127	196	206
128	876	821
129	112	521
130	749	486
131	752	823
132	727	199
133	133	679
134	965	145
135	525	101
136	607	704
137	547	712
138	313	690
139	226	536
140	966	984
141	607	399
142	150	169
143	943	237
144	602	994
145	916	386
146	578	365
147	1	492
148	568	514
149	247	578
150	407	114
151	943	727
152	672	346
153	606	170
154	983	155
155	571	381
156	841	189
157	795	966
158	1	864
159	306	601
160	333	258
161	468	408
162	585	798
163	843	449
164	776	895
165	407	895
166	97	646
167	399	948
168	757	605
169	95	728
170	860	573
171	213	501
172	92	119
173	617	146
174	411	966
175	959	528
176	159	398
177	388	199
178	193	272
179	318	25
180	514	274
181	508	495
182	969	727
183	22	516
184	401	468
185	781	944
186	694	494
187	39	971
188	32	282
189	138	197
190	156	669
191	724	26
192	408	311
193	997	837
194	184	61
195	961	266
196	662	607
197	599	563
198	837	141
199	593	763
200	275	46
201	484	178
202	858	29
203	731	516
204	666	722
205	981	276
206	189	302
207	328	299
208	947	806
209	205	868
210	721	893
211	702	82
212	929	706
213	47	324
214	76	297
215	977	592
216	241	729
217	373	198
218	958	194
219	223	405
220	699	644
221	579	281
222	836	26
223	200	640
224	603	627
225	556	603
226	818	956
227	824	15
228	623	503
229	716	211
230	139	312
231	34	841
232	220	649
233	720	53
234	448	588
235	157	3
236	678	737
237	539	396
238	804	354
239	905	98
240	684	711
241	856	592
242	73	285
243	514	698
244	406	795
245	467	489
246	550	731
247	99	609
248	483	260
249	423	95
250	434	53
251	615	382
252	703	762
253	872	742
254	785	263
255	196	212
256	31	733
257	192	27
258	94	272
259	926	270
260	324	134
261	878	851
262	991	771
263	469	229
264	460	184
265	449	291
266	95	840
267	628	234
268	320	466
269	51	706
270	849	276
271	611	639
272	193	884
273	333	366
274	561	891
275	802	292
276	183	468
277	56	630
278	812	168
279	732	116
280	151	4
281	401	339
282	541	563
283	503	238
284	570	478
285	567	669
286	626	152
287	368	222
288	463	928
289	639	635
290	126	446
291	869	143
292	823	982
293	970	452
294	585	937
295	861	243
296	603	391
297	729	383
298	100	532
299	590	39
300	990	891
301	280	387
302	486	838
303	753	340
304	316	4
305	883	463
306	606	890
307	834	308
308	948	424
309	823	911
310	880	304
311	158	550
312	205	852
313	288	448
314	776	267
315	91	238
316	744	218
317	419	1
318	885	595
319	789	775
320	632	148
321	694	819
322	600	803
323	800	645
324	514	481
325	615	78
326	448	566
327	77	902
328	971	212
329	652	184
330	859	69
331	82	48
332	701	191
333	830	438
334	979	9
335	923	405
336	94	0
337	880	602
338	12	203
339	838	204
340	614	919
341	352	150
342	741	26
343	808	109
344	58	981
345	221	218
346	367	508
347	421	532
348	542	68
349	323	673
350	908	702
351	678	310
352	401	886
353	692	760
354	781	953
355	407	38
356	551	927
357	900	528
358	227	451
359	458	45
360	226	221
361	720	625
362	675	314
363	237	201
364	704	494
365	455	933
366	136	238
367	729	680
368	44	408
369	357	743
370	591	473
371	428	622
372	726	124
373	636	996
374	6	560
375	611	402
376	697	384
377	89	394
378	80	594
379	552	768
380	307	680
381	871	1
382	715	635
383	83	203
384	62	678
385	287	968
386	934	1
387	662	311
388	550	565
389	343	173
390	90	522
391	277	260
392	255	53
393	928	972
394	27	273
395	440	533
396	577	835
397	471	678
398	617	472
399	569	18
400	942	866
401	232	159
402	342	926
403	541	720
404	861	820
405	282	763
406	601	290
407	29	830
408	311	42
409	310	44
410	80	375
411	703	459
412	517	60
413	643	915
414	757	733
415	148	192
416	145	222
417	295	21
418	73	255
419	924	801
420	363	721
421	971	916
422	48	194
423	349	773
424	382	269
425	554	295
426	578	210
427	655	109
428	503	383
429	314	254
430	162	727
431	800	719
432	261	66
433	839	427
434	470	296
435	529	31
436	447	196
437	59	221
438	538	160
439	493	781
440	605	47
441	486	661
442	971	896
443	179	505
444	668	41
445	936	569
446	957	14
447	979	114
448	500	645
449	234	808
450	799	610
451	789	825
452	94	947
453	738	959
454	260	803
455	780	920
456	265	368
457	537	156
458	357	100
459	97	11
460	192	467
461	400	58
462	129	428
463	105	44
464	339	690
465	993	810
466	422	860
467	24	458
468	637	985
469	417	625
470	154	494
471	629	639
472	972	751
473	501	529
474	980	86
475	30	969
476	249	362
477	157	923
478	269	797
479	868	248
480	305	391
481	549	453
482	389	559
483	883	142
484	753	136
485	366	436
486	400	528
487	201	843
488	238	913
489	672	371
490	597	200
491	88	823
492	108	247
493	32	48
494	472	985
495	133	133
496	340	997
497	49	302
498	453	695
499	790	452
500	99	862
501	762	619
DEMAND_SECTION
1	0
2	6
3	3
4	2
5	7
6	2
7	9
8	1
9	9
10	9
11	5
12	4
13	9
14	5
15	5
16	9
17	3
18	3
19	3
20	2
21	9
22	5
23	3
24	4
25	5
26	9
27	2
28	5
29	9
30	8
31	5
32	3
33	3
34	8
35	9
36	7
37	3
38	3
39	4
40	5
41	1
42	4
43	1
44	6
45	4
46	7
47	9
48	7
49	1
50	9
51	3
52	1
53	2
54	2
55	7
56	8
57	2
58	2
59	8
60	1
61	4
62	1
63	8
64	7
65	3
66	6
67	2
68	3
69	3
70	5
71	9
72	6
73	4
74	2
75	1
76	2
77	6
78	4
79	4
80	5
81	5
82	7
83	8
84	9
85	1
86	7
87	7
88	1
89	8
90	3
91	3
92	8
93	4
94	5
95	7
96	2
97	3
98	3
99	3
100	9
101	8
102	8
103	8
104	3
105	2
106	4
107	7
108	6
109	6
110	6
111	7
112	2
113	2
114	1
115	1
116	1
117	6
118	3
119	4
120	4
121	3
122	2
123	9
124	3
125	8
126	3
127	2
128	2
129	5
130	1
131	6
132	5
133	4
134	7
135	9
136	3
137	4
138	5
139	2
140	2
141	9
142	4
143	7
144	5
145	1
146	7
147	7
148	8
149	1
150	2
151	1
152	5
153	7
154	5
155	5
156	1
157	1
158	8
159	1
160	4
161	2
162	4
163	3
164	3
165	3
166	6
167	7
168	1
169	4
170	7
171	3
172	7
173	1
174	7
175	9
176	5
177	2
178	2
179	2
180	7
181	6
182	7
183	8
184	4
185	5
186	7
187	3
188	4
189	7
190	3
191	6
192	7
193	8
194	9
195	2
196	3
197	8
198	3
199	9
200	3
201	6
202	3
203	4
204	7
205	1
206	1
207	3
208	4
209	7
210	5
211	7
212	2
213	3
214	6
215	9
216	4
217	3
218	9
219	5
220	2
221	6
222	1
223	7
224	6
225	6
226	3
227	3
228	7
229	4
230	4
231	5
232	8
233	7
234	9
235	4
236	9
237	9
238	2
239	5
240	3
241	4
242	6
243	5
244	7
245	6
246	2
247	3
248	2
249	4
250	9
251	9
252	8
253	4
254	6
255	8
256	6
257	5
258	8
259	4
260	4
261	9
262	2
263	3
264	1
265	9
266	8
267	4
268	5
269	1
270	2
271	8
272	7
273	8
274	6
275	2
276	8
277	6
278	8
279	6
280	1
281	4
282	1
283	3
284	6
285	6
286	3
287	4
288	8
289	2
290	3
291	6
292	1
293	6
294	4
295	1
296	1
297	5
298	8
299	5
300	5
301	6
302	4
303	7
304	6
305	2
306	5
307	6
308	3
309	6
310	1
311	3
312	2
313	9
314	5
315	4
316	1
317	5
318	8
319	2
320	8
321	7
322	7
323	5
324	8
325	3
326	4
327	5
328	2
329	7
330	9
331	8
332	6
333	7
334	2
335	1
336	8
337	9
338	3
339	3
340	2
341	3
342	8
343	9
344	8
345	6
346	3
347	6
348	6
349	3
350	3
351	3
352	4
353	1
354	3
355	4
356	7
357	8
358	6
359	6
360	4
361	7
362	2
363	5
364	8
365	6
366	3
367	2
368	3
369	3
370	8
371	1
372	3
373	7
374	5
375	4
376	5
377	6
378	3
379	6
380	1
381	3
382	4
383	5
384	4
385	1
386	3
387	7
388	5
389	7
390	2
391	3
392	8
393	6
394	2
395	7
396	6
397	4
398	8
399	2
400	4
401	9
402	5
403	7
404	8
405	7
406	9
407	8
408	6
409	2
410	9
411	7
412	1
413	2
414	6
415	8
416	3
417	7
418	5
419	4
420	7
421	6
422	8
423	4
424	8
425	5
426	2
427	2
428	2
429	6
430	4
431	6
432	2
433	9
434	3
435	7
436	6
437	4
438	7
439	4
440	1
441	6
442	1
443	1
444	3
445	5
446	5
447	6
448	1
449	7
450	8
451	9
452	8
453	4
454	1
455	2
456	3
457	6
458	6
459	8
460	7
461	3
462	1
463	8
464	7
465	4
466	6
467	3
468	2
469	2
470	1
471	3
472	1
473	2
474	5
475	9
476	5
477	3
478	6
479	2
480	7
481	1
482	8
483	1
484	1
485	5
486	6
487	6
488	4
489	2
490	3
491	1
492	9
493	5
494	7
495	1
496	5
497	3
498	2
499	9
500	8
501	1
TIME_WINDOW_SECTION
1	0	3000
2	1005	1395
3	1510	3000
4	1456	2160
5	2048	2568
6	180	2124
7	276	1464
8	303	1283
9	1339	2289
10	508	1110
11	913	1719
12	1098	2630
13	700	906
14	1042	1413
15	0	1134
16	583	2511
17	1104	2391
18	1136	2295
19	1227	2971
20	1173	1512
21	1478	2453
22	639	1647
23	622	1322
24	172	1271
25	1920	2300
26	1240	1482
27	2196	2473
28	1046	2109
29	222	1502
30	1076	2587
31	1662	3000
32	987	2158
33	1348	1757
34	456	2148
35	937	2647
36	1591	1842
37	0	1253
38	1896	2715
39	1062	1869
40	1489	2035
41	1001	2980
42	1129	2790
43	1807	2257
44	413	1619
45	353	979
46	306	989
47	1581	1838
48	56	2029
49	926	1952
50	1181	1770
51	1822	2950
52	1145	1437
53	0	811
54	1435	1847
55	1460	2636
56	468	2058
57	240	1839
58	1201	1998
59	1292	2842
60	1362	2223
61	904	2025
62	1978	2544
63	653	1510
64	0	1770
65	1868	2242
66	774	1731
67	442	1174
68	1266	2813
69	183	2106
70	307	839
71	1062	1354
72	1255	2835
73	1264	2211
74	624	2470
75	210	1362
76	1155	2314
77	1319	2161
78	1298	1588
79	589	1720
80	1682	3000
81	603	1855
82	0	1184
83	444	1320
84	0	1104
85	713	1026
86	1062	1312
87	1028	2500
88	677	2336
89	321	1930
90	113	1866
91	657	2078
92	827	1217
93	15	1698
94	514	1774
95	858	1253
96	227	1544
97	997	1850
98	1749	2979
99	1547	1777
100	0	1616
101	480	1666
102	1493	1787
103	260	538
104	997	2923
105	1063	2549
106	668	1743
107	287	1175
108	506	843
109	643	1303
110	1201	1957
111	0	1027
112	1057	2984
113	1102	1760
114	220	1026
115	551	1710
116	778	1145
117	1364	2085
118	241	674
119	1156	1439
120	1545	2024
121	262	1353
122	863	1650
123	1089	2427
124	1445	2310
125	1428	2533
126	153	1640
127	123	1992
128	902	1533
129	0	1571
130	1356	2654
131	2104	2783
132	1399	2307
133	884	1911
134	172	1786
135	1001	1703
136	422	2121
137	581	2121
138	404	1491
139	1215	2406
140	255	1216
141	609	2443
142	1161	1967
143	1153	2129
144	143	424
145	904	2175
146	0	1305
147	612	2449
148	183	766
149	237	1840
150	436	1605
151	953	1655
152	907	1572
153	728	1442
154	897	1906
155	312	1381
156	0	1786
157	1682	2099
158	76	1201
159	1988	2233
160	1363	2439
161	200	2111
162	0	755
163	188	2110
164	1634	1867
165	1969	2868
166	122	689
167	1621	2469
168	1110	1598
169	0	1478
170	1271	2006
171	1384	2315
172	621	1498
173	371	1379
174	1704	3000
175	1186	1691
176	1439	1839
177	1061	1966
178	1552	2436
179	124	1704
180	1419	1897
181	442	1806
182	684	1220
183	468	775
184	70	1899
185	1320	3000
186	242	1662
187	0	1172
188	877	2586
189	1306	2651
190	235	1578
191	161	2059
192	1329	1991
193	795	1601
194	1039	2760
195	1122	2760
196	1125	2613
197	0	1028
198	1041	2519
199	0	1293
200	1229	1470
201	986	2117
202	374	1810
203	0	1127
204	1092	3000
205	808	2767
206	1155	2482
207	1257	2195
208	954	2885
209	437	1479
210	0	1063
211	654	1339
212	1450	1888
213	97	1588
214	666	2133
215	547	979
216	1732	3000
217	563	2155
218	727	2486
219	343	1444
220	1180	2482
221	470	1341
222	836	2138
223	79	1981
224	301	2199
225	2145	2800
226	463	1460
227	1210	1475
228	1419	3000
229	609	1665
230	732	2280
231	118	950
232	1084	1450
233	1615	1832
234	41	1835
235	521	1606
236	1068	1572
237	1364	2957
238	1336	2374
239	942	2834
240	868	1093
241	1633	2735
242	694	1316
243	2047	3000
244	1357	2269
245	237	1307
246	232	900
247	555	1742
248	426	1386
249	533	1273
250	850	2701
251	1306	2793
252	0	1356
253	279	1594
254	64	2027
255	447	1303
256	941	2318
257	977	2091
258	1486	2481
259	1193	2131
260	753	1186
261	1113	1833
262	668	1115
263	1439	1712
264	907	2746
265	480	1003
266	1046	2434
267	1150	1572
268	1421	2335
269	1561	1963
270	811	1636
271	642	1472
272	1211	1709
273	1527	2919
274	0	610
275	683	1001
276	430	2331
277	633	1921
278	587	2293
279	1174	2674
280	472	1980
281	43	1621
282	514	2339
283	563	2448
284	0	1052
285	481	1983
286	1553	2209
287	576	2043
288	60	432
289	425	1484
290	381	2118
291	868	2085
292	338	2155
293	1662	2288
294	1853	2556
295	578	2476
296	1361	2901
297	976	1430
298	481	1386
299	85	1669
300	158	1434
301	127	1323
302	0	523
303	1401	2881
304	865	2615
305	1016	2772
306	904	2554
307	1607	2029
308	1094	2320
309	414	784
310	604	1356
311	424	2197
312	0	932
313	86	1156
314	273	1467
315	0	1905
316	48	1964
317	547	2345
318	1266	2818
319	1283	2130
320	246	1715
321	833	1768
322	239	632
323	1910	2455
324	1211	2546
325	380	1604
326	783	1313
327	674	2083
328	1153	2175
329	146	1301
330	1262	1695
331	515	2166
332	352	2308
333	1424	2619
334	630	1719
335	843	1250
336	1351	1838
337	1331	1556
338	15	1604
339	1181	2069
340	1810	2956
341	1875	2253
342	991	2558
343	1112	2218
344	516	2423
345	775	1120
346	1415	3000
347	736	1497
348	880	2837
349	524	919
350	252	2006
351	359	1297
352	253	2232
353	1223	1579
354	227	1919
355	662	1382
356	1444	1681
357	11	1688
358	805	1847
359	1142	2100
360	571	1459
361	1207	2847
362	887	1799
363	915	2850
364	0	1641
365	1527	3000
366	964	1476
367	820	2307
368	1401	2599
369	270	1687
370	678	1807
371	1887	2273
372	1124	2358
373	129	2008
374	1405	2967
375	567	1438
376	901	2599
377	259	1190
378	379	1958
379	769	2643
380	670	2345
381	1438	1715
382	1003	1323
383	1688	2269
384	707	1820
385	2083	2602
386	749	1960
387	1215	2082
388	677	1405
389	1675	2110
390	497	1960
391	1058	2667
392	892	1663
393	492	2298
394	114	1656
395	706	1993
396	1553	2959
397	232	1267
398	909	1908
399	1367	2059
400	1544	2862
401	1218	2662
402	707	1072
403	1097	2282
404	340	1809
405	0	1213
406	256	1592
407	1856	2179
408	610	2472
409	302	1720
410	1072	3000
411	1132	1653
412	1143	2025
413	1853	3000
414	0	1124
415	23	1592
416	789	2017
417	0	1916
418	1417	2360
419	0	1536
420	1624	2862
421	151	1992
422	1082	1417
423	1452	3000
424	426	1849
425	881	2565
426	1539	2410
427	403	1223
428	430	1263
429	378	1377
430	1334	2033
431	368	788
432	1504	2061
433	1463	2079
434	1681	2173
435	1300	2039
436	849	2695
437	1217	2606
438	841	1852
439	0	1404
440	955	1949
441	885	2581
442	636	2380
443	713	1362
444	540	2302
445	670	1152
446	888	2112
447	997	1356
448	1714	2031
449	2034	2778
450	1355	3000
451	1300	2913
452	208	802
453	615	1658
454	1476	3000
455	433	1898
456	1308	2003
457	729	954
458	1587	1929
459	118	1960
460	1075	1390
461	480	1365
462	1729	2315
463	1386	2394
464	2174	2729
465	1135	2952
466	1404	2480
467	382	1422
468	723	1818
469	0	926
470	1423	1838
471	0	1086
472	293	1925
473	1338	2199
474	941	1587
475	1238	2246
476	1539	1855
477	1973	2658
478	1987	3000
479	1659	2139
480	1390	1725
481	202	1829
482	187	1047
483	843	1198
484	1560	2186
485	763	2102
486	0	936
487	0	1382
488	1186	2379
489	1801	2340
490	897	2557
491	899	1926
492	1510	2297
493	716	1710
494	2265	2746
495	1094	2073
496	1400	2573
497	428	2154
498	0	1053
499	1019	2583
500	1920	2605
501	1804	2178
BACKHAUL_SECTION
4	11	21	24	27	32	38	43	51	57	61	68	76	77	83	84	101	103	115	119	120	123	132	133	136	145	152	167	169	172	173	182	183	186	188	191	204	210	211	212	216	218	237	241	245	255	258	264	265	267	279	281	283	295	296	297	299	301	308	312	313	320	325	328	337	338	350	371	382	385	390	394	400	413	415	425	432	436	442	450	451	452	458	459	466	471	473	476	477	478	482	484	485	486	490	491	492	495	497	498	-1
DEPOT_SECTION
1
-1
EOF
