NAME : n1001-0047
COMMENT : "Generated by pyvrp_manuel (OVRPBL)"
TYPE : OVRPBL
DIMENSION : 1001
EDGE_WEIGHT_TYPE : EUC_2D
CAPACITY : 150
VEHICLES : 1000
OPEN_ROUTE : YES
DISTANCE : 3000
NODE_COORD_SECTION
1	484	115
2	245	628
3	15	767
4	185	329
5	244	140
6	550	129
7	641	530
8	837	971
9	853	969
10	561	6
11	905	140
12	419	525
13	760	63
14	616	934
15	967	640
16	968	871
17	895	326
18	593	317
19	903	651
20	386	102
21	57	480
22	380	688
23	59	173
24	444	112
25	523	389
26	390	149
27	757	958
28	630	824
29	520	901
30	87	427
31	199	319
32	745	773
33	491	925
34	782	843
35	980	174
36	548	218
37	319	541
38	494	373
39	808	56
40	745	587
41	237	307
42	644	34
43	287	539
44	752	411
45	247	739
46	414	742
47	330	1000
48	870	881
49	4	338
50	74	138
51	661	835
52	725	554
53	712	496
54	194	324
55	557	340
56	547	131
57	860	947
58	809	177
59	237	866
60	700	115
61	331	852
62	449	4
63	861	233
64	326	828
65	155	643
66	453	433
67	10	397
68	834	830
69	821	777
70	762	24
71	596	579
72	275	254
73	791	896
74	138	528
75	297	147
76	955	937
77	63	444
78	755	316
79	61	93
80	175	261
81	937	337
82	400	329
83	148	210
84	422	620
85	350	990
86	638	0
87	184	762
88	981	903
89	45	268
90	145	20
91	787	176
92	450	821
93	531	339
94	346	839
95	87	31
96	419	847
97	493	434
98	538	588
99	38	452
100	171	461
101	575	411
102	28	750
103	433	586
104	942	647
105	278	773
106	900	879
107	980	516
108	435	66
109	781	968
110	528	592
111	147	46
112	534	700
113	381	453
114	709	489
115	276	491
116	473	824
117	835	38
118	989	347
119	594	807
120	419	354
121	639	844
122	561	303
123	4	789
124	25	571
125	423	261
126	26	578
127	14	883
128	169	947
129	869	51
130	81	305
131	385	118
132	315	754
133	994	726
134	320	371
135	814	91
136	991	62
137	420	511
138	727	2
139	954	304
140	610	186
141	85	553
142	499	738
143	266	54
144	271	252
145	330	78
146	52	547
147	331	529
148	960	932
149	218	387
150	289	100
151	706	274
152	198	123
153	710	640
154	563	537
155	506	945
156	172	916
157	685	587
158	713	454
159	977	932
160	960	397
161	377	293
162	549	680
163	472	374
164	838	381
165	610	491
166	496	14
167	308	309
168	55	365
169	704	838
170	277	757
171	860	564
172	650	951
173	780	262
174	794	600
175	390	852
176	430	246
177	8	335
178	184	523
179	245	183
180	840	391
181	718	975
182	14	584
183	974	474
184	955	651
185	194	50
186	569	676
187	220	935
188	426	887
189	956	32
190	968	504
191	939	474
192	856	879
193	775	67
194	576	935
195	99	295
196	552	629
197	577	603
198	120	6
199	716	850
200	39	955
201	656	435
202	226	343
203	853	164
204	703	245
205	347	202
206	851	479
207	22	754
208	891	726
209	611	166
210	415	204
211	280	241
212	468	383
213	733	760
214	586	971
215	108	903
216	611	180
217	671	503
218	412	528
219	885	595
220	498	529
221	174	876
222	575	12
223	156	596
224	735	157
225	499	297
226	607	690
227	986	552
228	665	450
229	503	726
230	125	623
231	849	528
232	513	453
233	716	821
234	758	407
235	330	880
236	535	249
237	428	748
238	590	627
239	737	488
240	533	793
241	783	713
242	266	387
243	587	583
244	228	104
245	429	666
246	566	21
247	583	185
248	497	984
249	903	98
250	316	898
251	292	545
252	725	292
253	926	816
254	973	329
255	986	774
256	741	305
257	467	247
258	80	814
259	275	712
260	13	481
261	633	253
262	560	365
263	806	815
264	272	207
265	268	731
266	78	854
267	914	596
268	57	521
269	874	447
270	324	244
271	884	259
272	211	871
273	898	471
274	456	571
275	868	752
276	876	988
277	751	131
278	341	602
279	693	376
280	181	625
281	581	738
282	924	249
283	840	423
284	683	857
285	980	906
286	619	260
287	686	810
288	522	49
289	711	272
290	612	825
291	920	369
292	750	598
293	183	699
294	276	149
295	682	689
296	614	501
297	525	327
298	763	498
299	227	444
300	387	857
301	804	103
302	296	303
303	462	481
304	279	769
305	307	890
306	654	884
307	306	519
308	620	335
309	877	116
310	728	750
311	703	834
312	941	410
313	231	425
314	514	752
315	265	822
316	374	874
317	644	140
318	757	183
319	280	89
320	778	554
321	551	117
322	632	131
323	337	855
324	474	258
325	885	604
326	865	134
327	921	116
328	78	814
329	995	787
330	18	622
331	537	686
332	260	792
333	820	663
334	658	862
335	392	259
336	917	34
337	807	893
338	226	206
339	192	462
340	90	678
341	704	506
342	999	24
343	363	395
344	184	253
345	323	34
346	702	594
347	921	677
348	591	12
349	607	683
350	711	916
351	354	675
352	111	396
353	258	475
354	675	354
355	369	861
356	889	914
357	941	406
358	365	920
359	850	8
360	936	960
361	973	324
362	97	284
363	318	874
364	90	720
365	297	836
366	62	606
367	949	684
368	198	717
369	341	37
370	159	250
371	665	98
372	896	312
373	35	960
374	317	167
375	455	219
376	352	191
377	830	246
378	714	591
379	868	114
380	532	478
381	490	200
382	595	851
383	11	222
384	445	767
385	241	898
386	777	827
387	334	750
388	508	316
389	399	315
390	290	61
391	996	365
392	876	988
393	722	205
394	296	792
395	801	693
396	5	477
397	992	610
398	131	408
399	33	309
400	496	804
401	875	672
402	240	681
403	85	77
404	268	195
405	944	399
406	656	330
407	637	142
408	50	223
409	55	301
410	121	501
411	2	221
412	321	687
413	177	355
414	181	378
415	593	753
416	862	968
417	640	444
418	232	567
419	10	117
420	949	334
421	997	550
422	161	608
423	257	797
424	915	945
425	296	991
426	991	820
427	535	720
428	304	135
429	23	184
430	200	131
431	247	638
432	666	102
433	24	574
434	758	740
435	839	434
436	773	304
437	448	2
438	85	13
439	555	422
440	647	700
441	301	99
442	855	110
443	745	835
444	292	210
445	827	100
446	523	951
447	965	552
448	425	441
449	127	589
450	936	240
451	361	576
452	190	177
453	267	311
454	706	893
455	503	734
456	498	693
457	74	32
458	101	125
459	565	25
460	812	377
461	903	916
462	758	918
463	445	553
464	105	862
465	101	909
466	346	781
467	465	292
468	85	153
469	530	177
470	814	76
471	544	728
472	327	728
473	272	896
474	683	459
475	126	611
476	248	922
477	349	667
478	697	289
479	484	697
480	622	537
481	303	335
482	541	852
483	571	336
484	910	885
485	718	463
486	414	22
487	629	292
488	589	847
489	318	746
490	278	526
491	184	732
492	748	54
493	552	118
494	216	931
495	280	687
496	383	628
497	39	398
498	910	997
499	876	378
500	792	553
501	77	491
502	429	301
503	547	984
504	910	920
505	226	497
506	540	123
507	811	340
508	27	180
509	852	408
510	514	706
511	555	116
512	393	265
513	600	728
514	634	179
515	659	861
516	595	230
517	214	15
518	912	322
519	74	29
520	635	869
521	912	252
522	735	709
523	463	123
524	531	214
525	788	257
526	569	876
527	473	279
528	309	261
529	217	565
530	215	330
531	188	737
532	505	797
533	235	467
534	522	875
535	802	667
536	920	632
537	692	913
538	984	184
539	3	461
540	457	206
541	705	690
542	229	717
543	471	341
544	814	803
545	468	197
546	396	637
547	934	167
548	186	839
549	342	953
550	91	631
551	950	808
552	134	814
553	491	714
554	310	712
555	638	221
556	897	226
557	30	224
558	230	284
559	925	215
560	238	550
561	128	809
562	642	954
563	392	920
564	49	647
565	265	79
566	913	536
567	93	752
568	513	310
569	646	312
570	268	507
571	278	625
572	91	720
573	516	220
574	634	35
575	797	821
576	779	550
577	903	842
578	43	131
579	689	267
580	239	336
581	56	20
582	420	367
583	167	214
584	53	777
585	851	526
586	6	231
587	432	444
588	465	181
589	172	324
590	912	940
591	882	109
592	478	758
593	465	559
594	982	665
595	46	346
596	229	525
597	950	474
598	894	558
599	243	343
600	801	159
601	189	402
602	531	754
603	729	780
604	230	307
605	971	947
606	454	586
607	285	44
608	92	798
609	346	157
610	621	117
611	721	652
612	78	609
613	841	256
614	851	518
615	972	460
616	394	787
617	448	788
618	544	785
619	173	978
620	84	329
621	904	471
622	74	973
623	744	120
624	208	13
625	223	666
626	990	127
627	601	982
628	651	658
629	957	167
630	47	146
631	160	999
632	930	805
633	440	588
634	938	248
635	237	36
636	864	830
637	312	711
638	329	878
639	644	557
640	743	785
641	685	831
642	787	367
643	584	35
644	564	656
645	87	385
646	133	269
647	94	47
648	778	408
649	958	894
650	371	974
651	213	914
652	202	769
653	491	745
654	327	899
655	932	302
656	619	880
657	355	934
658	185	533
659	876	213
660	481	859
661	234	754
662	605	746
663	674	52
664	627	105
665	22	143
666	815	872
667	282	297
668	395	890
669	530	855
670	75	276
671	745	505
672	596	152
673	4	493
674	940	871
675	601	36
676	821	774
677	242	606
678	240	149
679	748	100
680	769	244
681	28	847
682	657	277
683	624	621
684	163	462
685	851	950
686	605	524
687	945	856
688	961	401
689	735	977
690	52	126
691	214	665
692	144	832
693	281	334
694	332	225
695	368	566
696	410	259
697	36	626
698	114	754
699	424	680
700	356	895
701	331	317
702	387	672
703	170	48
704	962	490
705	461	553
706	147	399
707	668	171
708	68	818
709	352	552
710	166	452
711	332	204
712	649	112
713	95	760
714	380	91
715	708	386
716	791	764
717	214	147
718	264	221
719	860	474
720	557	490
721	642	712
722	658	922
723	574	436
724	768	804
725	932	811
726	742	768
727	512	481
728	301	673
729	125	90
730	555	565
731	432	140
732	228	906
733	742	878
734	146	902
735	231	89
736	9	418
737	714	394
738	316	120
739	140	903
740	894	223
741	736	602
742	130	995
743	415	372
744	521	339
745	911	17
746	525	836
747	815	329
748	882	285
749	181	197
750	594	144
751	210	597
752	815	979
753	313	991
754	610	987
755	286	636
756	217	434
757	308	722
758	937	933
759	192	22
760	871	730
761	290	774
762	5	765
763	793	147
764	306	90
765	170	781
766	825	663
767	212	922
768	955	234
769	82	798
770	107	647
771	777	645
772	126	908
773	950	864
774	905	400
775	466	90
776	815	889
777	744	537
778	374	996
779	371	891
780	967	313
781	594	212
782	85	494
783	574	846
784	36	199
785	674	404
786	835	847
787	724	891
788	128	647
789	306	270
790	558	227
791	409	882
792	90	504
793	441	371
794	511	632
795	565	824
796	700	80
797	298	490
798	126	140
799	475	553
800	66	379
801	178	800
802	643	61
803	784	453
804	25	796
805	391	556
806	395	454
807	211	333
808	717	863
809	9	601
810	61	530
811	716	657
812	478	496
813	948	662
814	179	749
815	22	255
816	144	467
817	981	643
818	264	370
819	487	818
820	424	624
821	859	32
822	772	550
823	92	394
824	822	833
825	734	611
826	536	473
827	968	314
828	771	116
829	107	577
830	603	441
831	87	618
832	797	138
833	470	27
834	221	361
835	600	133
836	374	265
837	350	96
838	168	507
839	444	469
840	341	971
841	710	673
842	916	872
843	147	983
844	128	476
845	596	187
846	492	766
847	262	322
848	612	211
849	720	889
850	780	975
851	521	86
852	912	707
853	783	471
854	303	1000
855	581	357
856	283	353
857	656	805
858	534	84
859	621	965
860	534	11
861	533	359
862	656	815
863	757	197
864	813	425
865	153	48
866	429	225
867	487	958
868	484	335
869	298	277
870	866	542
871	632	818
872	597	917
873	445	29
874	100	614
875	183	128
876	757	456
877	346	414
878	143	679
879	535	716
880	746	771
881	572	225
882	712	474
883	470	520
884	813	155
885	920	616
886	861	502
887	737	738
888	537	607
889	248	74
890	47	364
891	360	997
892	902	144
893	992	308
894	435	600
895	147	863
896	942	405
897	631	258
898	644	797
899	46	671
900	63	628
901	835	809
902	198	324
903	372	910
904	919	508
905	4	866
906	538	552
907	680	632
908	970	462
909	22	299
910	489	696
911	273	306
912	418	978
913	870	454
914	445	551
915	399	811
916	799	293
917	298	948
918	147	869
919	887	495
920	770	990
921	855	577
922	670	940
923	303	853
924	856	586
925	87	542
926	616	152
927	468	284
928	283	784
929	86	558
930	876	980
931	636	666
932	10	28
933	979	622
934	367	212
935	80	243
936	911	312
937	851	494
938	811	844
939	862	5
940	374	650
941	121	726
942	712	945
943	569	273
944	351	250
945	172	177
946	728	829
947	473	452
948	815	51
949	878	370
950	442	190
951	611	439
952	438	992
953	756	846
954	498	894
955	125	243
956	122	381
957	274	866
958	509	978
959	36	599
960	909	917
961	8	314
962	433	443
963	638	912
964	262	645
965	172	173
966	459	89
967	886	805
968	163	656
969	465	447
970	920	436
971	660	886
972	114	623
973	923	533
974	379	501
975	808	31
976	115	783
977	366	604
978	290	692
979	627	143
980	585	178
981	35	102
982	426	124
983	387	836
984	860	816
985	742	833
986	507	831
987	485	610
988	664	298
989	268	571
990	228	752
991	267	619
992	924	732
993	951	10
994	733	432
995	390	992
996	804	700
997	563	510
998	381	995
999	101	444
1000	925	728
1001	365	4
DEMAND_SECTION
1	0
2	2
3	4
4	1
5	3
6	6
7	9
8	9
9	8
10	9
11	6
12	8
13	1
14	2
15	9
16	9
17	1
18	1
19	1
20	7
21	2
22	4
23	5
24	8
25	8
26	9
27	6
28	1
29	6
30	3
31	6
32	4
33	1
34	4
35	2
36	7
37	7
38	2
39	9
40	7
41	7
42	2
43	1
44	2
45	8
46	4
47	4
48	2
49	8
50	9
51	4
52	1
53	2
54	6
55	5
56	2
57	2
58	8
59	2
60	4
61	2
62	6
63	9
64	3
65	1
66	2
67	7
68	3
69	2
70	1
71	7
72	6
73	6
74	2
75	1
76	5
77	5
78	3
79	2
80	6
81	9
82	7
83	9
84	8
85	2
86	9
87	1
88	3
89	2
90	3
91	1
92	3
93	3
94	1
95	2
96	5
97	7
98	9
99	1
100	6
101	9
102	4
103	3
104	7
105	9
106	4
107	3
108	4
109	1
110	5
111	5
112	7
113	8
114	5
115	6
116	1
117	6
118	6
119	3
120	3
121	5
122	2
123	4
124	2
125	8
126	5
127	1
128	3
129	8
130	7
131	8
132	3
133	4
134	5
135	5
136	8
137	2
138	3
139	7
140	8
141	7
142	9
143	3
144	1
145	4
146	8
147	2
148	7
149	9
150	2
151	8
152	5
153	2
154	9
155	5
156	3
157	1
158	2
159	5
160	4
161	2
162	6
163	5
164	8
165	3
166	3
167	3
168	4
169	2
170	8
171	1
172	8
173	2
174	8
175	9
176	7
177	3
178	9
179	1
180	3
181	6
182	6
183	3
184	4
185	6
186	3
187	1
188	8
189	8
190	4
191	4
192	9
193	9
194	5
195	6
196	9
197	9
198	7
199	4
200	8
201	1
202	1
203	4
204	7
205	3
206	8
207	9
208	7
209	9
210	8
211	6
212	9
213	1
214	6
215	5
216	5
217	3
218	6
219	3
220	9
221	4
222	8
223	7
224	3
225	7
226	3
227	3
228	2
229	6
230	7
231	6
232	3
233	4
234	2
235	8
236	1
237	6
238	7
239	9
240	8
241	7
242	5
243	2
244	8
245	7
246	8
247	3
248	3
249	9
250	2
251	3
252	7
253	5
254	6
255	4
256	6
257	8
258	6
259	8
260	5
261	1
262	5
263	5
264	7
265	6
266	4
267	1
268	6
269	6
270	3
271	7
272	1
273	6
274	8
275	2
276	7
277	6
278	3
279	1
280	6
281	3
282	1
283	9
284	1
285	2
286	7
287	4
288	1
289	8
290	1
291	2
292	2
293	9
294	8
295	8
296	5
297	8
298	8
299	1
300	3
301	4
302	7
303	1
304	5
305	8
306	6
307	2
308	1
309	2
310	7
311	7
312	5
313	4
314	8
315	2
316	5
317	5
318	4
319	5
320	5
321	3
322	1
323	8
324	6
325	3
326	5
327	9
328	4
329	7
330	8
331	9
332	3
333	4
334	9
335	4
336	8
337	3
338	6
339	9
340	3
341	4
342	6
343	5
344	3
345	7
346	2
347	2
348	4
349	6
350	8
351	3
352	9
353	6
354	8
355	5
356	6
357	5
358	7
359	7
360	5
361	7
362	1
363	2
364	2
365	4
366	6
367	4
368	4
369	8
370	3
371	5
372	1
373	7
374	2
375	4
376	6
377	8
378	8
379	1
380	2
381	5
382	8
383	8
384	7
385	3
386	7
387	6
388	8
389	7
390	8
391	9
392	8
393	9
394	2
395	1
396	6
397	1
398	4
399	9
400	8
401	1
402	6
403	6
404	5
405	5
406	3
407	6
408	2
409	7
410	8
411	9
412	9
413	1
414	6
415	6
416	7
417	9
418	7
419	1
420	8
421	8
422	8
423	4
424	6
425	2
426	7
427	1
428	2
429	9
430	1
431	2
432	9
433	3
434	2
435	2
436	8
437	9
438	6
439	6
440	7
441	2
442	5
443	2
444	6
445	8
446	4
447	1
448	4
449	6
450	7
451	1
452	3
453	6
454	9
455	6
456	7
457	2
458	7
459	1
460	2
461	1
462	7
463	9
464	2
465	2
466	9
467	9
468	4
469	1
470	8
471	6
472	8
473	8
474	5
475	8
476	5
477	3
478	8
479	9
480	9
481	4
482	6
483	2
484	7
485	2
486	2
487	7
488	8
489	4
490	1
491	6
492	7
493	7
494	5
495	5
496	1
497	5
498	5
499	2
500	1
501	2
502	1
503	4
504	6
505	9
506	3
507	4
508	1
509	1
510	8
511	2
512	7
513	4
514	8
515	7
516	1
517	6
518	2
519	9
520	1
521	5
522	2
523	9
524	7
525	3
526	2
527	5
528	8
529	2
530	9
531	7
532	4
533	9
534	4
535	6
536	6
537	6
538	7
539	5
540	9
541	1
542	3
543	9
544	3
545	6
546	9
547	5
548	2
549	1
550	6
551	2
552	4
553	4
554	1
555	1
556	1
557	1
558	7
559	8
560	4
561	9
562	3
563	9
564	4
565	5
566	1
567	7
568	7
569	8
570	5
571	4
572	7
573	6
574	6
575	3
576	6
577	2
578	6
579	8
580	3
581	5
582	2
583	1
584	8
585	4
586	6
587	9
588	6
589	5
590	5
591	4
592	4
593	9
594	8
595	8
596	3
597	4
598	4
599	1
600	4
601	5
602	4
603	8
604	8
605	7
606	4
607	3
608	6
609	9
610	2
611	1
612	5
613	6
614	7
615	3
616	6
617	7
618	1
619	6
620	6
621	5
622	6
623	5
624	8
625	4
626	7
627	1
628	3
629	8
630	7
631	9
632	7
633	9
634	5
635	7
636	5
637	8
638	3
639	6
640	5
641	6
642	3
643	4
644	7
645	8
646	8
647	7
648	1
649	9
650	3
651	3
652	5
653	2
654	6
655	2
656	9
657	6
658	3
659	1
660	1
661	8
662	8
663	4
664	4
665	3
666	6
667	7
668	3
669	7
670	7
671	5
672	7
673	9
674	9
675	7
676	2
677	9
678	8
679	9
680	7
681	6
682	2
683	9
684	4
685	5
686	4
687	2
688	8
689	5
690	5
691	3
692	8
693	4
694	6
695	4
696	7
697	3
698	6
699	4
700	4
701	2
702	5
703	2
704	2
705	1
706	4
707	3
708	5
709	5
710	5
711	5
712	6
713	1
714	3
715	5
716	5
717	8
718	6
719	7
720	6
721	1
722	2
723	6
724	4
725	8
726	1
727	5
728	4
729	9
730	4
731	5
732	6
733	4
734	1
735	2
736	3
737	3
738	2
739	4
740	1
741	5
742	4
743	5
744	3
745	1
746	5
747	1
748	9
749	3
750	3
751	2
752	2
753	7
754	4
755	1
756	9
757	3
758	1
759	2
760	9
761	9
762	9
763	7
764	5
765	7
766	8
767	7
768	1
769	3
770	1
771	4
772	8
773	7
774	3
775	5
776	8
777	1
778	4
779	1
780	6
781	3
782	7
783	6
784	4
785	4
786	7
787	6
788	6
789	6
790	6
791	9
792	4
793	9
794	5
795	6
796	6
797	5
798	2
799	3
800	4
801	3
802	1
803	4
804	6
805	7
806	3
807	1
808	9
809	3
810	5
811	2
812	1
813	6
814	4
815	6
816	5
817	9
818	3
819	3
820	1
821	8
822	6
823	8
824	8
825	7
826	1
827	6
828	2
829	9
830	1
831	3
832	7
833	9
834	4
835	6
836	6
837	7
838	4
839	9
840	7
841	4
842	5
843	4
844	3
845	2
846	5
847	8
848	1
849	4
850	2
851	8
852	5
853	8
854	3
855	6
856	3
857	4
858	4
859	5
860	5
861	3
862	5
863	7
864	3
865	7
866	4
867	4
868	8
869	1
870	7
871	8
872	4
873	2
874	5
875	4
876	3
877	7
878	3
879	3
880	2
881	2
882	3
883	3
884	3
885	8
886	4
887	1
888	3
889	9
890	5
891	7
892	3
893	9
894	3
895	2
896	3
897	7
898	4
899	4
900	4
901	4
902	1
903	7
904	2
905	9
906	5
907	9
908	5
909	4
910	5
911	3
912	4
913	4
914	7
915	5
916	8
917	3
918	4
919	7
920	8
921	6
922	9
923	5
924	2
925	7
926	1
927	7
928	2
929	4
930	9
931	9
932	7
933	5
934	1
935	1
936	3
937	3
938	4
939	9
940	8
941	2
942	6
943	6
944	1
945	8
946	5
947	8
948	9
949	6
950	8
951	3
952	9
953	2
954	2
955	3
956	5
957	8
958	9
959	1
960	6
961	3
962	3
963	1
964	5
965	7
966	3
967	6
968	6
969	2
970	2
971	9
972	1
973	1
974	4
975	3
976	7
977	7
978	1
979	9
980	3
981	1
982	1
983	1
984	9
985	3
986	3
987	5
988	4
989	2
990	4
991	4
992	4
993	9
994	3
995	6
996	6
997	2
998	4
999	9
1000	3
1001	8
BACKHAUL_SECTION
2	5	6	8	10	23	29	39	42	43	51	66	78	84	85	87	89	91	93	101	110	113	121	123	126	131	136	144	149	150	151	163	164	171	181	183	186	188	194	200	201	211	221	227	238	240	246	251	252	255	261	282	287	291	295	300	303	307	308	318	346	349	356	364	365	376	377	402	407	409	414	419	428	436	450	451	469	471	480	481	483	484	485	488	489	508	509	510	517	524	527	530	534	542	546	547	548	550	551	565	570	588	596	608	609	610	617	620	622	634	640	643	647	655	660	661	669	671	672	679	681	682	688	692	694	695	696	699	701	703	707	708	711	723	724	727	730	738	740	744	745	751	760	763	779	782	785	792	794	795	798	799	804	805	807	810	813	814	822	826	829	831	839	841	843	850	858	865	868	886	887	888	890	893	894	896	899	908	912	915	916	930	931	938	942	950	952	953	967	968	969	974	977	983	986	990	991	992	997	998	-1
DEPOT_SECTION
1
-1
EOF
