NAME : n1001-0006
COMMENT : "Generated by pyvrp_manuel (OVRPBL)"
TYPE : OVRPBL
DIMENSION : 1001
EDGE_WEIGHT_TYPE : EUC_2D
CAPACITY : 150
VEHICLES : 1000
OPEN_ROUTE : YES
DISTANCE : 3000
NODE_COORD_SECTION
1	806	992
2	804	840
3	824	651
4	511	387
5	410	397
6	224	258
7	688	5
8	663	515
9	997	215
10	513	329
11	83	475
12	946	605
13	572	341
14	252	180
15	60	665
16	891	948
17	163	741
18	937	517
19	408	183
20	992	948
21	527	927
22	55	211
23	976	233
24	63	574
25	476	768
26	794	894
27	678	366
28	585	880
29	418	657
30	646	622
31	136	617
32	60	37
33	975	144
34	658	940
35	55	679
36	948	630
37	9	479
38	208	381
39	93	524
40	641	375
41	110	239
42	483	46
43	580	818
44	655	543
45	699	490
46	435	163
47	745	480
48	451	425
49	348	152
50	587	39
51	709	938
52	512	898
53	23	886
54	454	740
55	922	876
56	447	997
57	128	54
58	941	343
59	378	286
60	851	823
61	125	449
62	138	571
63	571	780
64	480	289
65	770	440
66	865	546
67	101	753
68	547	549
69	563	355
70	978	391
71	237	263
72	331	925
73	379	95
74	521	227
75	725	349
76	248	702
77	716	881
78	84	933
79	474	48
80	98	775
81	264	480
82	75	176
83	892	732
84	382	998
85	683	244
86	868	62
87	557	95
88	760	123
89	322	924
90	451	274
91	807	920
92	989	482
93	389	172
94	870	939
95	641	934
96	452	239
97	177	53
98	435	496
99	930	488
100	638	628
101	771	870
102	189	739
103	421	408
104	474	949
105	128	266
106	240	373
107	489	208
108	858	251
109	125	391
110	336	139
111	910	440
112	617	875
113	228	580
114	148	521
115	164	922
116	76	825
117	548	229
118	977	418
119	997	330
120	297	932
121	917	986
122	309	478
123	873	983
124	369	870
125	460	793
126	665	104
127	838	321
128	699	254
129	176	949
130	38	132
131	179	464
132	336	884
133	306	201
134	37	864
135	154	722
136	742	408
137	275	545
138	116	226
139	444	416
140	65	952
141	202	362
142	45	264
143	982	378
144	227	82
145	895	937
146	163	238
147	501	864
148	336	999
149	163	911
150	810	859
151	533	553
152	327	362
153	609	708
154	687	642
155	992	632
156	775	470
157	83	751
158	216	577
159	932	408
160	126	305
161	976	728
162	653	140
163	493	644
164	912	592
165	293	558
166	208	521
167	153	420
168	856	947
169	660	206
170	949	460
171	858	905
172	984	717
173	416	502
174	641	993
175	716	252
176	753	705
177	904	956
178	9	168
179	364	370
180	837	97
181	317	812
182	626	675
183	562	385
184	79	692
185	709	340
186	325	510
187	365	319
188	969	881
189	741	533
190	184	812
191	486	92
192	258	123
193	252	493
194	958	856
195	83	756
196	574	658
197	339	20
198	501	104
199	451	824
200	835	719
201	17	217
202	369	414
203	169	847
204	143	19
205	566	370
206	604	994
207	579	509
208	611	782
209	130	366
210	472	341
211	466	276
212	210	93
213	888	616
214	202	380
215	609	413
216	998	645
217	602	368
218	900	585
219	809	206
220	584	261
221	42	774
222	697	796
223	173	767
224	760	860
225	73	393
226	537	977
227	919	806
228	487	176
229	183	355
230	830	809
231	587	747
232	811	560
233	18	65
234	794	372
235	966	573
236	127	250
237	6	83
238	883	163
239	575	165
240	57	687
241	510	845
242	389	745
243	306	986
244	545	940
245	828	902
246	449	95
247	96	362
248	654	712
249	738	656
250	50	646
251	183	26
252	986	525
253	975	133
254	186	527
255	67	18
256	389	988
257	207	474
258	928	620
259	852	819
260	227	506
261	959	701
262	671	115
263	794	323
264	79	275
265	894	473
266	881	198
267	312	729
268	238	922
269	771	112
270	73	81
271	353	136
272	237	103
273	651	8
274	830	20
275	796	588
276	883	399
277	471	919
278	611	518
279	532	741
280	99	171
281	392	199
282	491	375
283	783	411
284	120	523
285	153	65
286	34	286
287	345	339
288	552	382
289	90	613
290	693	585
291	788	938
292	269	384
293	242	886
294	392	281
295	359	203
296	269	695
297	36	937
298	960	378
299	660	782
300	68	786
301	498	564
302	484	285
303	226	890
304	392	571
305	692	711
306	405	122
307	886	100
308	747	811
309	765	93
310	912	615
311	238	129
312	29	604
313	345	41
314	302	5
315	214	907
316	792	232
317	346	45
318	1	800
319	377	871
320	412	691
321	270	595
322	519	792
323	486	625
324	410	141
325	409	236
326	708	391
327	3	91
328	273	588
329	303	783
330	170	953
331	269	626
332	34	952
333	149	619
334	695	102
335	398	250
336	18	906
337	941	595
338	983	629
339	179	444
340	553	237
341	492	936
342	890	970
343	981	864
344	371	409
345	930	937
346	915	907
347	805	952
348	428	873
349	132	494
350	429	580
351	996	925
352	364	854
353	173	702
354	504	352
355	446	244
356	58	649
357	504	607
358	491	33
359	45	652
360	691	963
361	843	217
362	996	724
363	455	363
364	198	486
365	573	269
366	219	253
367	657	773
368	404	773
369	392	962
370	112	642
371	239	254
372	655	257
373	813	104
374	84	902
375	311	984
376	393	651
377	704	898
378	486	407
379	547	16
380	441	293
381	664	379
382	880	337
383	201	418
384	49	605
385	92	486
386	533	658
387	740	875
388	598	179
389	917	473
390	775	476
391	608	511
392	695	17
393	254	792
394	680	835
395	170	478
396	186	941
397	517	745
398	151	241
399	318	638
400	575	714
401	83	328
402	133	196
403	875	381
404	150	977
405	972	843
406	783	101
407	850	501
408	967	425
409	719	636
410	655	679
411	869	564
412	595	665
413	910	272
414	573	229
415	862	778
416	36	698
417	90	251
418	597	557
419	678	123
420	869	129
421	644	562
422	526	653
423	400	382
424	471	517
425	927	119
426	682	781
427	852	791
428	572	868
429	219	186
430	665	415
431	977	588
432	877	476
433	739	986
434	638	955
435	47	482
436	970	16
437	84	579
438	362	837
439	497	349
440	450	590
441	59	508
442	922	584
443	667	861
444	144	444
445	279	202
446	852	907
447	561	835
448	974	871
449	770	535
450	563	943
451	998	303
452	988	349
453	755	548
454	441	683
455	131	299
456	448	591
457	207	708
458	85	950
459	575	736
460	401	728
461	368	327
462	970	616
463	5	876
464	35	336
465	31	564
466	403	252
467	1	731
468	385	402
469	611	32
470	815	519
471	288	169
472	846	778
473	104	964
474	461	217
475	454	453
476	583	487
477	177	791
478	101	312
479	726	833
480	426	531
481	75	572
482	405	182
483	113	934
484	370	45
485	564	86
486	895	910
487	18	260
488	371	204
489	400	636
490	815	840
491	144	482
492	571	911
493	186	67
494	720	452
495	16	296
496	487	645
497	799	645
498	239	82
499	980	258
500	141	713
501	67	309
502	834	787
503	961	14
504	991	465
505	574	262
506	960	524
507	145	406
508	285	722
509	197	670
510	26	266
511	839	517
512	387	10
513	777	243
514	370	204
515	970	54
516	853	301
517	842	502
518	901	774
519	151	922
520	708	700
521	974	16
522	312	652
523	982	219
524	630	507
525	49	967
526	329	395
527	705	708
528	837	911
529	127	251
530	308	278
531	460	938
532	573	941
533	71	234
534	573	263
535	757	886
536	900	660
537	785	551
538	741	722
539	620	681
540	858	333
541	72	750
542	448	646
543	959	162
544	510	18
545	441	136
546	802	656
547	443	390
548	916	77
549	114	839
550	607	475
551	83	942
552	402	524
553	798	269
554	256	546
555	723	172
556	598	867
557	988	582
558	218	767
559	649	587
560	236	788
561	122	967
562	372	304
563	275	966
564	884	107
565	617	733
566	760	703
567	80	492
568	302	385
569	849	40
570	185	733
571	605	644
572	680	33
573	855	345
574	537	690
575	997	308
576	374	129
577	358	333
578	541	546
579	285	173
580	755	826
581	122	51
582	72	758
583	858	155
584	678	438
585	166	411
586	184	902
587	532	366
588	206	608
589	329	653
590	304	286
591	346	710
592	346	423
593	164	933
594	886	833
595	943	120
596	745	652
597	32	311
598	650	312
599	346	204
600	961	983
601	137	82
602	754	415
603	261	504
604	619	817
605	458	977
606	837	88
607	98	475
608	932	133
609	309	30
610	33	59
611	676	192
612	603	454
613	868	722
614	933	48
615	982	50
616	81	72
617	167	176
618	557	26
619	872	470
620	502	115
621	984	753
622	159	628
623	713	348
624	587	77
625	37	544
626	660	578
627	780	126
628	69	422
629	526	57
630	415	588
631	389	821
632	595	60
633	870	770
634	383	925
635	245	508
636	587	581
637	231	426
638	445	267
639	388	682
640	290	439
641	549	930
642	441	781
643	486	484
644	530	771
645	94	826
646	630	967
647	935	446
648	106	856
649	598	201
650	950	368
651	651	851
652	652	271
653	994	974
654	130	339
655	213	867
656	825	454
657	647	15
658	245	422
659	851	371
660	988	695
661	242	607
662	597	899
663	591	791
664	689	832
665	799	624
666	65	363
667	502	408
668	978	517
669	371	320
670	55	953
671	949	810
672	54	483
673	920	794
674	437	785
675	418	300
676	314	523
677	420	302
678	427	688
679	818	90
680	849	718
681	423	345
682	205	62
683	605	713
684	368	265
685	894	715
686	32	373
687	77	179
688	603	976
689	756	250
690	920	405
691	992	349
692	497	134
693	72	38
694	201	418
695	793	741
696	932	294
697	940	493
698	873	414
699	666	52
700	439	149
701	560	556
702	431	606
703	170	927
704	296	41
705	863	765
706	484	650
707	624	246
708	965	488
709	460	660
710	27	823
711	888	321
712	984	2
713	890	610
714	580	734
715	727	283
716	985	359
717	190	165
718	123	7
719	901	481
720	595	96
721	350	389
722	833	927
723	795	672
724	269	636
725	265	340
726	125	205
727	442	422
728	639	811
729	653	74
730	559	414
731	729	264
732	282	915
733	761	842
734	750	839
735	702	2
736	994	455
737	978	74
738	758	362
739	151	189
740	870	543
741	217	549
742	725	296
743	748	834
744	948	228
745	298	72
746	977	696
747	57	739
748	119	94
749	245	547
750	149	66
751	473	734
752	601	660
753	397	804
754	763	667
755	617	53
756	652	475
757	757	557
758	731	833
759	387	256
760	896	710
761	9	182
762	603	729
763	559	31
764	544	110
765	1	611
766	54	784
767	217	403
768	279	511
769	284	485
770	531	61
771	959	157
772	111	203
773	796	854
774	742	449
775	717	449
776	19	547
777	86	544
778	705	891
779	692	338
780	816	339
781	198	990
782	764	596
783	282	139
784	423	715
785	5	836
786	542	475
787	467	424
788	443	200
789	105	538
790	865	881
791	298	807
792	686	686
793	564	45
794	870	835
795	93	882
796	571	606
797	322	967
798	924	712
799	911	457
800	998	83
801	702	309
802	365	502
803	909	820
804	499	496
805	11	121
806	146	587
807	477	880
808	448	782
809	614	435
810	384	498
811	588	813
812	53	277
813	882	758
814	565	755
815	521	973
816	937	951
817	141	721
818	556	587
819	363	339
820	979	553
821	599	901
822	61	342
823	863	924
824	781	831
825	894	761
826	176	919
827	835	672
828	590	164
829	197	996
830	559	786
831	607	819
832	880	783
833	637	434
834	784	536
835	916	441
836	321	771
837	76	656
838	766	9
839	85	608
840	602	209
841	798	165
842	939	104
843	163	463
844	170	663
845	521	796
846	562	333
847	264	362
848	684	300
849	959	993
850	81	297
851	977	259
852	792	860
853	88	140
854	574	418
855	665	877
856	588	660
857	896	27
858	668	31
859	707	464
860	74	209
861	314	106
862	651	939
863	713	199
864	288	792
865	856	471
866	509	790
867	723	607
868	427	312
869	858	326
870	428	625
871	647	259
872	709	301
873	390	887
874	182	683
875	267	362
876	258	603
877	122	502
878	501	170
879	302	196
880	800	428
881	117	400
882	946	545
883	103	338
884	398	883
885	956	997
886	390	682
887	401	100
888	134	506
889	390	199
890	273	145
891	434	623
892	73	464
893	820	665
894	347	999
895	798	770
896	613	436
897	300	304
898	554	847
899	480	391
900	65	1000
901	422	237
902	871	81
903	399	447
904	166	598
905	830	964
906	40	159
907	839	506
908	554	752
909	872	410
910	777	684
911	184	780
912	287	351
913	262	208
914	389	309
915	742	671
916	779	772
917	392	154
918	640	864
919	659	278
920	309	274
921	163	973
922	510	156
923	64	585
924	425	549
925	878	239
926	95	870
927	719	123
928	59	501
929	951	413
930	520	368
931	686	537
932	273	621
933	282	97
934	719	978
935	941	871
936	765	33
937	104	47
938	819	602
939	875	641
940	503	147
941	165	446
942	281	94
943	444	446
944	451	312
945	593	905
946	992	59
947	865	360
948	784	651
949	418	670
950	539	210
951	317	615
952	905	345
953	200	275
954	441	218
955	358	968
956	801	224
957	841	70
958	159	364
959	473	413
960	213	309
961	465	838
962	846	343
963	585	449
964	405	479
965	560	261
966	933	460
967	728	210
968	557	607
969	961	900
970	227	882
971	382	461
972	38	873
973	888	607
974	696	618
975	690	641
976	408	638
977	136	344
978	662	742
979	183	260
980	997	571
981	510	378
982	281	580
983	712	908
984	727	580
985	200	774
986	500	359
987	677	652
988	56	944
989	639	547
990	90	533
991	563	703
992	301	987
993	455	71
994	274	25
995	120	580
996	351	547
997	213	431
998	188	703
999	13	199
1000	603	35
1001	728	922
DEMAND_SECTION
1	0
2	4
3	9
4	7
5	2
6	9
7	1
8	1
9	1
10	5
11	6
12	8
13	5
14	4
15	1
16	5
17	3
18	8
19	5
20	9
21	1
22	6
23	3
24	4
25	4
26	2
27	2
28	5
29	1
30	7
31	6
32	1
33	6
34	3
35	8
36	7
37	8
38	1
39	2
40	1
41	4
42	3
43	7
44	9
45	3
46	3
47	8
48	2
49	9
50	2
51	4
52	8
53	4
54	9
55	2
56	4
57	3
58	7
59	2
60	3
61	8
62	1
63	5
64	8
65	7
66	5
67	8
68	4
69	7
70	2
71	5
72	7
73	1
74	8
75	1
76	4
77	4
78	3
79	3
80	3
81	5
82	8
83	2
84	9
85	9
86	2
87	2
88	8
89	2
90	4
91	8
92	3
93	6
94	3
95	7
96	3
97	7
98	8
99	7
100	8
101	5
102	5
103	8
104	3
105	3
106	2
107	5
108	9
109	9
110	1
111	1
112	4
113	7
114	2
115	4
116	8
117	6
118	6
119	4
120	5
121	9
122	9
123	3
124	2
125	5
126	5
127	2
128	9
129	5
130	9
131	2
132	6
133	8
134	3
135	5
136	7
137	7
138	2
139	1
140	7
141	4
142	5
143	3
144	9
145	6
146	5
147	7
148	2
149	1
150	7
151	5
152	1
153	9
154	1
155	3
156	8
157	3
158	2
159	8
160	5
161	2
162	6
163	9
164	3
165	7
166	4
167	4
168	5
169	5
170	3
171	5
172	4
173	8
174	7
175	7
176	9
177	2
178	4
179	6
180	2
181	7
182	3
183	7
184	6
185	8
186	2
187	9
188	4
189	4
190	8
191	6
192	8
193	6
194	8
195	4
196	7
197	3
198	8
199	6
200	2
201	2
202	7
203	3
204	2
205	9
206	4
207	6
208	1
209	7
210	9
211	6
212	6
213	9
214	2
215	5
216	8
217	9
218	2
219	9
220	9
221	5
222	1
223	7
224	6
225	3
226	4
227	4
228	8
229	4
230	2
231	7
232	6
233	2
234	6
235	6
236	4
237	5
238	3
239	8
240	3
241	9
242	3
243	1
244	8
245	4
246	9
247	4
248	7
249	9
250	1
251	2
252	6
253	7
254	3
255	4
256	1
257	9
258	9
259	5
260	1
261	7
262	5
263	3
264	5
265	5
266	1
267	7
268	5
269	1
270	5
271	6
272	9
273	6
274	1
275	5
276	4
277	1
278	6
279	7
280	5
281	5
282	3
283	8
284	8
285	4
286	6
287	4
288	4
289	7
290	3
291	2
292	3
293	4
294	7
295	2
296	8
297	4
298	1
299	8
300	4
301	5
302	2
303	7
304	7
305	2
306	3
307	4
308	8
309	8
310	7
311	9
312	4
313	4
314	1
315	9
316	3
317	8
318	9
319	6
320	9
321	6
322	7
323	8
324	6
325	5
326	9
327	9
328	7
329	3
330	7
331	7
332	2
333	9
334	8
335	3
336	2
337	6
338	4
339	6
340	4
341	8
342	5
343	1
344	7
345	7
346	7
347	9
348	1
349	5
350	2
351	6
352	5
353	5
354	5
355	3
356	6
357	8
358	2
359	3
360	6
361	4
362	9
363	2
364	4
365	7
366	4
367	9
368	7
369	1
370	9
371	5
372	7
373	7
374	6
375	1
376	5
377	6
378	1
379	7
380	7
381	4
382	3
383	7
384	6
385	7
386	3
387	9
388	3
389	1
390	2
391	2
392	9
393	7
394	1
395	8
396	1
397	5
398	6
399	8
400	1
401	8
402	1
403	7
404	3
405	4
406	6
407	8
408	3
409	9
410	2
411	8
412	8
413	6
414	1
415	8
416	7
417	4
418	4
419	4
420	4
421	5
422	1
423	4
424	4
425	2
426	6
427	8
428	8
429	6
430	7
431	6
432	3
433	1
434	3
435	4
436	1
437	6
438	8
439	5
440	6
441	8
442	4
443	2
444	1
445	9
446	8
447	8
448	8
449	2
450	7
451	4
452	1
453	7
454	9
455	7
456	5
457	4
458	7
459	8
460	9
461	3
462	3
463	4
464	8
465	4
466	6
467	1
468	5
469	7
470	2
471	1
472	6
473	5
474	4
475	7
476	2
477	6
478	6
479	5
480	7
481	5
482	4
483	7
484	3
485	2
486	6
487	9
488	7
489	6
490	5
491	6
492	5
493	1
494	5
495	9
496	6
497	3
498	3
499	4
500	9
501	1
502	4
503	2
504	5
505	1
506	1
507	8
508	1
509	2
510	1
511	3
512	3
513	7
514	5
515	6
516	5
517	9
518	6
519	9
520	5
521	1
522	3
523	2
524	3
525	8
526	1
527	4
528	3
529	8
530	1
531	8
532	9
533	1
534	2
535	5
536	8
537	1
538	7
539	4
540	5
541	2
542	5
543	9
544	1
545	4
546	6
547	3
548	7
549	2
550	2
551	3
552	8
553	7
554	1
555	3
556	4
557	5
558	3
559	4
560	3
561	8
562	2
563	6
564	1
565	6
566	9
567	8
568	7
569	9
570	1
571	6
572	8
573	1
574	7
575	2
576	7
577	1
578	7
579	7
580	8
581	1
582	3
583	8
584	7
585	1
586	1
587	9
588	9
589	5
590	5
591	8
592	8
593	6
594	5
595	3
596	5
597	6
598	3
599	1
600	5
601	1
602	9
603	8
604	3
605	6
606	2
607	6
608	8
609	6
610	2
611	7
612	7
613	2
614	5
615	8
616	2
617	6
618	1
619	8
620	2
621	2
622	1
623	3
624	7
625	8
626	6
627	3
628	5
629	1
630	4
631	1
632	9
633	1
634	5
635	7
636	6
637	4
638	5
639	3
640	7
641	6
642	1
643	9
644	5
645	5
646	4
647	2
648	1
649	2
650	1
651	7
652	2
653	7
654	3
655	8
656	2
657	5
658	3
659	2
660	2
661	2
662	5
663	7
664	9
665	2
666	7
667	9
668	2
669	5
670	3
671	5
672	1
673	2
674	6
675	1
676	8
677	7
678	9
679	1
680	6
681	6
682	2
683	4
684	6
685	4
686	4
687	8
688	4
689	4
690	8
691	7
692	1
693	2
694	1
695	5
696	6
697	7
698	7
699	2
700	6
701	5
702	8
703	3
704	5
705	8
706	2
707	5
708	9
709	5
710	3
711	2
712	8
713	9
714	7
715	5
716	9
717	2
718	2
719	5
720	8
721	4
722	4
723	2
724	4
725	4
726	9
727	9
728	6
729	3
730	2
731	7
732	7
733	2
734	3
735	1
736	9
737	5
738	9
739	9
740	5
741	6
742	8
743	5
744	1
745	6
746	5
747	5
748	9
749	4
750	5
751	9
752	8
753	6
754	9
755	6
756	8
757	7
758	7
759	1
760	3
761	1
762	4
763	2
764	9
765	1
766	9
767	8
768	7
769	5
770	9
771	1
772	1
773	5
774	6
775	6
776	3
777	7
778	4
779	7
780	9
781	9
782	2
783	1
784	8
785	7
786	6
787	3
788	4
789	2
790	2
791	2
792	9
793	4
794	7
795	7
796	1
797	9
798	9
799	9
800	9
801	9
802	9
803	8
804	7
805	3
806	8
807	9
808	1
809	3
810	6
811	7
812	3
813	3
814	4
815	4
816	9
817	5
818	2
819	4
820	9
821	8
822	8
823	5
824	6
825	4
826	9
827	2
828	3
829	2
830	8
831	8
832	9
833	9
834	9
835	9
836	7
837	3
838	2
839	9
840	6
841	7
842	3
843	4
844	5
845	9
846	2
847	9
848	6
849	9
850	5
851	1
852	1
853	3
854	8
855	7
856	4
857	4
858	7
859	7
860	2
861	6
862	5
863	1
864	1
865	6
866	3
867	6
868	7
869	1
870	2
871	6
872	9
873	7
874	7
875	2
876	4
877	7
878	4
879	5
880	8
881	4
882	2
883	6
884	5
885	4
886	9
887	6
888	3
889	1
890	8
891	1
892	2
893	7
894	7
895	9
896	3
897	7
898	2
899	6
900	9
901	7
902	5
903	4
904	8
905	2
906	8
907	2
908	1
909	3
910	4
911	9
912	5
913	8
914	5
915	3
916	6
917	9
918	7
919	3
920	8
921	5
922	8
923	1
924	8
925	8
926	2
927	1
928	1
929	2
930	7
931	1
932	8
933	7
934	6
935	3
936	4
937	6
938	9
939	6
940	2
941	9
942	3
943	4
944	7
945	9
946	7
947	7
948	4
949	1
950	9
951	4
952	8
953	1
954	5
955	9
956	3
957	4
958	7
959	7
960	5
961	9
962	9
963	6
964	8
965	7
966	5
967	7
968	8
969	8
970	2
971	4
972	6
973	4
974	7
975	6
976	8
977	6
978	2
979	5
980	2
981	6
982	3
983	1
984	9
985	5
986	4
987	4
988	9
989	2
990	3
991	8
992	2
993	9
994	3
995	9
996	3
997	3
998	5
999	8
1000	5
1001	3
BACKHAUL_SECTION
2	5	6	8	10	23	29	39	42	43	51	66	78	84	85	87	89	91	93	101	110	113	121	123	126	131	136	144	149	150	151	163	164	171	181	183	186	188	194	200	201	211	221	227	238	240	246	251	252	255	261	282	287	291	295	300	303	307	308	318	346	349	356	364	365	376	377	402	407	409	414	419	428	436	450	451	469	471	480	481	483	484	485	488	489	508	509	510	517	524	527	530	534	542	546	547	548	550	551	565	570	588	596	608	609	610	617	620	622	634	640	643	647	655	660	661	669	671	672	679	681	682	688	692	694	695	696	699	701	703	707	708	711	723	724	727	730	738	740	744	745	751	760	763	779	782	785	792	794	795	798	799	804	805	807	810	813	814	822	826	829	831	839	841	843	850	858	865	868	886	887	888	890	893	894	896	899	908	912	915	916	930	931	938	942	950	952	953	967	968	969	974	977	983	986	990	991	992	997	998	-1
DEPOT_SECTION
1
-1
EOF
