NAME : n1001-0013
COMMENT : "Generated by pyvrp_manuel (OVRPBL)"
TYPE : OVRPBL
DIMENSION : 1001
EDGE_WEIGHT_TYPE : EUC_2D
CAPACITY : 150
VEHICLES : 1000
OPEN_ROUTE : YES
DISTANCE : 3000
NODE_COORD_SECTION
1	472	218
2	946	504
3	374	589
4	876	395
5	202	209
6	147	3
7	752	452
8	557	642
9	842	638
10	189	462
11	65	298
12	885	494
13	131	437
14	715	648
15	720	520
16	8	371
17	855	222
18	676	27
19	561	726
20	71	466
21	794	218
22	461	827
23	331	390
24	694	500
25	29	88
26	356	70
27	412	202
28	184	465
29	195	91
30	479	800
31	118	770
32	121	37
33	899	208
34	145	26
35	926	99
36	837	712
37	460	13
38	351	691
39	102	134
40	35	756
41	968	932
42	243	350
43	94	140
44	874	930
45	353	3
46	251	862
47	281	953
48	551	948
49	212	878
50	832	613
51	80	232
52	131	152
53	411	787
54	112	944
55	394	306
56	803	358
57	919	541
58	843	646
59	58	966
60	374	174
61	272	181
62	869	450
63	606	455
64	457	769
65	583	9
66	18	631
67	641	258
68	233	124
69	801	900
70	675	977
71	658	316
72	441	539
73	780	1
74	36	32
75	210	355
76	934	534
77	348	906
78	23	619
79	941	940
80	662	581
81	301	362
82	489	773
83	903	553
84	957	808
85	654	450
86	876	898
87	192	137
88	270	213
89	125	781
90	269	434
91	280	212
92	264	83
93	36	404
94	259	616
95	652	276
96	363	113
97	803	429
98	488	708
99	854	596
100	658	246
101	162	852
102	360	773
103	6	472
104	295	241
105	800	407
106	910	4
107	884	956
108	978	10
109	109	469
110	649	406
111	751	824
112	431	45
113	273	819
114	678	738
115	737	194
116	548	450
117	174	892
118	720	787
119	611	212
120	433	990
121	90	863
122	482	398
123	608	230
124	454	604
125	3	998
126	41	908
127	886	601
128	376	101
129	687	817
130	264	405
131	227	936
132	857	420
133	630	277
134	184	837
135	878	523
136	801	775
137	647	839
138	65	29
139	749	361
140	633	263
141	474	324
142	323	916
143	861	856
144	30	766
145	710	742
146	84	567
147	971	368
148	226	585
149	532	162
150	533	180
151	24	979
152	444	63
153	563	636
154	640	344
155	697	912
156	738	464
157	610	36
158	998	979
159	796	723
160	563	526
161	93	919
162	928	776
163	811	264
164	163	107
165	229	776
166	345	316
167	227	926
168	455	877
169	316	597
170	466	873
171	635	744
172	890	196
173	416	201
174	727	627
175	289	149
176	364	316
177	379	725
178	63	184
179	348	395
180	413	3
181	648	545
182	110	401
183	812	782
184	683	363
185	894	935
186	609	726
187	928	554
188	3	337
189	606	737
190	774	484
191	641	239
192	469	103
193	922	842
194	800	92
195	427	242
196	898	701
197	540	613
198	677	554
199	624	87
200	533	664
201	838	262
202	800	777
203	921	672
204	667	938
205	806	788
206	646	634
207	170	266
208	595	14
209	195	184
210	417	310
211	930	586
212	971	765
213	709	247
214	855	609
215	567	599
216	112	320
217	115	327
218	552	955
219	161	245
220	699	357
221	568	323
222	332	656
223	389	488
224	532	72
225	910	797
226	423	624
227	692	933
228	5	606
229	987	405
230	660	296
231	458	318
232	139	300
233	341	703
234	936	108
235	902	820
236	357	260
237	806	727
238	112	612
239	541	906
240	483	892
241	412	693
242	384	580
243	609	997
244	687	277
245	86	262
246	361	716
247	859	995
248	838	343
249	183	974
250	822	864
251	52	871
252	145	312
253	171	461
254	241	897
255	978	200
256	434	961
257	496	212
258	457	143
259	460	927
260	362	122
261	120	718
262	450	532
263	431	616
264	575	37
265	889	897
266	87	691
267	246	526
268	60	273
269	408	253
270	503	23
271	496	534
272	349	279
273	332	802
274	561	609
275	965	920
276	534	346
277	287	396
278	680	55
279	205	247
280	788	7
281	823	160
282	197	72
283	520	96
284	511	98
285	580	790
286	418	0
287	442	178
288	717	224
289	529	658
290	517	743
291	876	437
292	352	978
293	290	614
294	291	87
295	627	875
296	679	692
297	247	810
298	4	340
299	510	100
300	265	431
301	324	594
302	292	646
303	863	952
304	843	638
305	1	694
306	107	726
307	130	231
308	634	615
309	455	983
310	804	409
311	45	548
312	433	961
313	721	701
314	657	61
315	722	189
316	374	753
317	18	961
318	743	423
319	932	280
320	636	127
321	77	759
322	137	491
323	152	127
324	151	34
325	67	307
326	45	43
327	584	220
328	840	653
329	893	718
330	411	763
331	492	496
332	528	40
333	824	852
334	385	624
335	672	243
336	883	824
337	189	52
338	932	624
339	460	38
340	304	576
341	854	261
342	359	305
343	736	925
344	547	906
345	709	581
346	385	451
347	525	189
348	10	704
349	101	414
350	317	730
351	845	482
352	678	643
353	399	183
354	690	813
355	518	760
356	994	111
357	458	273
358	359	226
359	164	992
360	951	544
361	195	741
362	147	202
363	767	814
364	672	863
365	778	949
366	82	116
367	605	913
368	345	193
369	628	579
370	565	969
371	444	784
372	718	294
373	485	153
374	28	960
375	972	907
376	430	175
377	781	339
378	120	290
379	520	629
380	39	712
381	271	666
382	435	496
383	900	993
384	342	561
385	532	441
386	120	833
387	231	302
388	356	266
389	713	694
390	346	317
391	793	757
392	519	435
393	868	702
394	330	704
395	91	37
396	238	221
397	916	263
398	346	984
399	543	829
400	958	661
401	283	489
402	333	718
403	44	226
404	518	676
405	518	488
406	567	803
407	290	344
408	826	152
409	993	593
410	80	639
411	201	897
412	809	874
413	13	244
414	736	589
415	517	319
416	284	971
417	578	770
418	1	332
419	49	170
420	353	70
421	870	323
422	567	905
423	744	758
424	612	837
425	322	644
426	539	60
427	807	390
428	238	966
429	509	409
430	815	885
431	528	353
432	973	559
433	192	308
434	393	766
435	969	898
436	651	903
437	693	981
438	154	472
439	651	859
440	977	5
441	189	191
442	703	51
443	306	279
444	455	850
445	822	178
446	498	956
447	329	435
448	786	604
449	813	865
450	548	384
451	39	559
452	616	600
453	643	470
454	264	344
455	622	305
456	8	932
457	541	756
458	858	863
459	366	273
460	760	670
461	660	285
462	457	258
463	384	151
464	377	970
465	631	892
466	31	451
467	444	900
468	511	216
469	830	209
470	692	762
471	803	344
472	95	941
473	417	191
474	618	818
475	174	94
476	495	633
477	24	834
478	240	462
479	709	77
480	697	278
481	212	487
482	133	32
483	661	864
484	471	510
485	170	585
486	490	551
487	584	64
488	853	580
489	251	739
490	597	994
491	679	846
492	52	670
493	865	425
494	114	961
495	73	337
496	616	102
497	621	365
498	973	103
499	999	72
500	966	519
501	602	741
502	372	188
503	846	318
504	187	937
505	784	511
506	854	530
507	684	91
508	70	172
509	731	916
510	104	594
511	213	114
512	264	388
513	590	308
514	593	392
515	134	601
516	958	988
517	275	416
518	115	880
519	216	216
520	840	907
521	862	781
522	991	9
523	713	768
524	802	104
525	958	40
526	91	39
527	237	755
528	787	653
529	868	96
530	837	877
531	797	529
532	953	893
533	239	666
534	667	170
535	555	447
536	330	766
537	176	617
538	480	396
539	19	741
540	103	814
541	631	743
542	109	968
543	796	490
544	242	210
545	791	842
546	215	339
547	164	557
548	286	70
549	247	412
550	250	999
551	643	210
552	993	762
553	405	846
554	880	573
555	442	185
556	137	531
557	598	329
558	858	864
559	414	414
560	537	542
561	685	373
562	427	336
563	501	834
564	550	697
565	501	593
566	752	65
567	989	221
568	517	851
569	32	684
570	645	30
571	310	953
572	158	202
573	400	704
574	230	159
575	469	370
576	436	674
577	662	556
578	486	590
579	789	134
580	422	743
581	620	929
582	163	193
583	83	538
584	836	255
585	800	849
586	933	389
587	345	295
588	681	238
589	673	599
590	283	968
591	449	642
592	803	779
593	355	770
594	135	152
595	339	247
596	800	829
597	368	589
598	176	13
599	384	302
600	954	362
601	718	356
602	813	641
603	158	23
604	364	541
605	996	789
606	372	978
607	340	354
608	592	729
609	636	833
610	258	104
611	641	584
612	934	20
613	858	196
614	159	403
615	347	265
616	856	928
617	272	422
618	236	103
619	830	279
620	434	551
621	773	801
622	211	246
623	224	231
624	651	336
625	391	407
626	93	915
627	831	302
628	525	670
629	789	80
630	866	71
631	448	288
632	998	857
633	234	948
634	296	419
635	945	376
636	741	524
637	688	663
638	386	590
639	108	999
640	895	217
641	246	528
642	981	577
643	321	985
644	951	645
645	692	681
646	775	743
647	283	561
648	766	738
649	570	102
650	25	567
651	557	659
652	582	722
653	298	709
654	24	875
655	857	757
656	879	835
657	831	591
658	496	581
659	952	687
660	672	179
661	493	177
662	973	576
663	27	850
664	502	869
665	503	860
666	902	984
667	864	437
668	715	353
669	827	751
670	354	514
671	497	307
672	886	182
673	567	876
674	11	1
675	975	593
676	464	115
677	361	379
678	90	429
679	199	447
680	745	820
681	786	847
682	363	919
683	266	447
684	121	171
685	226	372
686	827	640
687	233	325
688	744	740
689	188	942
690	503	200
691	310	252
692	876	428
693	598	293
694	960	342
695	455	482
696	781	970
697	916	767
698	796	865
699	207	820
700	30	823
701	699	724
702	581	756
703	228	656
704	581	985
705	942	539
706	874	751
707	215	794
708	443	590
709	314	987
710	218	428
711	543	973
712	862	482
713	650	704
714	914	803
715	605	645
716	328	128
717	709	940
718	985	170
719	478	19
720	806	617
721	135	414
722	512	962
723	40	243
724	200	321
725	764	86
726	259	219
727	545	691
728	793	541
729	969	625
730	766	797
731	759	791
732	530	782
733	27	139
734	297	595
735	295	484
736	193	97
737	579	46
738	229	876
739	629	626
740	210	181
741	988	711
742	912	12
743	985	7
744	562	593
745	426	330
746	466	344
747	426	690
748	620	300
749	826	11
750	255	425
751	95	280
752	384	806
753	434	381
754	209	561
755	986	504
756	930	875
757	214	182
758	286	718
759	607	465
760	158	694
761	807	326
762	272	706
763	196	809
764	731	383
765	58	10
766	557	821
767	44	373
768	715	506
769	623	217
770	378	613
771	66	719
772	372	79
773	697	157
774	455	832
775	240	892
776	609	29
777	172	428
778	30	561
779	124	254
780	546	637
781	446	454
782	506	197
783	193	281
784	633	811
785	151	818
786	970	952
787	433	862
788	845	951
789	792	835
790	286	47
791	443	254
792	283	363
793	502	405
794	743	225
795	164	4
796	926	586
797	385	409
798	572	829
799	179	679
800	260	178
801	688	327
802	63	593
803	406	444
804	516	620
805	630	780
806	298	720
807	789	60
808	318	229
809	424	59
810	37	764
811	185	550
812	224	943
813	624	588
814	932	411
815	494	119
816	284	831
817	834	578
818	534	562
819	460	518
820	302	141
821	609	304
822	302	716
823	411	272
824	280	440
825	477	477
826	237	530
827	230	249
828	45	259
829	637	53
830	664	592
831	582	553
832	276	975
833	761	494
834	875	634
835	397	47
836	197	708
837	198	60
838	533	186
839	99	280
840	298	978
841	977	899
842	955	408
843	822	781
844	339	209
845	303	513
846	261	438
847	17	64
848	503	319
849	407	145
850	253	71
851	817	575
852	31	989
853	667	379
854	661	41
855	323	53
856	385	106
857	174	317
858	127	268
859	600	218
860	740	197
861	410	848
862	299	778
863	818	176
864	400	688
865	430	928
866	125	261
867	848	279
868	122	562
869	344	726
870	682	787
871	1	196
872	907	221
873	235	635
874	994	568
875	417	219
876	372	80
877	933	764
878	647	205
879	452	180
880	833	842
881	340	404
882	990	295
883	474	826
884	748	177
885	28	74
886	916	732
887	160	811
888	100	617
889	607	826
890	980	584
891	227	378
892	318	576
893	560	788
894	133	410
895	76	617
896	965	161
897	980	48
898	733	166
899	265	977
900	780	894
901	651	598
902	199	590
903	416	977
904	404	758
905	709	719
906	551	903
907	552	28
908	617	622
909	400	158
910	321	422
911	898	651
912	257	128
913	363	485
914	942	486
915	940	316
916	447	247
917	272	469
918	58	814
919	508	254
920	411	378
921	959	836
922	824	720
923	962	606
924	981	540
925	561	779
926	48	875
927	419	802
928	923	149
929	642	895
930	769	178
931	22	219
932	357	657
933	102	347
934	284	546
935	573	629
936	389	746
937	695	3
938	905	562
939	493	731
940	465	892
941	720	655
942	137	861
943	861	151
944	406	922
945	201	143
946	839	155
947	286	321
948	411	837
949	300	968
950	828	505
951	108	856
952	22	477
953	233	572
954	301	113
955	460	953
956	959	15
957	689	5
958	987	247
959	202	325
960	765	497
961	669	355
962	855	510
963	173	843
964	64	601
965	695	370
966	304	332
967	333	845
968	16	845
969	221	475
970	731	39
971	926	643
972	9	535
973	706	597
974	557	345
975	555	56
976	918	384
977	991	986
978	949	514
979	21	901
980	395	173
981	621	855
982	878	629
983	381	994
984	681	925
985	253	378
986	648	403
987	613	755
988	816	390
989	491	868
990	624	52
991	430	287
992	910	425
993	329	895
994	265	821
995	667	309
996	309	267
997	727	124
998	957	910
999	95	207
1000	670	73
1001	227	806
DEMAND_SECTION
1	0
2	7
3	7
4	7
5	6
6	1
7	4
8	3
9	2
10	2
11	8
12	7
13	2
14	2
15	2
16	5
17	8
18	8
19	2
20	4
21	5
22	1
23	6
24	9
25	9
26	9
27	1
28	3
29	8
30	9
31	4
32	6
33	1
34	9
35	9
36	4
37	4
38	3
39	8
40	2
41	3
42	3
43	2
44	7
45	1
46	9
47	5
48	4
49	4
50	6
51	2
52	9
53	9
54	5
55	5
56	1
57	1
58	1
59	1
60	4
61	7
62	7
63	8
64	5
65	6
66	7
67	7
68	9
69	9
70	2
71	5
72	9
73	9
74	6
75	9
76	7
77	4
78	3
79	1
80	8
81	9
82	5
83	1
84	1
85	4
86	8
87	3
88	6
89	1
90	6
91	3
92	1
93	8
94	5
95	1
96	8
97	4
98	7
99	2
100	8
101	5
102	5
103	9
104	5
105	1
106	1
107	8
108	4
109	8
110	9
111	8
112	6
113	7
114	2
115	6
116	5
117	4
118	9
119	6
120	4
121	3
122	5
123	2
124	9
125	8
126	1
127	2
128	3
129	7
130	6
131	1
132	1
133	6
134	3
135	9
136	1
137	2
138	7
139	2
140	5
141	6
142	6
143	6
144	4
145	9
146	9
147	7
148	2
149	6
150	7
151	7
152	1
153	2
154	9
155	7
156	6
157	2
158	4
159	1
160	8
161	3
162	4
163	4
164	8
165	2
166	5
167	5
168	6
169	5
170	8
171	8
172	9
173	2
174	7
175	6
176	6
177	3
178	3
179	7
180	6
181	5
182	8
183	2
184	1
185	1
186	2
187	1
188	1
189	7
190	5
191	8
192	3
193	8
194	1
195	3
196	1
197	9
198	9
199	3
200	9
201	5
202	1
203	4
204	4
205	4
206	5
207	1
208	2
209	1
210	1
211	1
212	6
213	4
214	2
215	5
216	2
217	5
218	7
219	4
220	5
221	9
222	2
223	6
224	1
225	9
226	2
227	5
228	3
229	4
230	4
231	1
232	1
233	3
234	5
235	8
236	8
237	9
238	3
239	3
240	1
241	6
242	4
243	3
244	2
245	7
246	1
247	3
248	1
249	5
250	2
251	9
252	2
253	5
254	8
255	8
256	3
257	5
258	8
259	9
260	5
261	7
262	7
263	1
264	9
265	3
266	3
267	2
268	8
269	6
270	6
271	7
272	4
273	4
274	3
275	6
276	5
277	3
278	8
279	7
280	5
281	7
282	3
283	4
284	5
285	2
286	5
287	7
288	7
289	1
290	1
291	2
292	2
293	1
294	2
295	7
296	3
297	5
298	2
299	6
300	6
301	9
302	7
303	6
304	2
305	9
306	1
307	3
308	2
309	9
310	4
311	8
312	6
313	6
314	8
315	4
316	9
317	1
318	2
319	1
320	3
321	4
322	5
323	5
324	8
325	1
326	7
327	9
328	7
329	7
330	6
331	9
332	6
333	2
334	5
335	9
336	3
337	8
338	1
339	5
340	4
341	7
342	4
343	4
344	3
345	7
346	2
347	1
348	1
349	3
350	8
351	9
352	5
353	8
354	8
355	2
356	2
357	9
358	8
359	7
360	4
361	9
362	3
363	5
364	6
365	1
366	1
367	8
368	3
369	3
370	2
371	4
372	3
373	7
374	9
375	3
376	9
377	4
378	5
379	5
380	5
381	8
382	8
383	5
384	6
385	9
386	2
387	3
388	9
389	8
390	7
391	4
392	9
393	2
394	9
395	6
396	6
397	7
398	2
399	2
400	8
401	4
402	4
403	1
404	5
405	3
406	8
407	1
408	5
409	7
410	9
411	1
412	8
413	6
414	1
415	5
416	3
417	3
418	6
419	3
420	8
421	4
422	4
423	8
424	8
425	3
426	3
427	3
428	3
429	6
430	3
431	3
432	4
433	7
434	3
435	9
436	2
437	4
438	9
439	1
440	9
441	5
442	9
443	2
444	5
445	9
446	5
447	9
448	2
449	9
450	3
451	9
452	5
453	8
454	5
455	3
456	7
457	4
458	2
459	2
460	4
461	3
462	1
463	5
464	8
465	7
466	9
467	2
468	2
469	1
470	5
471	4
472	9
473	7
474	4
475	6
476	2
477	5
478	5
479	6
480	4
481	5
482	3
483	2
484	2
485	8
486	8
487	7
488	8
489	8
490	2
491	5
492	8
493	2
494	9
495	9
496	2
497	8
498	3
499	3
500	8
501	1
502	7
503	4
504	1
505	6
506	2
507	9
508	4
509	4
510	1
511	1
512	4
513	8
514	8
515	8
516	6
517	6
518	7
519	1
520	1
521	9
522	3
523	6
524	6
525	2
526	1
527	1
528	4
529	1
530	4
531	4
532	6
533	2
534	1
535	8
536	8
537	5
538	1
539	8
540	6
541	8
542	9
543	6
544	6
545	9
546	3
547	2
548	5
549	1
550	5
551	2
552	1
553	9
554	3
555	4
556	2
557	5
558	1
559	7
560	1
561	7
562	4
563	6
564	5
565	1
566	7
567	9
568	3
569	8
570	3
571	2
572	3
573	7
574	8
575	8
576	4
577	3
578	3
579	2
580	9
581	8
582	6
583	9
584	1
585	3
586	7
587	2
588	4
589	8
590	8
591	6
592	8
593	5
594	1
595	4
596	2
597	3
598	6
599	9
600	9
601	8
602	3
603	6
604	6
605	6
606	2
607	3
608	1
609	3
610	6
611	6
612	7
613	5
614	4
615	5
616	1
617	5
618	6
619	8
620	1
621	6
622	4
623	2
624	7
625	6
626	1
627	5
628	7
629	5
630	4
631	3
632	6
633	2
634	7
635	1
636	8
637	6
638	7
639	7
640	1
641	4
642	6
643	6
644	5
645	5
646	6
647	1
648	1
649	1
650	3
651	5
652	8
653	1
654	4
655	9
656	3
657	1
658	9
659	9
660	3
661	4
662	5
663	4
664	9
665	3
666	1
667	4
668	1
669	5
670	9
671	5
672	4
673	3
674	7
675	8
676	1
677	7
678	7
679	6
680	7
681	7
682	5
683	4
684	2
685	4
686	5
687	7
688	7
689	1
690	2
691	1
692	5
693	1
694	7
695	9
696	9
697	4
698	7
699	9
700	8
701	4
702	2
703	9
704	6
705	9
706	3
707	3
708	9
709	5
710	1
711	2
712	7
713	7
714	7
715	2
716	5
717	4
718	7
719	2
720	7
721	4
722	7
723	2
724	9
725	9
726	7
727	1
728	4
729	4
730	8
731	8
732	2
733	2
734	1
735	1
736	2
737	5
738	7
739	2
740	1
741	8
742	6
743	5
744	1
745	8
746	8
747	4
748	3
749	3
750	6
751	2
752	7
753	8
754	2
755	1
756	3
757	9
758	8
759	1
760	2
761	7
762	2
763	5
764	5
765	1
766	5
767	7
768	6
769	5
770	5
771	4
772	7
773	3
774	5
775	2
776	8
777	5
778	9
779	9
780	5
781	8
782	6
783	2
784	7
785	4
786	9
787	2
788	1
789	1
790	3
791	3
792	9
793	3
794	6
795	5
796	2
797	9
798	3
799	3
800	5
801	8
802	6
803	7
804	4
805	1
806	8
807	6
808	9
809	3
810	6
811	3
812	6
813	4
814	2
815	6
816	9
817	8
818	6
819	1
820	7
821	5
822	6
823	5
824	4
825	6
826	3
827	3
828	8
829	1
830	5
831	5
832	4
833	2
834	9
835	3
836	2
837	5
838	9
839	2
840	8
841	2
842	7
843	2
844	9
845	4
846	2
847	7
848	7
849	7
850	3
851	9
852	4
853	7
854	1
855	5
856	4
857	4
858	6
859	9
860	5
861	2
862	1
863	8
864	4
865	2
866	4
867	9
868	4
869	2
870	2
871	7
872	8
873	3
874	7
875	5
876	9
877	7
878	4
879	1
880	9
881	3
882	8
883	1
884	4
885	3
886	8
887	2
888	3
889	1
890	2
891	6
892	9
893	7
894	9
895	9
896	6
897	3
898	5
899	2
900	9
901	6
902	4
903	9
904	1
905	8
906	8
907	9
908	3
909	1
910	5
911	8
912	5
913	2
914	6
915	4
916	6
917	2
918	8
919	8
920	4
921	1
922	2
923	3
924	4
925	9
926	3
927	1
928	8
929	7
930	3
931	7
932	5
933	5
934	2
935	3
936	4
937	7
938	4
939	9
940	1
941	3
942	2
943	9
944	8
945	8
946	9
947	3
948	9
949	3
950	6
951	9
952	4
953	7
954	6
955	6
956	5
957	9
958	8
959	6
960	2
961	6
962	9
963	3
964	7
965	5
966	2
967	8
968	6
969	2
970	5
971	6
972	9
973	4
974	9
975	6
976	1
977	5
978	8
979	4
980	4
981	1
982	2
983	9
984	5
985	1
986	5
987	2
988	2
989	9
990	5
991	6
992	9
993	1
994	2
995	7
996	3
997	8
998	8
999	5
1000	4
1001	1
BACKHAUL_SECTION
2	5	6	8	10	23	29	39	42	43	51	66	78	84	85	87	89	91	93	101	110	113	121	123	126	131	136	144	149	150	151	163	164	171	181	183	186	188	194	200	201	211	221	227	238	240	246	251	252	255	261	282	287	291	295	300	303	307	308	318	346	349	356	364	365	376	377	402	407	409	414	419	428	436	450	451	469	471	480	481	483	484	485	488	489	508	509	510	517	524	527	530	534	542	546	547	548	550	551	565	570	588	596	608	609	610	617	620	622	634	640	643	647	655	660	661	669	671	672	679	681	682	688	692	694	695	696	699	701	703	707	708	711	723	724	727	730	738	740	744	745	751	760	763	779	782	785	792	794	795	798	799	804	805	807	810	813	814	822	826	829	831	839	841	843	850	858	865	868	886	887	888	890	893	894	896	899	908	912	915	916	930	931	938	942	950	952	953	967	968	969	974	977	983	986	990	991	992	997	998	-1
DEPOT_SECTION
1
-1
EOF
