NAME : n1001-0046
COMMENT : "Generated by pyvrp_manuel (OVRPBL)"
TYPE : OVRPBL
DIMENSION : 1001
EDGE_WEIGHT_TYPE : EUC_2D
CAPACITY : 150
VEHICLES : 1000
OPEN_ROUTE : YES
DISTANCE : 3000
NODE_COORD_SECTION
1	610	943
2	654	190
3	450	468
4	140	55
5	322	669
6	196	975
7	53	840
8	37	238
9	506	151
10	56	401
11	696	661
12	173	436
13	714	555
14	130	994
15	816	273
16	345	846
17	778	487
18	199	853
19	251	563
20	713	951
21	933	926
22	639	279
23	871	649
24	958	320
25	487	742
26	34	814
27	140	189
28	113	787
29	823	443
30	263	347
31	980	814
32	384	20
33	464	573
34	273	886
35	368	919
36	531	230
37	725	826
38	333	783
39	390	957
40	248	65
41	422	977
42	450	317
43	376	318
44	175	270
45	734	421
46	889	238
47	1	456
48	309	569
49	982	782
50	177	416
51	336	384
52	80	350
53	830	44
54	713	185
55	439	428
56	967	631
57	682	651
58	242	24
59	670	523
60	148	660
61	325	975
62	872	301
63	996	289
64	888	888
65	434	211
66	240	822
67	715	94
68	41	57
69	410	116
70	306	725
71	979	240
72	302	743
73	652	144
74	27	866
75	161	89
76	151	267
77	730	857
78	236	148
79	356	875
80	175	266
81	149	343
82	543	358
83	610	772
84	968	835
85	576	874
86	950	877
87	888	897
88	200	910
89	163	940
90	414	397
91	145	623
92	168	966
93	849	343
94	785	705
95	207	754
96	831	556
97	822	676
98	944	823
99	518	588
100	572	842
101	685	979
102	168	280
103	38	798
104	504	7
105	709	279
106	675	667
107	48	259
108	962	597
109	864	323
110	432	941
111	41	194
112	540	332
113	234	692
114	753	474
115	802	640
116	270	228
117	310	506
118	626	421
119	949	35
120	525	537
121	205	427
122	154	165
123	488	499
124	183	555
125	829	843
126	468	773
127	59	17
128	466	529
129	847	243
130	574	262
131	696	905
132	212	317
133	677	753
134	251	280
135	125	637
136	291	491
137	216	653
138	836	813
139	712	53
140	105	176
141	471	359
142	756	194
143	224	15
144	754	102
145	395	226
146	516	222
147	982	591
148	509	495
149	725	420
150	367	484
151	23	740
152	797	749
153	326	373
154	79	533
155	802	484
156	728	541
157	569	770
158	855	564
159	293	969
160	888	435
161	956	884
162	891	304
163	859	521
164	702	992
165	122	251
166	402	343
167	190	510
168	122	720
169	657	972
170	490	55
171	875	173
172	267	677
173	267	18
174	99	647
175	127	278
176	214	709
177	556	170
178	224	234
179	981	731
180	896	434
181	885	658
182	25	244
183	9	348
184	138	518
185	720	361
186	749	28
187	631	127
188	514	651
189	768	896
190	353	94
191	941	882
192	311	104
193	437	554
194	627	531
195	16	254
196	502	614
197	851	886
198	154	442
199	166	942
200	666	82
201	723	542
202	27	227
203	788	87
204	965	509
205	970	147
206	930	175
207	446	991
208	595	237
209	903	542
210	777	254
211	857	593
212	249	417
213	412	578
214	500	834
215	990	772
216	459	514
217	420	900
218	405	439
219	180	517
220	696	413
221	196	97
222	966	727
223	899	538
224	335	848
225	560	567
226	337	459
227	909	916
228	324	945
229	482	88
230	290	73
231	508	168
232	685	714
233	474	186
234	878	598
235	592	397
236	274	750
237	128	571
238	41	1
239	791	681
240	441	2
241	232	55
242	197	207
243	19	114
244	317	437
245	779	555
246	445	181
247	292	641
248	956	936
249	244	628
250	749	30
251	863	97
252	587	802
253	835	39
254	332	97
255	486	456
256	167	684
257	996	456
258	719	137
259	778	362
260	450	203
261	409	332
262	628	39
263	103	259
264	860	28
265	818	120
266	485	5
267	528	533
268	890	556
269	303	495
270	745	272
271	821	693
272	524	142
273	613	118
274	79	204
275	308	908
276	540	157
277	303	603
278	221	215
279	891	569
280	447	7
281	170	548
282	925	214
283	642	384
284	97	572
285	207	328
286	754	137
287	236	130
288	486	344
289	366	151
290	937	283
291	72	106
292	168	938
293	5	852
294	779	625
295	655	773
296	936	346
297	509	379
298	386	332
299	409	273
300	662	777
301	915	895
302	42	207
303	760	552
304	397	786
305	329	753
306	25	956
307	856	189
308	303	103
309	356	164
310	458	505
311	682	21
312	346	455
313	882	801
314	983	554
315	154	539
316	647	196
317	889	723
318	940	442
319	815	805
320	945	113
321	422	192
322	67	297
323	168	198
324	672	533
325	686	890
326	211	138
327	834	456
328	685	755
329	258	332
330	963	629
331	588	131
332	808	77
333	216	62
334	528	79
335	990	706
336	290	892
337	185	993
338	343	738
339	131	557
340	105	541
341	521	578
342	927	986
343	396	904
344	470	479
345	531	99
346	623	962
347	17	91
348	522	619
349	682	281
350	948	463
351	971	989
352	158	588
353	207	779
354	242	582
355	336	378
356	923	472
357	689	88
358	9	162
359	234	274
360	641	45
361	611	33
362	57	420
363	895	789
364	256	750
365	998	774
366	426	495
367	464	255
368	359	326
369	943	391
370	688	744
371	788	394
372	809	728
373	665	771
374	987	184
375	23	979
376	684	247
377	697	759
378	469	838
379	399	18
380	73	365
381	762	976
382	639	566
383	403	904
384	26	599
385	933	294
386	128	646
387	654	34
388	880	161
389	64	619
390	690	442
391	796	241
392	26	988
393	194	55
394	790	817
395	99	677
396	357	435
397	329	808
398	818	161
399	88	944
400	271	842
401	356	368
402	879	584
403	580	155
404	355	584
405	657	715
406	90	250
407	311	357
408	270	1
409	766	916
410	592	671
411	908	720
412	443	532
413	823	520
414	464	840
415	140	229
416	869	698
417	421	943
418	608	291
419	674	183
420	250	88
421	446	489
422	829	56
423	628	373
424	149	430
425	222	986
426	406	805
427	144	711
428	119	341
429	103	964
430	145	934
431	772	797
432	184	19
433	514	130
434	809	517
435	309	970
436	789	227
437	866	893
438	572	673
439	478	705
440	227	615
441	463	31
442	895	392
443	839	313
444	346	975
445	475	598
446	185	543
447	728	893
448	89	279
449	213	838
450	525	979
451	565	761
452	898	528
453	35	800
454	796	34
455	464	619
456	595	20
457	270	691
458	418	221
459	529	769
460	541	206
461	662	453
462	554	534
463	936	150
464	157	312
465	907	401
466	251	929
467	952	921
468	472	921
469	781	316
470	230	760
471	470	228
472	634	687
473	613	342
474	867	936
475	229	122
476	282	711
477	933	809
478	975	500
479	431	161
480	549	927
481	231	771
482	115	605
483	794	4
484	200	270
485	737	512
486	273	465
487	735	722
488	755	809
489	384	433
490	544	988
491	846	183
492	12	255
493	99	594
494	68	978
495	363	865
496	913	943
497	519	666
498	108	391
499	877	651
500	917	804
501	490	207
502	949	780
503	530	234
504	234	18
505	46	433
506	562	547
507	111	266
508	419	716
509	774	710
510	372	240
511	854	155
512	933	273
513	702	950
514	325	796
515	182	245
516	350	582
517	833	48
518	60	700
519	339	919
520	636	132
521	319	303
522	53	555
523	852	877
524	99	772
525	525	190
526	993	850
527	777	231
528	43	203
529	506	447
530	426	14
531	746	337
532	4	541
533	515	5
534	52	550
535	850	129
536	594	122
537	592	750
538	23	462
539	690	152
540	192	345
541	655	959
542	4	207
543	473	880
544	867	554
545	104	482
546	570	140
547	354	408
548	250	485
549	702	252
550	350	527
551	882	333
552	263	455
553	942	396
554	482	289
555	231	312
556	839	473
557	70	460
558	9	275
559	749	477
560	971	121
561	181	884
562	808	862
563	63	900
564	528	86
565	661	732
566	32	12
567	368	129
568	851	809
569	594	286
570	223	137
571	785	161
572	520	860
573	551	147
574	966	564
575	873	498
576	883	236
577	494	992
578	527	313
579	399	782
580	248	458
581	760	952
582	644	647
583	752	516
584	908	35
585	122	398
586	973	37
587	265	576
588	931	74
589	175	172
590	928	305
591	733	383
592	329	660
593	231	813
594	247	598
595	500	746
596	225	156
597	675	436
598	250	294
599	988	501
600	724	49
601	136	614
602	864	750
603	164	334
604	481	997
605	638	301
606	363	930
607	838	8
608	599	470
609	568	308
610	225	659
611	267	280
612	654	37
613	4	667
614	422	806
615	998	655
616	427	27
617	255	80
618	791	141
619	391	601
620	369	931
621	6	217
622	376	833
623	970	771
624	677	428
625	757	129
626	857	871
627	406	256
628	968	658
629	236	106
630	780	670
631	655	633
632	42	228
633	910	325
634	50	940
635	649	572
636	252	175
637	745	223
638	571	633
639	382	715
640	405	892
641	218	63
642	719	950
643	601	40
644	500	143
645	361	921
646	664	852
647	325	524
648	968	212
649	138	211
650	214	280
651	159	770
652	896	402
653	350	155
654	939	339
655	884	762
656	900	623
657	737	740
658	556	951
659	304	162
660	143	600
661	19	957
662	902	220
663	225	668
664	255	612
665	913	809
666	92	323
667	355	949
668	266	190
669	625	321
670	41	60
671	251	802
672	701	508
673	881	401
674	292	608
675	676	785
676	754	520
677	355	144
678	697	363
679	389	64
680	914	996
681	308	147
682	645	835
683	472	807
684	513	956
685	617	79
686	125	318
687	554	134
688	924	133
689	482	84
690	237	910
691	703	11
692	998	303
693	612	816
694	440	221
695	541	831
696	924	415
697	404	901
698	64	786
699	547	718
700	897	550
701	491	78
702	814	127
703	854	170
704	864	67
705	326	202
706	992	267
707	179	159
708	62	810
709	998	990
710	406	533
711	828	923
712	91	722
713	367	712
714	425	121
715	812	13
716	193	278
717	379	350
718	146	385
719	870	710
720	247	435
721	852	738
722	985	511
723	739	535
724	672	753
725	571	180
726	296	738
727	953	782
728	4	99
729	782	760
730	186	933
731	943	64
732	559	656
733	938	654
734	650	562
735	473	662
736	372	484
737	119	718
738	16	422
739	239	138
740	946	964
741	12	71
742	410	160
743	947	849
744	712	958
745	77	605
746	2	396
747	896	630
748	105	887
749	288	928
750	831	191
751	224	134
752	603	410
753	739	966
754	588	891
755	334	533
756	114	431
757	792	909
758	282	507
759	393	685
760	547	867
761	965	649
762	277	184
763	486	126
764	697	670
765	680	769
766	127	210
767	408	533
768	915	319
769	665	588
770	976	316
771	161	99
772	657	66
773	94	296
774	127	791
775	492	124
776	523	747
777	702	303
778	64	599
779	979	890
780	415	201
781	18	441
782	600	470
783	277	286
784	272	238
785	832	947
786	648	799
787	840	627
788	817	42
789	156	914
790	198	423
791	566	901
792	756	727
793	453	341
794	457	693
795	754	201
796	629	588
797	282	522
798	906	376
799	385	814
800	270	506
801	920	417
802	470	234
803	424	115
804	818	341
805	412	402
806	802	665
807	909	9
808	606	265
809	772	731
810	100	231
811	228	989
812	780	819
813	880	337
814	95	893
815	973	112
816	115	448
817	912	673
818	478	951
819	567	624
820	708	449
821	646	828
822	374	778
823	914	324
824	112	217
825	828	17
826	643	30
827	249	371
828	944	817
829	775	744
830	109	870
831	725	458
832	732	957
833	22	861
834	847	543
835	358	678
836	964	288
837	321	305
838	768	249
839	455	934
840	542	292
841	263	574
842	726	509
843	788	577
844	546	632
845	583	933
846	707	327
847	35	822
848	811	825
849	898	168
850	137	262
851	565	11
852	690	454
853	38	40
854	331	838
855	17	665
856	893	613
857	914	492
858	432	387
859	114	419
860	119	93
861	813	448
862	53	40
863	934	724
864	2	379
865	205	622
866	598	665
867	695	484
868	778	271
869	236	457
870	260	974
871	838	930
872	609	767
873	36	110
874	90	647
875	595	450
876	940	473
877	12	461
878	593	789
879	703	569
880	203	161
881	924	858
882	885	983
883	417	282
884	113	635
885	545	776
886	333	293
887	875	798
888	645	86
889	552	883
890	912	760
891	18	85
892	724	321
893	980	819
894	207	867
895	595	209
896	940	364
897	429	891
898	556	820
899	591	693
900	184	529
901	971	203
902	639	254
903	754	429
904	446	654
905	929	413
906	120	866
907	502	643
908	819	274
909	210	667
910	174	616
911	927	734
912	687	569
913	236	861
914	672	411
915	777	997
916	713	139
917	71	277
918	549	226
919	152	8
920	187	774
921	730	411
922	4	126
923	208	580
924	979	957
925	460	779
926	31	719
927	416	297
928	485	256
929	871	99
930	383	955
931	182	872
932	241	901
933	219	554
934	49	435
935	413	14
936	961	806
937	213	898
938	32	242
939	707	886
940	643	392
941	726	43
942	49	745
943	949	558
944	631	720
945	576	27
946	631	33
947	116	161
948	458	9
949	620	181
950	782	857
951	947	874
952	225	181
953	904	560
954	893	789
955	575	311
956	524	920
957	591	153
958	217	744
959	971	763
960	554	976
961	330	714
962	59	295
963	21	126
964	120	966
965	89	4
966	938	707
967	175	470
968	156	499
969	49	803
970	474	230
971	834	825
972	177	652
973	330	740
974	650	203
975	684	341
976	307	468
977	920	867
978	618	531
979	980	849
980	585	849
981	496	7
982	53	971
983	553	943
984	942	707
985	92	72
986	303	239
987	999	991
988	926	345
989	813	454
990	945	923
991	594	149
992	885	876
993	431	357
994	225	83
995	385	292
996	887	953
997	994	224
998	519	740
999	26	707
1000	427	795
1001	389	920
DEMAND_SECTION
1	0
2	2
3	9
4	6
5	8
6	1
7	8
8	1
9	7
10	8
11	2
12	7
13	6
14	1
15	9
16	4
17	6
18	2
19	5
20	9
21	3
22	8
23	2
24	6
25	8
26	9
27	6
28	3
29	9
30	4
31	8
32	4
33	8
34	1
35	4
36	2
37	7
38	7
39	9
40	2
41	5
42	1
43	9
44	3
45	5
46	5
47	3
48	1
49	5
50	9
51	2
52	3
53	2
54	2
55	4
56	8
57	9
58	2
59	6
60	3
61	6
62	7
63	2
64	1
65	1
66	8
67	9
68	6
69	3
70	7
71	3
72	9
73	6
74	6
75	8
76	5
77	3
78	4
79	2
80	4
81	1
82	2
83	1
84	9
85	2
86	9
87	3
88	2
89	4
90	4
91	4
92	7
93	7
94	3
95	5
96	7
97	1
98	1
99	3
100	2
101	8
102	1
103	5
104	1
105	3
106	8
107	5
108	8
109	7
110	4
111	3
112	8
113	9
114	9
115	5
116	7
117	9
118	1
119	1
120	2
121	1
122	2
123	6
124	2
125	9
126	9
127	7
128	9
129	1
130	1
131	5
132	3
133	8
134	4
135	6
136	5
137	5
138	9
139	5
140	2
141	7
142	8
143	9
144	3
145	9
146	6
147	2
148	9
149	7
150	1
151	3
152	1
153	6
154	4
155	5
156	9
157	4
158	2
159	5
160	4
161	1
162	2
163	4
164	1
165	5
166	3
167	9
168	2
169	1
170	2
171	1
172	6
173	6
174	5
175	5
176	6
177	8
178	5
179	5
180	4
181	6
182	2
183	9
184	9
185	1
186	3
187	3
188	9
189	6
190	2
191	8
192	6
193	7
194	9
195	2
196	4
197	7
198	1
199	2
200	6
201	7
202	4
203	6
204	5
205	1
206	5
207	2
208	9
209	6
210	8
211	1
212	1
213	3
214	7
215	8
216	8
217	7
218	6
219	5
220	9
221	3
222	5
223	4
224	4
225	9
226	2
227	1
228	8
229	1
230	4
231	5
232	3
233	1
234	5
235	8
236	9
237	4
238	4
239	4
240	6
241	7
242	3
243	8
244	2
245	9
246	5
247	5
248	2
249	6
250	5
251	6
252	5
253	9
254	1
255	7
256	3
257	1
258	5
259	7
260	1
261	8
262	4
263	8
264	2
265	5
266	3
267	9
268	5
269	6
270	1
271	1
272	3
273	8
274	9
275	3
276	7
277	9
278	2
279	7
280	2
281	3
282	4
283	5
284	6
285	9
286	7
287	6
288	9
289	6
290	4
291	7
292	5
293	4
294	5
295	2
296	4
297	8
298	2
299	2
300	8
301	4
302	3
303	6
304	1
305	9
306	7
307	3
308	2
309	8
310	8
311	5
312	9
313	2
314	4
315	2
316	7
317	9
318	1
319	3
320	4
321	3
322	4
323	2
324	1
325	4
326	3
327	4
328	6
329	9
330	7
331	5
332	7
333	9
334	6
335	8
336	6
337	1
338	4
339	5
340	3
341	1
342	7
343	9
344	2
345	4
346	1
347	2
348	9
349	3
350	5
351	1
352	8
353	7
354	6
355	1
356	5
357	4
358	9
359	7
360	1
361	1
362	3
363	5
364	6
365	6
366	3
367	7
368	8
369	8
370	1
371	8
372	7
373	7
374	5
375	9
376	6
377	9
378	4
379	2
380	5
381	2
382	1
383	7
384	8
385	2
386	2
387	4
388	3
389	4
390	2
391	7
392	6
393	2
394	2
395	3
396	2
397	6
398	9
399	6
400	2
401	1
402	2
403	3
404	6
405	5
406	5
407	5
408	1
409	6
410	5
411	4
412	7
413	1
414	5
415	5
416	3
417	7
418	8
419	6
420	8
421	2
422	2
423	2
424	3
425	3
426	4
427	8
428	3
429	9
430	2
431	4
432	7
433	2
434	9
435	4
436	7
437	6
438	6
439	5
440	7
441	2
442	3
443	6
444	1
445	8
446	8
447	5
448	1
449	9
450	4
451	7
452	6
453	1
454	3
455	2
456	5
457	9
458	8
459	3
460	8
461	6
462	3
463	9
464	9
465	2
466	8
467	9
468	8
469	9
470	8
471	6
472	5
473	4
474	5
475	7
476	6
477	1
478	8
479	9
480	5
481	1
482	1
483	2
484	4
485	5
486	9
487	4
488	2
489	9
490	8
491	2
492	5
493	1
494	9
495	9
496	3
497	7
498	9
499	7
500	7
501	3
502	9
503	9
504	9
505	9
506	3
507	2
508	5
509	5
510	6
511	1
512	5
513	6
514	5
515	9
516	4
517	3
518	8
519	3
520	1
521	8
522	7
523	7
524	7
525	1
526	4
527	7
528	4
529	2
530	7
531	4
532	2
533	1
534	8
535	2
536	7
537	8
538	3
539	7
540	5
541	8
542	6
543	9
544	9
545	9
546	1
547	4
548	6
549	6
550	1
551	2
552	2
553	8
554	4
555	2
556	1
557	1
558	2
559	9
560	4
561	2
562	4
563	5
564	5
565	1
566	8
567	8
568	9
569	4
570	8
571	7
572	6
573	9
574	5
575	1
576	1
577	7
578	2
579	7
580	7
581	4
582	4
583	2
584	3
585	9
586	7
587	6
588	9
589	8
590	2
591	9
592	7
593	2
594	7
595	2
596	2
597	8
598	7
599	3
600	5
601	9
602	7
603	8
604	4
605	2
606	2
607	4
608	4
609	6
610	7
611	1
612	3
613	7
614	8
615	5
616	1
617	9
618	7
619	3
620	9
621	3
622	9
623	7
624	4
625	2
626	5
627	4
628	7
629	1
630	7
631	9
632	7
633	8
634	1
635	8
636	5
637	7
638	9
639	5
640	3
641	4
642	9
643	5
644	2
645	7
646	1
647	6
648	3
649	8
650	6
651	7
652	4
653	8
654	4
655	7
656	1
657	6
658	9
659	8
660	5
661	4
662	2
663	9
664	6
665	5
666	4
667	6
668	5
669	9
670	3
671	4
672	5
673	9
674	1
675	6
676	7
677	9
678	5
679	1
680	8
681	7
682	8
683	4
684	8
685	6
686	8
687	8
688	9
689	1
690	8
691	9
692	8
693	5
694	3
695	2
696	7
697	2
698	3
699	7
700	9
701	5
702	7
703	6
704	4
705	4
706	8
707	4
708	8
709	3
710	8
711	4
712	9
713	6
714	2
715	2
716	4
717	2
718	8
719	7
720	3
721	8
722	7
723	5
724	4
725	1
726	9
727	7
728	3
729	5
730	7
731	3
732	6
733	9
734	9
735	4
736	3
737	5
738	8
739	1
740	3
741	4
742	5
743	1
744	8
745	2
746	2
747	8
748	7
749	7
750	9
751	2
752	2
753	8
754	6
755	8
756	8
757	6
758	8
759	3
760	5
761	5
762	1
763	9
764	6
765	1
766	6
767	9
768	7
769	8
770	9
771	6
772	7
773	2
774	5
775	4
776	8
777	5
778	9
779	6
780	8
781	2
782	5
783	1
784	9
785	6
786	8
787	2
788	8
789	5
790	6
791	1
792	4
793	7
794	4
795	5
796	6
797	3
798	4
799	2
800	6
801	8
802	2
803	6
804	7
805	2
806	5
807	3
808	7
809	6
810	6
811	3
812	7
813	3
814	7
815	9
816	3
817	8
818	7
819	7
820	7
821	6
822	1
823	4
824	2
825	2
826	8
827	7
828	2
829	5
830	3
831	7
832	3
833	5
834	2
835	3
836	5
837	2
838	2
839	2
840	4
841	7
842	3
843	9
844	9
845	6
846	8
847	8
848	6
849	9
850	6
851	5
852	8
853	6
854	3
855	8
856	6
857	7
858	2
859	6
860	1
861	1
862	1
863	3
864	8
865	5
866	6
867	5
868	2
869	1
870	7
871	3
872	3
873	9
874	1
875	3
876	1
877	9
878	4
879	3
880	3
881	6
882	3
883	4
884	2
885	2
886	5
887	3
888	5
889	6
890	4
891	6
892	6
893	3
894	8
895	4
896	3
897	8
898	7
899	9
900	2
901	6
902	1
903	4
904	7
905	4
906	6
907	5
908	3
909	6
910	6
911	4
912	9
913	6
914	9
915	1
916	6
917	4
918	8
919	4
920	3
921	6
922	9
923	5
924	6
925	4
926	4
927	9
928	3
929	5
930	1
931	7
932	7
933	4
934	4
935	2
936	8
937	3
938	7
939	3
940	1
941	3
942	3
943	2
944	4
945	2
946	5
947	2
948	2
949	7
950	6
951	1
952	8
953	5
954	7
955	9
956	7
957	2
958	9
959	2
960	3
961	8
962	8
963	9
964	2
965	5
966	9
967	1
968	3
969	6
970	7
971	4
972	8
973	9
974	9
975	9
976	4
977	8
978	1
979	1
980	7
981	3
982	3
983	6
984	3
985	1
986	6
987	8
988	7
989	2
990	4
991	8
992	1
993	4
994	7
995	9
996	7
997	2
998	5
999	7
1000	8
1001	2
BACKHAUL_SECTION
2	5	6	8	10	23	29	39	42	43	51	66	78	84	85	87	89	91	93	101	110	113	121	123	126	131	136	144	149	150	151	163	164	171	181	183	186	188	194	200	201	211	221	227	238	240	246	251	252	255	261	282	287	291	295	300	303	307	308	318	346	349	356	364	365	376	377	402	407	409	414	419	428	436	450	451	469	471	480	481	483	484	485	488	489	508	509	510	517	524	527	530	534	542	546	547	548	550	551	565	570	588	596	608	609	610	617	620	622	634	640	643	647	655	660	661	669	671	672	679	681	682	688	692	694	695	696	699	701	703	707	708	711	723	724	727	730	738	740	744	745	751	760	763	779	782	785	792	794	795	798	799	804	805	807	810	813	814	822	826	829	831	839	841	843	850	858	865	868	886	887	888	890	893	894	896	899	908	912	915	916	930	931	938	942	950	952	953	967	968	969	974	977	983	986	990	991	992	997	998	-1
DEPOT_SECTION
1
-1
EOF
