NAME : n1001-0031
COMMENT : "Generated by pyvrp_manuel (OVRPLTW)"
TYPE : OVRPLTW
DIMENSION : 1001
EDGE_WEIGHT_TYPE : EUC_2D
CAPACITY : 150
VEHICLES : 1000
OPEN_ROUTE : YES
DISTANCE : 3000
SERVICE_TIME : 200
NODE_COORD_SECTION
1	705	494
2	684	279
3	732	38
4	480	547
5	181	491
6	268	308
7	467	256
8	235	314
9	220	870
10	862	943
11	600	677
12	441	753
13	788	638
14	808	535
15	217	734
16	927	97
17	11	847
18	487	230
19	284	634
20	498	84
21	455	578
22	549	438
23	118	266
24	687	693
25	680	668
26	767	406
27	736	739
28	168	611
29	179	12
30	547	879
31	154	913
32	197	839
33	805	133
34	784	563
35	780	903
36	41	618
37	488	408
38	989	498
39	56	687
40	309	369
41	827	218
42	846	534
43	930	414
44	678	459
45	316	600
46	452	527
47	253	205
48	316	37
49	262	444
50	337	739
51	953	955
52	218	754
53	251	970
54	971	373
55	441	92
56	489	406
57	782	711
58	387	691
59	845	158
60	350	534
61	744	932
62	406	272
63	350	526
64	711	23
65	406	105
66	284	435
67	949	219
68	513	439
69	621	147
70	977	349
71	708	283
72	385	87
73	0	398
74	708	678
75	63	873
76	939	295
77	810	702
78	136	419
79	771	363
80	838	808
81	787	9
82	564	416
83	908	119
84	396	718
85	14	994
86	536	301
87	275	408
88	166	953
89	767	355
90	238	115
91	279	735
92	88	326
93	206	773
94	808	812
95	361	661
96	769	305
97	517	459
98	91	397
99	45	782
100	190	325
101	976	17
102	948	826
103	899	624
104	898	446
105	498	880
106	77	600
107	314	549
108	465	374
109	992	819
110	467	374
111	136	670
112	603	350
113	83	688
114	336	260
115	567	545
116	358	217
117	325	610
118	702	899
119	418	662
120	528	159
121	383	686
122	335	441
123	659	54
124	507	767
125	654	52
126	284	174
127	833	618
128	184	455
129	578	480
130	485	478
131	175	49
132	928	519
133	428	237
134	57	504
135	96	537
136	738	579
137	318	914
138	845	973
139	396	310
140	578	675
141	572	422
142	644	861
143	501	794
144	778	519
145	856	238
146	568	942
147	971	90
148	210	103
149	660	776
150	207	445
151	525	812
152	800	418
153	321	204
154	814	884
155	646	396
156	103	706
157	31	436
158	124	193
159	212	46
160	781	949
161	55	9
162	554	69
163	817	72
164	479	990
165	369	411
166	861	169
167	190	136
168	229	661
169	313	505
170	970	875
171	554	279
172	248	676
173	54	925
174	67	284
175	284	948
176	61	691
177	144	429
178	766	399
179	743	846
180	248	161
181	489	321
182	567	694
183	732	678
184	412	400
185	212	758
186	734	759
187	621	59
188	866	600
189	458	349
190	129	195
191	34	421
192	201	100
193	658	325
194	639	837
195	439	359
196	429	298
197	5	458
198	918	149
199	431	306
200	508	546
201	739	755
202	165	444
203	859	4
204	146	113
205	520	348
206	498	706
207	682	855
208	991	447
209	186	67
210	998	108
211	605	714
212	554	644
213	968	31
214	513	593
215	52	314
216	179	999
217	484	132
218	67	559
219	830	639
220	155	927
221	205	227
222	496	911
223	882	182
224	117	246
225	710	372
226	20	205
227	9	657
228	596	503
229	380	311
230	139	297
231	103	885
232	145	857
233	877	83
234	53	575
235	887	532
236	223	863
237	791	57
238	815	706
239	762	96
240	4	492
241	198	574
242	299	143
243	193	821
244	938	135
245	210	976
246	975	754
247	359	528
248	41	661
249	47	56
250	549	855
251	353	30
252	608	635
253	883	657
254	158	690
255	555	445
256	679	46
257	81	848
258	484	947
259	39	198
260	828	986
261	138	446
262	350	281
263	910	394
264	862	841
265	988	551
266	394	575
267	711	692
268	489	797
269	837	16
270	342	152
271	678	709
272	942	704
273	969	181
274	53	587
275	147	675
276	886	193
277	481	348
278	171	234
279	964	863
280	822	194
281	822	789
282	386	318
283	519	123
284	431	122
285	129	443
286	746	513
287	494	170
288	830	896
289	560	348
290	648	993
291	360	964
292	595	288
293	28	443
294	128	199
295	203	869
296	976	200
297	369	258
298	551	555
299	718	329
300	579	917
301	961	152
302	493	549
303	860	386
304	582	242
305	746	350
306	909	921
307	219	220
308	595	580
309	905	703
310	963	492
311	801	993
312	644	71
313	154	713
314	765	891
315	758	836
316	205	161
317	898	481
318	631	655
319	982	229
320	802	136
321	250	599
322	61	318
323	455	624
324	360	535
325	392	766
326	390	927
327	749	712
328	620	296
329	480	257
330	388	378
331	776	934
332	319	108
333	890	489
334	917	163
335	69	910
336	387	647
337	5	278
338	843	333
339	957	423
340	878	558
341	943	177
342	957	456
343	419	950
344	324	602
345	53	218
346	62	333
347	682	712
348	156	799
349	980	988
350	313	772
351	90	379
352	578	821
353	901	830
354	24	588
355	289	502
356	578	361
357	73	626
358	117	593
359	777	944
360	825	577
361	517	784
362	966	913
363	938	538
364	147	743
365	474	467
366	607	510
367	630	662
368	234	525
369	562	251
370	907	700
371	460	150
372	898	230
373	565	572
374	994	179
375	284	794
376	598	150
377	226	882
378	134	121
379	848	928
380	273	777
381	683	33
382	758	415
383	396	664
384	339	381
385	515	502
386	713	323
387	191	778
388	750	703
389	319	271
390	878	834
391	606	647
392	785	47
393	283	193
394	778	472
395	139	454
396	478	868
397	265	450
398	920	595
399	101	664
400	663	870
401	204	171
402	313	713
403	132	462
404	958	139
405	192	569
406	563	121
407	964	466
408	289	513
409	534	588
410	596	708
411	220	573
412	900	224
413	306	619
414	513	534
415	875	95
416	327	82
417	542	351
418	507	831
419	584	131
420	309	52
421	473	415
422	651	377
423	809	106
424	781	254
425	638	262
426	410	262
427	107	404
428	314	123
429	142	84
430	218	86
431	784	366
432	19	33
433	118	367
434	855	955
435	822	119
436	61	710
437	247	128
438	968	183
439	970	528
440	836	691
441	910	96
442	95	506
443	123	893
444	594	362
445	752	650
446	672	176
447	224	483
448	196	213
449	678	832
450	785	154
451	400	729
452	34	329
453	844	744
454	189	718
455	260	174
456	886	244
457	790	910
458	681	714
459	273	324
460	866	177
461	21	919
462	715	508
463	28	885
464	332	632
465	579	486
466	996	389
467	667	776
468	177	181
469	363	932
470	160	898
471	949	618
472	297	88
473	446	954
474	317	296
475	457	890
476	488	658
477	262	574
478	979	571
479	36	348
480	921	415
481	599	764
482	627	19
483	755	724
484	39	13
485	378	783
486	130	922
487	915	947
488	588	886
489	373	941
490	465	462
491	366	26
492	148	52
493	605	106
494	243	492
495	961	120
496	470	206
497	174	87
498	709	850
499	93	782
500	30	680
501	92	689
502	312	119
503	549	612
504	290	786
505	234	61
506	98	364
507	212	232
508	109	397
509	160	685
510	543	135
511	574	627
512	303	376
513	107	7
514	217	885
515	653	611
516	379	467
517	671	539
518	258	724
519	170	399
520	442	819
521	291	686
522	982	551
523	10	228
524	166	732
525	287	289
526	631	533
527	590	429
528	346	247
529	571	851
530	421	551
531	425	345
532	663	391
533	402	577
534	91	772
535	839	898
536	378	234
537	598	46
538	290	12
539	306	381
540	714	554
541	610	512
542	459	540
543	832	261
544	178	81
545	125	945
546	309	215
547	420	818
548	471	298
549	526	685
550	863	135
551	899	357
552	144	35
553	391	218
554	296	781
555	62	55
556	459	8
557	435	856
558	125	465
559	56	337
560	507	278
561	114	994
562	40	89
563	662	874
564	558	23
565	493	858
566	987	280
567	863	714
568	824	568
569	523	16
570	571	92
571	35	555
572	167	737
573	348	404
574	265	239
575	953	879
576	302	874
577	351	17
578	514	489
579	168	416
580	800	611
581	304	954
582	227	376
583	187	921
584	708	405
585	920	402
586	653	714
587	84	825
588	984	578
589	103	155
590	709	769
591	220	507
592	481	392
593	246	793
594	133	625
595	576	750
596	307	562
597	230	380
598	160	128
599	525	900
600	8	566
601	238	800
602	469	776
603	61	786
604	497	471
605	896	129
606	765	864
607	740	501
608	897	236
609	781	435
610	686	324
611	375	827
612	783	266
613	93	265
614	892	41
615	213	607
616	183	415
617	182	512
618	368	125
619	541	754
620	667	579
621	813	456
622	200	657
623	62	899
624	363	929
625	325	583
626	986	641
627	179	784
628	887	795
629	271	959
630	920	875
631	678	148
632	834	938
633	929	469
634	400	996
635	600	169
636	900	23
637	286	732
638	949	309
639	441	381
640	871	320
641	195	278
642	238	841
643	548	975
644	379	654
645	862	893
646	46	689
647	187	166
648	743	7
649	802	906
650	398	109
651	669	789
652	828	188
653	654	40
654	560	409
655	675	79
656	214	355
657	792	177
658	328	234
659	319	801
660	233	122
661	859	897
662	664	173
663	851	101
664	788	465
665	810	533
666	673	378
667	868	953
668	56	869
669	214	600
670	824	551
671	669	223
672	22	706
673	138	844
674	923	191
675	300	801
676	896	656
677	108	209
678	121	328
679	923	251
680	853	92
681	433	349
682	179	614
683	724	111
684	256	267
685	575	970
686	931	905
687	478	329
688	172	319
689	378	551
690	817	465
691	466	30
692	613	575
693	25	561
694	105	183
695	592	323
696	506	906
697	961	470
698	259	863
699	875	730
700	526	441
701	441	545
702	215	529
703	290	794
704	664	363
705	316	789
706	125	188
707	886	905
708	418	169
709	21	56
710	165	883
711	125	854
712	451	779
713	857	655
714	691	215
715	246	44
716	911	483
717	621	123
718	367	169
719	212	647
720	17	98
721	62	779
722	448	705
723	799	724
724	978	648
725	686	759
726	117	349
727	489	361
728	618	551
729	403	671
730	528	456
731	458	888
732	15	7
733	850	260
734	71	996
735	166	358
736	62	425
737	720	220
738	858	212
739	6	88
740	519	862
741	863	752
742	817	110
743	133	390
744	448	974
745	564	757
746	313	453
747	792	624
748	666	857
749	611	481
750	522	919
751	93	329
752	549	388
753	884	822
754	449	13
755	487	243
756	214	413
757	452	90
758	487	568
759	731	818
760	803	507
761	896	117
762	189	183
763	44	109
764	339	755
765	155	163
766	202	308
767	838	834
768	249	729
769	476	902
770	460	212
771	86	270
772	736	563
773	939	251
774	466	547
775	384	856
776	866	38
777	142	215
778	689	781
779	885	163
780	341	240
781	118	348
782	454	308
783	589	510
784	354	427
785	38	185
786	236	887
787	124	196
788	382	64
789	705	816
790	716	339
791	115	678
792	896	606
793	547	89
794	702	607
795	694	205
796	175	869
797	810	39
798	444	275
799	682	231
800	22	978
801	487	5
802	166	720
803	719	953
804	289	615
805	159	568
806	643	20
807	93	345
808	24	913
809	324	702
810	91	463
811	119	318
812	531	932
813	268	660
814	33	776
815	872	168
816	647	450
817	28	896
818	316	389
819	812	249
820	159	885
821	243	737
822	212	838
823	527	325
824	343	761
825	108	56
826	632	149
827	100	97
828	292	215
829	610	790
830	536	472
831	830	175
832	719	924
833	103	993
834	377	966
835	224	826
836	938	517
837	977	209
838	301	491
839	514	160
840	580	884
841	302	342
842	100	890
843	436	965
844	306	707
845	88	870
846	997	724
847	14	867
848	594	5
849	537	453
850	226	743
851	221	683
852	160	815
853	277	743
854	585	904
855	373	381
856	142	709
857	572	118
858	796	339
859	641	6
860	812	305
861	375	749
862	103	671
863	549	911
864	41	366
865	9	349
866	306	971
867	938	919
868	676	310
869	86	232
870	752	723
871	499	485
872	926	988
873	81	603
874	830	540
875	274	742
876	685	363
877	464	638
878	79	859
879	609	951
880	912	957
881	245	589
882	584	60
883	162	526
884	325	488
885	507	427
886	598	47
887	176	657
888	973	621
889	291	209
890	739	728
891	186	956
892	321	211
893	741	442
894	297	603
895	922	557
896	194	851
897	854	706
898	792	382
899	29	110
900	196	941
901	74	938
902	350	357
903	778	377
904	134	268
905	705	705
906	132	228
907	836	410
908	938	441
909	648	508
910	769	131
911	371	407
912	252	361
913	148	648
914	713	72
915	438	828
916	739	552
917	220	101
918	960	39
919	695	952
920	150	974
921	136	593
922	959	393
923	591	985
924	720	341
925	645	993
926	873	990
927	357	482
928	123	2
929	22	748
930	291	865
931	292	657
932	570	304
933	553	685
934	2	55
935	45	833
936	476	222
937	189	229
938	610	178
939	100	696
940	442	547
941	771	291
942	45	653
943	12	21
944	363	12
945	544	201
946	929	110
947	805	919
948	965	77
949	544	477
950	327	534
951	553	864
952	800	23
953	247	317
954	257	831
955	680	441
956	661	401
957	52	168
958	202	664
959	909	460
960	602	670
961	211	123
962	862	443
963	850	167
964	342	993
965	376	270
966	695	100
967	12	232
968	399	225
969	660	108
970	379	908
971	545	57
972	426	861
973	278	968
974	887	274
975	507	528
976	837	54
977	324	638
978	649	599
979	279	515
980	855	586
981	112	39
982	809	777
983	281	611
984	955	283
985	338	819
986	52	257
987	674	215
988	446	787
989	719	208
990	404	899
991	432	345
992	236	772
993	808	301
994	981	725
995	638	757
996	232	915
997	740	500
998	709	121
999	271	185
1000	806	436
1001	821	733
DEMAND_SECTION
1	0
2	6
3	4
4	9
5	4
6	5
7	5
8	2
9	4
10	3
11	8
12	3
13	7
14	8
15	3
16	3
17	3
18	4
19	1
20	3
21	7
22	4
23	5
24	5
25	6
26	9
27	1
28	5
29	8
30	3
31	9
32	5
33	7
34	7
35	5
36	5
37	4
38	9
39	4
40	3
41	5
42	2
43	8
44	8
45	2
46	3
47	7
48	3
49	4
50	9
51	4
52	8
53	6
54	5
55	9
56	2
57	4
58	2
59	8
60	7
61	2
62	3
63	7
64	1
65	4
66	4
67	3
68	1
69	4
70	5
71	4
72	1
73	2
74	6
75	6
76	2
77	5
78	1
79	2
80	8
81	7
82	2
83	5
84	5
85	7
86	2
87	5
88	5
89	3
90	1
91	1
92	3
93	4
94	1
95	8
96	9
97	7
98	6
99	6
100	9
101	3
102	6
103	1
104	2
105	3
106	3
107	7
108	2
109	3
110	6
111	1
112	5
113	3
114	4
115	3
116	8
117	1
118	3
119	4
120	1
121	1
122	1
123	6
124	5
125	8
126	7
127	7
128	8
129	4
130	5
131	8
132	9
133	6
134	7
135	1
136	8
137	4
138	2
139	3
140	4
141	9
142	2
143	7
144	7
145	2
146	5
147	2
148	8
149	1
150	4
151	4
152	8
153	1
154	7
155	1
156	9
157	9
158	8
159	4
160	5
161	9
162	8
163	9
164	6
165	4
166	2
167	4
168	5
169	4
170	5
171	8
172	3
173	7
174	9
175	3
176	4
177	4
178	2
179	5
180	9
181	6
182	4
183	5
184	8
185	2
186	9
187	8
188	8
189	5
190	4
191	9
192	9
193	1
194	7
195	5
196	9
197	6
198	4
199	4
200	2
201	9
202	9
203	1
204	7
205	7
206	9
207	3
208	7
209	7
210	6
211	2
212	2
213	8
214	4
215	6
216	4
217	5
218	2
219	4
220	6
221	2
222	1
223	8
224	2
225	9
226	6
227	5
228	1
229	7
230	5
231	7
232	6
233	9
234	9
235	6
236	8
237	8
238	5
239	1
240	5
241	2
242	2
243	6
244	1
245	9
246	4
247	7
248	8
249	8
250	1
251	4
252	8
253	7
254	7
255	4
256	2
257	6
258	4
259	7
260	8
261	5
262	9
263	3
264	3
265	3
266	9
267	8
268	5
269	7
270	8
271	3
272	4
273	8
274	6
275	3
276	4
277	9
278	9
279	1
280	6
281	6
282	4
283	2
284	9
285	3
286	1
287	6
288	5
289	6
290	5
291	2
292	2
293	8
294	2
295	8
296	8
297	6
298	3
299	1
300	8
301	5
302	5
303	3
304	2
305	4
306	7
307	5
308	4
309	9
310	1
311	3
312	4
313	5
314	8
315	7
316	1
317	2
318	4
319	8
320	7
321	9
322	1
323	8
324	8
325	7
326	7
327	6
328	5
329	8
330	7
331	9
332	9
333	6
334	9
335	4
336	3
337	7
338	1
339	4
340	1
341	7
342	2
343	8
344	6
345	1
346	3
347	6
348	7
349	4
350	5
351	1
352	1
353	8
354	2
355	3
356	9
357	9
358	5
359	9
360	4
361	9
362	6
363	2
364	1
365	5
366	8
367	3
368	4
369	2
370	9
371	6
372	8
373	8
374	2
375	6
376	3
377	5
378	4
379	1
380	5
381	4
382	6
383	3
384	8
385	8
386	7
387	9
388	6
389	8
390	3
391	2
392	9
393	5
394	3
395	7
396	6
397	6
398	1
399	8
400	3
401	1
402	5
403	2
404	5
405	3
406	7
407	1
408	3
409	2
410	3
411	4
412	3
413	7
414	5
415	3
416	1
417	6
418	3
419	2
420	9
421	6
422	3
423	6
424	4
425	3
426	4
427	8
428	2
429	8
430	1
431	1
432	3
433	8
434	4
435	1
436	2
437	3
438	4
439	4
440	7
441	2
442	4
443	3
444	3
445	5
446	1
447	6
448	8
449	2
450	2
451	4
452	5
453	9
454	8
455	1
456	6
457	8
458	1
459	4
460	3
461	3
462	6
463	8
464	6
465	5
466	8
467	7
468	2
469	7
470	8
471	5
472	2
473	3
474	2
475	6
476	9
477	9
478	7
479	3
480	4
481	7
482	2
483	6
484	5
485	4
486	2
487	6
488	5
489	5
490	1
491	5
492	5
493	6
494	8
495	4
496	4
497	6
498	7
499	1
500	4
501	5
502	2
503	6
504	2
505	9
506	6
507	3
508	4
509	8
510	4
511	5
512	6
513	7
514	6
515	6
516	3
517	6
518	4
519	8
520	2
521	2
522	6
523	7
524	6
525	4
526	5
527	6
528	6
529	8
530	4
531	1
532	4
533	5
534	3
535	5
536	7
537	7
538	8
539	4
540	8
541	1
542	2
543	7
544	3
545	8
546	6
547	6
548	3
549	3
550	4
551	2
552	4
553	5
554	3
555	7
556	1
557	2
558	7
559	4
560	4
561	7
562	6
563	5
564	6
565	1
566	2
567	2
568	5
569	8
570	4
571	7
572	4
573	7
574	8
575	7
576	5
577	5
578	6
579	3
580	7
581	6
582	7
583	2
584	3
585	1
586	2
587	3
588	1
589	6
590	5
591	4
592	6
593	4
594	8
595	9
596	8
597	6
598	2
599	8
600	4
601	9
602	3
603	7
604	6
605	1
606	2
607	7
608	4
609	8
610	5
611	6
612	4
613	9
614	5
615	8
616	6
617	6
618	5
619	3
620	4
621	4
622	5
623	2
624	9
625	5
626	4
627	2
628	8
629	3
630	9
631	5
632	6
633	2
634	7
635	1
636	3
637	2
638	8
639	2
640	6
641	1
642	7
643	1
644	6
645	3
646	3
647	3
648	3
649	7
650	9
651	9
652	3
653	6
654	5
655	6
656	5
657	9
658	6
659	4
660	9
661	6
662	1
663	9
664	9
665	3
666	4
667	5
668	4
669	1
670	3
671	1
672	7
673	3
674	5
675	8
676	8
677	7
678	8
679	4
680	2
681	6
682	4
683	1
684	1
685	9
686	7
687	7
688	2
689	3
690	4
691	7
692	2
693	3
694	4
695	9
696	7
697	2
698	1
699	2
700	1
701	6
702	4
703	6
704	6
705	4
706	9
707	1
708	3
709	9
710	1
711	4
712	2
713	3
714	7
715	8
716	3
717	9
718	9
719	8
720	4
721	8
722	6
723	9
724	6
725	1
726	5
727	3
728	6
729	7
730	7
731	2
732	5
733	9
734	4
735	9
736	1
737	8
738	8
739	8
740	5
741	5
742	9
743	7
744	3
745	1
746	8
747	5
748	7
749	2
750	3
751	4
752	3
753	2
754	6
755	8
756	4
757	2
758	5
759	3
760	1
761	1
762	1
763	2
764	8
765	6
766	5
767	1
768	7
769	8
770	7
771	4
772	6
773	7
774	9
775	2
776	8
777	7
778	7
779	2
780	7
781	4
782	5
783	2
784	8
785	6
786	3
787	8
788	8
789	8
790	1
791	4
792	2
793	6
794	9
795	3
796	7
797	7
798	6
799	7
800	1
801	3
802	9
803	6
804	6
805	1
806	6
807	7
808	1
809	6
810	5
811	5
812	8
813	5
814	6
815	5
816	4
817	3
818	2
819	9
820	5
821	2
822	9
823	2
824	8
825	6
826	8
827	9
828	2
829	1
830	7
831	4
832	7
833	4
834	3
835	1
836	7
837	5
838	9
839	5
840	3
841	5
842	4
843	7
844	1
845	1
846	3
847	9
848	2
849	6
850	4
851	8
852	5
853	6
854	4
855	8
856	2
857	5
858	2
859	1
860	2
861	1
862	3
863	2
864	3
865	5
866	5
867	7
868	2
869	4
870	7
871	2
872	3
873	2
874	9
875	8
876	4
877	3
878	1
879	7
880	9
881	9
882	8
883	9
884	1
885	7
886	7
887	9
888	8
889	9
890	1
891	5
892	1
893	7
894	5
895	9
896	1
897	6
898	9
899	6
900	4
901	4
902	2
903	6
904	1
905	4
906	6
907	5
908	9
909	5
910	7
911	4
912	1
913	6
914	9
915	7
916	8
917	1
918	5
919	1
920	1
921	1
922	5
923	5
924	7
925	9
926	9
927	1
928	8
929	9
930	2
931	3
932	3
933	9
934	9
935	1
936	3
937	3
938	2
939	3
940	3
941	3
942	2
943	8
944	9
945	6
946	9
947	4
948	9
949	7
950	9
951	3
952	5
953	4
954	4
955	7
956	3
957	2
958	4
959	1
960	4
961	4
962	6
963	4
964	5
965	9
966	4
967	6
968	8
969	5
970	6
971	7
972	2
973	6
974	8
975	2
976	9
977	3
978	8
979	6
980	6
981	2
982	3
983	5
984	4
985	3
986	4
987	8
988	9
989	9
990	5
991	9
992	4
993	3
994	8
995	3
996	6
997	7
998	8
999	6
1000	4
1001	8
TIME_WINDOW_SECTION
1	0	3000
2	188	2072
3	1012	2815
4	1481	1685
5	1184	2118
6	144	1938
7	1335	1714
8	1533	2216
9	353	1442
10	1532	2772
11	511	1023
12	190	946
13	1476	1698
14	1506	2911
15	1022	1601
16	0	1455
17	1833	2139
18	1248	2138
19	817	2131
20	2062	2545
21	0	1299
22	187	558
23	931	1455
24	0	537
25	1908	3000
26	1512	1933
27	0	1137
28	628	1007
29	1334	2489
30	1001	2558
31	442	1949
32	968	1932
33	1371	3000
34	393	2045
35	0	1542
36	1101	2759
37	954	1764
38	486	1193
39	982	2420
40	92	2007
41	1212	3000
42	1045	1547
43	0	906
44	0	1376
45	879	2074
46	1992	2227
47	1248	2314
48	603	1653
49	330	1301
50	1739	2320
51	798	2483
52	1756	2666
53	1336	2384
54	758	2722
55	0	1523
56	1719	3000
57	1373	2547
58	369	1948
59	633	2555
60	446	719
61	227	1682
62	1268	2484
63	729	2200
64	391	2308
65	209	1135
66	0	1333
67	0	1874
68	692	1334
69	1587	2663
70	1478	2687
71	437	1182
72	0	1681
73	1766	2125
74	452	2001
75	691	1969
76	1392	2630
77	726	1370
78	1433	2351
79	0	837
80	1043	2219
81	1571	2288
82	746	2575
83	1457	3000
84	1293	2101
85	1224	1743
86	1427	1694
87	617	823
88	1435	2645
89	1691	3000
90	1233	1821
91	178	1226
92	888	2875
93	689	1783
94	987	1642
95	748	1809
96	1337	1936
97	1458	2826
98	1126	2680
99	900	2198
100	115	1044
101	1968	2244
102	1416	1839
103	1141	2005
104	0	1109
105	1108	2629
106	1848	2240
107	1935	2469
108	840	1462
109	0	1417
110	0	1798
111	1085	1669
112	369	2316
113	1030	1630
114	1150	3000
115	1226	1733
116	319	1907
117	0	1189
118	1418	3000
119	1478	3000
120	308	736
121	982	1608
122	0	1599
123	677	2297
124	1236	2144
125	591	2479
126	1395	2170
127	1234	3000
128	328	1270
129	0	1491
130	977	2527
131	724	2632
132	783	1787
133	2022	2277
134	711	1973
135	81	1613
136	0	1252
137	641	2613
138	1627	2376
139	2167	2480
140	0	574
141	404	1294
142	878	1294
143	632	2299
144	0	637
145	1275	2840
146	97	1648
147	0	1437
148	507	1760
149	1681	1918
150	1749	2000
151	684	2020
152	839	1335
153	0	1324
154	595	2593
155	570	1565
156	1039	2364
157	1292	2323
158	227	2215
159	0	1658
160	1691	2159
161	802	1189
162	643	1386
163	207	1857
164	669	1421
165	673	1425
166	1077	1983
167	869	2798
168	379	924
169	1616	3000
170	359	1756
171	1349	2823
172	1423	1754
173	500	1856
174	723	2627
175	1237	2515
176	1621	1954
177	511	2492
178	243	2156
179	564	1975
180	437	1825
181	1184	3000
182	16	820
183	76	1111
184	964	2846
185	692	2501
186	1384	2016
187	1409	2901
188	374	2229
189	0	1822
190	827	1815
191	154	1637
192	723	2109
193	1458	2650
194	1421	2601
195	1674	2185
196	1912	2965
197	534	1887
198	681	1477
199	1843	2870
200	762	964
201	830	1857
202	1583	2772
203	187	883
204	676	976
205	792	1014
206	578	1263
207	1213	1486
208	337	1234
209	1388	1687
210	227	1904
211	839	2556
212	406	664
213	1198	2958
214	1249	2110
215	1411	2308
216	120	1416
217	0	1656
218	1516	2457
219	1116	2646
220	903	1966
221	1921	2419
222	492	2362
223	628	1123
224	789	2422
225	0	947
226	874	2484
227	935	2249
228	0	1358
229	753	1922
230	1458	2387
231	296	1739
232	526	2145
233	1168	1804
234	542	2152
235	0	1142
236	394	2274
237	1536	2845
238	888	1879
239	774	1208
240	189	1972
241	1673	2858
242	583	1194
243	420	2149
244	938	1601
245	507	1137
246	825	1876
247	1233	1759
248	279	1239
249	449	1946
250	633	1017
251	0	1663
252	0	1058
253	1443	1818
254	1146	2994
255	0	1616
256	1113	1435
257	678	2514
258	772	2164
259	1193	2262
260	401	1042
261	598	1795
262	1097	1624
263	0	1442
264	625	968
265	0	1219
266	35	1025
267	1176	1534
268	1452	3000
269	1547	1816
270	1125	1793
271	1298	3000
272	691	2096
273	1940	2747
274	606	1295
275	835	1093
276	598	989
277	704	2458
278	1149	2835
279	1159	2412
280	674	2027
281	1018	2081
282	1722	2352
283	722	1368
284	952	2370
285	798	2250
286	930	2178
287	1489	2553
288	1375	3000
289	127	619
290	37	1890
291	420	1440
292	0	862
293	554	2393
294	458	1187
295	1519	2493
296	1019	1382
297	0	1943
298	572	2271
299	956	2434
300	1526	1778
301	375	1574
302	209	1153
303	0	1418
304	1033	2187
305	116	1672
306	0	1813
307	183	978
308	1813	3000
309	1282	2329
310	2093	2395
311	1089	2944
312	1616	2154
313	1851	2177
314	79	1992
315	1714	3000
316	1437	1878
317	2241	2877
318	1348	2991
319	1406	1739
320	0	1163
321	97	1071
322	872	2330
323	914	1760
324	0	1241
325	1390	1949
326	1220	2066
327	1723	2237
328	338	963
329	906	1438
330	343	1097
331	1027	2926
332	927	2480
333	1476	2951
334	633	2021
335	732	1154
336	60	1629
337	1336	1855
338	313	861
339	1946	2203
340	1641	2132
341	1346	2023
342	1155	2414
343	488	2154
344	1309	1937
345	335	2023
346	1129	2741
347	701	2030
348	0	1855
349	1196	2220
350	422	2197
351	996	1812
352	1544	3000
353	355	1692
354	1318	1698
355	942	2358
356	0	1388
357	292	2181
358	1058	2040
359	1193	1661
360	780	2355
361	302	2040
362	722	1603
363	991	2035
364	760	2057
365	353	1513
366	179	1210
367	1433	3000
368	1569	2142
369	937	2448
370	1288	3000
371	1429	2486
372	1027	1911
373	0	1752
374	342	893
375	0	1320
376	1531	2639
377	1544	1784
378	818	1253
379	1650	2004
380	1236	2014
381	1703	1991
382	93	380
383	0	962
384	959	1392
385	773	2466
386	379	1467
387	485	1711
388	1984	3000
389	1091	2641
390	100	791
391	476	1600
392	1457	2474
393	105	944
394	1373	2420
395	440	2419
396	1722	2634
397	482	1406
398	1597	3000
399	27	1338
400	63	1754
401	378	1112
402	1625	2069
403	567	1124
404	1394	2926
405	475	2309
406	1208	2589
407	641	2167
408	1531	2681
409	1676	2850
410	142	1500
411	951	1394
412	660	2203
413	391	1586
414	2002	2557
415	785	1875
416	553	1840
417	168	1120
418	1779	2226
419	423	1662
420	1573	2687
421	2408	2658
422	1889	3000
423	71	1495
424	1706	3000
425	128	1849
426	1709	1997
427	900	1489
428	2069	2317
429	1037	2370
430	1050	1401
431	1875	2432
432	437	1525
433	372	1827
434	947	2838
435	904	1374
436	1037	2650
437	0	1294
438	0	1339
439	673	2190
440	47	603
441	279	1494
442	146	1561
443	370	1848
444	2094	2505
445	462	1345
446	1320	3000
447	424	2160
448	1717	2080
449	1177	1862
450	1176	1574
451	1796	2659
452	921	1852
453	515	2447
454	316	1581
455	799	1927
456	1664	3000
457	966	1551
458	288	718
459	1736	1995
460	716	2626
461	557	2242
462	0	1010
463	733	1124
464	663	894
465	1007	2669
466	1362	2769
467	1283	2089
468	1390	2211
469	740	1629
470	331	1616
471	1584	2963
472	625	2102
473	0	1553
474	0	1178
475	1037	2259
476	0	1481
477	1621	2701
478	909	2646
479	142	1985
480	256	1042
481	0	1592
482	547	1215
483	2244	2841
484	623	2492
485	1469	2756
486	915	2444
487	1292	2643
488	496	2011
489	744	1332
490	566	2495
491	741	1780
492	1576	2360
493	984	2625
494	1336	2202
495	1375	3000
496	1209	1758
497	1292	1822
498	203	1203
499	267	1439
500	899	1909
501	1183	2431
502	1755	2293
503	1394	2665
504	1128	2040
505	1506	1780
506	1168	2743
507	1034	2157
508	1390	2636
509	140	1850
510	64	2045
511	580	2283
512	44	1404
513	654	2227
514	1595	2240
515	106	563
516	993	2419
517	0	1652
518	358	1847
519	1569	2378
520	575	2042
521	1221	1782
522	941	2636
523	872	1269
524	1081	2946
525	259	949
526	0	1527
527	1114	1831
528	1600	2888
529	506	1899
530	1623	3000
531	596	1638
532	365	819
533	203	1980
534	1109	2473
535	1714	2893
536	276	895
537	0	1607
538	16	1359
539	0	1023
540	276	1529
541	275	810
542	591	2108
543	552	1402
544	48	1630
545	1092	1809
546	1976	2364
547	1962	2344
548	831	1374
549	483	1520
550	427	919
551	207	1595
552	770	1328
553	1436	2327
554	1119	2621
555	1126	2190
556	1606	2316
557	576	1532
558	1652	2041
559	301	1086
560	64	1459
561	244	1815
562	1413	2223
563	0	948
564	318	2300
565	883	1760
566	1947	2449
567	1526	3000
568	1561	2474
569	655	2487
570	466	683
571	1060	1783
572	1129	1822
573	155	1425
574	1155	1483
575	0	1319
576	1006	2968
577	623	2580
578	615	1297
579	978	1677
580	1830	3000
581	451	1365
582	927	1683
583	300	2224
584	5	1124
585	1617	2331
586	650	1285
587	537	2177
588	1353	1931
589	517	1772
590	1289	2445
591	0	1720
592	1950	2764
593	855	1606
594	1586	2396
595	1476	2886
596	531	938
597	1270	2620
598	1139	1627
599	315	2268
600	165	1989
601	1147	3000
602	1290	2481
603	549	1432
604	1482	2374
605	949	2033
606	1083	2363
607	238	595
608	678	1046
609	1729	2400
610	260	604
611	285	782
612	1718	3000
613	335	1063
614	0	1522
615	632	1441
616	768	1803
617	685	1619
618	765	2581
619	1182	1642
620	1763	2974
621	2211	2997
622	294	1092
623	533	2105
624	1468	2520
625	771	2425
626	554	806
627	1628	1984
628	1112	2115
629	926	2107
630	1245	2195
631	1281	1499
632	0	1510
633	147	1243
634	821	1256
635	470	1770
636	222	1027
637	1216	2378
638	231	1092
639	1184	2117
640	113	1895
641	640	2029
642	1254	1456
643	814	1458
644	1266	2912
645	479	1629
646	563	1845
647	982	2493
648	1644	2262
649	282	2154
650	1052	1726
651	861	2365
652	1628	2300
653	0	1472
654	727	1952
655	911	1708
656	0	1119
657	785	2612
658	828	2135
659	1828	2512
660	1212	1658
661	858	2802
662	1632	2754
663	1873	2275
664	1126	2063
665	2043	2495
666	1345	1612
667	35	1436
668	1510	2311
669	1623	1880
670	0	1018
671	963	2857
672	984	1722
673	1103	2411
674	9	1796
675	726	999
676	1360	2914
677	849	2595
678	1698	2109
679	251	1094
680	2017	2290
681	78	1508
682	1687	2076
683	170	603
684	1526	2603
685	532	1651
686	406	1565
687	1207	1615
688	1966	2221
689	1337	1999
690	1371	3000
691	559	2414
692	856	2201
693	206	1551
694	51	1562
695	0	1468
696	0	1609
697	266	1497
698	1254	2740
699	579	1892
700	1791	3000
701	1218	1885
702	748	2425
703	613	2129
704	729	2032
705	876	2612
706	916	2696
707	724	2516
708	1595	1969
709	272	2204
710	0	1883
711	449	1330
712	225	835
713	1538	2997
714	0	1067
715	970	2903
716	1264	2371
717	487	1699
718	1130	2190
719	1053	2674
720	114	1945
721	1253	2189
722	0	1316
723	1444	2234
724	1036	1441
725	0	1444
726	1463	1708
727	1611	2999
728	0	765
729	1534	3000
730	1630	2275
731	709	1549
732	274	2186
733	734	1493
734	485	2020
735	742	1991
736	0	1859
737	1945	2287
738	652	1227
739	663	1719
740	33	1412
741	0	1496
742	1089	2820
743	1071	1375
744	1153	2494
745	1412	2970
746	752	1669
747	1471	2435
748	1540	1834
749	184	1691
750	1054	2131
751	764	2392
752	724	1819
753	89	1829
754	1822	2360
755	676	894
756	1199	2672
757	1035	2120
758	559	1369
759	914	1671
760	1565	2209
761	34	935
762	512	2415
763	1082	2788
764	570	955
765	594	1390
766	1798	2450
767	1162	2192
768	1005	1772
769	306	977
770	75	1142
771	338	1756
772	58	2010
773	643	1839
774	0	808
775	1111	1653
776	1404	1823
777	568	1942
778	543	1480
779	835	2644
780	0	1732
781	1186	2567
782	288	2220
783	0	1343
784	1694	2903
785	669	1458
786	750	2341
787	481	973
788	0	1139
789	1346	2303
790	1472	2268
791	765	2021
792	535	1407
793	0	1690
794	480	1001
795	63	1142
796	1353	2293
797	1105	1912
798	0	1164
799	2179	2538
800	317	2268
801	0	1414
802	659	2096
803	1274	1708
804	1447	1930
805	610	2288
806	1345	3000
807	606	1085
808	0	1648
809	840	2610
810	1181	2055
811	1975	2272
812	1412	2320
813	1670	2260
814	752	1135
815	1159	1661
816	0	776
817	960	1222
818	1877	2779
819	0	1721
820	1021	2792
821	1449	2068
822	219	2145
823	559	1324
824	1178	2509
825	820	1998
826	175	2041
827	1039	2247
828	1402	2872
829	939	2542
830	1133	2118
831	1259	2852
832	1147	3000
833	882	1803
834	569	1066
835	1103	2513
836	0	1246
837	1379	2575
838	0	1415
839	1912	2704
840	1332	1781
841	1610	2886
842	1153	2997
843	1468	2224
844	1114	1580
845	1698	2024
846	176	1863
847	174	1626
848	688	2073
849	873	2096
850	1300	2280
851	1749	1966
852	854	2702
853	860	2497
854	346	1869
855	860	1192
856	867	2185
857	106	999
858	0	1370
859	954	1525
860	2367	2753
861	675	2423
862	404	1930
863	105	1621
864	1276	1708
865	500	1023
866	1103	2870
867	734	2618
868	1560	2886
869	405	1984
870	654	1000
871	618	1335
872	1392	2771
873	739	1881
874	1080	1295
875	1699	2205
876	0	1122
877	507	746
878	0	1787
879	1310	2044
880	286	1528
881	1981	2457
882	313	2204
883	1152	1956
884	986	1797
885	1178	2478
886	183	1978
887	495	1599
888	451	1789
889	0	1136
890	0	1130
891	1474	1746
892	1076	1816
893	2055	2455
894	98	1097
895	1874	2324
896	665	1851
897	228	2182
898	110	1942
899	0	1765
900	0	1525
901	1169	2690
902	1369	1965
903	1528	3000
904	297	1160
905	355	965
906	1337	2274
907	591	1736
908	357	2323
909	1465	3000
910	145	1977
911	1926	2773
912	1606	2957
913	1138	2744
914	1210	2807
915	1745	1952
916	1699	1968
917	0	1878
918	1264	2600
919	0	1388
920	1264	2386
921	1128	2718
922	1603	2774
923	1474	2342
924	547	1103
925	0	1382
926	1218	2825
927	1881	2639
928	87	1887
929	262	1820
930	562	1978
931	973	2796
932	722	1798
933	1456	2503
934	1127	1363
935	489	1149
936	147	643
937	0	1310
938	0	1063
939	772	2265
940	625	1873
941	1653	3000
942	481	1185
943	1088	2094
944	1624	2524
945	524	1822
946	1213	2979
947	674	1894
948	703	1361
949	1194	2937
950	0	1566
951	1712	2921
952	217	1066
953	489	1416
954	383	1382
955	140	1557
956	1117	1363
957	266	1883
958	24	1129
959	1798	3000
960	0	970
961	844	1931
962	175	1936
963	0	1082
964	1734	2425
965	1449	3000
966	470	929
967	987	2619
968	1003	1401
969	1559	2097
970	934	1863
971	252	1217
972	1625	2742
973	1230	3000
974	1445	3000
975	2111	2858
976	1165	2181
977	1243	3000
978	466	2340
979	1470	3000
980	0	1626
981	616	2528
982	1912	2598
983	505	1203
984	1632	2676
985	1452	3000
986	1329	1903
987	1167	2735
988	1744	2276
989	336	2082
990	417	1117
991	1059	2018
992	864	1138
993	862	2465
994	836	2300
995	1766	2726
996	1449	2742
997	0	1187
998	1962	2323
999	365	1208
1000	685	1654
1001	1276	2590
DEPOT_SECTION
1
-1
EOF
