NAME : n1001-0003
COMMENT : "Generated by pyvrp_manuel (OVRPLTW)"
TYPE : OVRPLTW
DIMENSION : 1001
EDGE_WEIGHT_TYPE : EUC_2D
CAPACITY : 150
VEHICLES : 1000
OPEN_ROUTE : YES
DISTANCE : 3000
SERVICE_TIME : 200
NODE_COORD_SECTION
1	752	352
2	204	239
3	136	774
4	803	151
5	983	579
6	724	613
7	602	789
8	303	480
9	338	351
10	995	959
11	317	938
12	203	520
13	562	910
14	217	769
15	523	72
16	197	780
17	450	557
18	491	735
19	99	53
20	699	944
21	46	384
22	127	336
23	276	365
24	515	447
25	857	176
26	609	651
27	174	432
28	370	193
29	323	522
30	147	28
31	264	71
32	115	68
33	790	433
34	603	675
35	154	645
36	508	821
37	868	67
38	166	850
39	186	161
40	793	965
41	205	509
42	277	472
43	346	571
44	605	852
45	171	641
46	994	742
47	492	291
48	706	839
49	531	729
50	506	715
51	976	369
52	859	4
53	756	306
54	856	52
55	353	944
56	461	671
57	451	716
58	211	731
59	834	129
60	730	251
61	487	15
62	876	922
63	295	852
64	122	343
65	611	931
66	716	795
67	601	111
68	991	251
69	73	161
70	159	758
71	677	395
72	941	937
73	33	948
74	25	248
75	509	632
76	991	274
77	381	263
78	764	257
79	558	895
80	419	603
81	730	150
82	810	375
83	542	968
84	339	182
85	53	619
86	723	554
87	320	376
88	80	367
89	461	283
90	412	61
91	714	54
92	460	161
93	304	966
94	39	748
95	111	869
96	468	299
97	678	710
98	24	688
99	307	387
100	756	821
101	117	346
102	90	868
103	557	405
104	6	344
105	86	318
106	287	4
107	822	646
108	276	313
109	149	110
110	396	257
111	493	32
112	59	541
113	289	827
114	970	619
115	381	512
116	765	988
117	307	553
118	883	792
119	308	77
120	612	132
121	711	693
122	41	487
123	110	765
124	148	940
125	817	188
126	539	695
127	412	598
128	690	786
129	10	178
130	697	699
131	324	379
132	687	541
133	14	786
134	67	146
135	114	866
136	965	59
137	450	976
138	115	324
139	668	40
140	905	922
141	784	343
142	305	382
143	626	635
144	942	369
145	345	904
146	403	226
147	36	799
148	953	90
149	999	122
150	297	115
151	741	866
152	730	354
153	861	90
154	9	587
155	280	795
156	154	535
157	211	426
158	65	942
159	651	155
160	33	870
161	868	900
162	963	226
163	197	901
164	774	209
165	82	593
166	408	43
167	710	994
168	423	405
169	559	453
170	145	667
171	152	884
172	514	619
173	804	908
174	550	971
175	368	899
176	283	486
177	545	504
178	535	31
179	525	637
180	120	417
181	323	436
182	859	178
183	813	583
184	692	378
185	490	467
186	154	462
187	725	172
188	369	431
189	182	43
190	535	170
191	437	352
192	241	728
193	483	222
194	716	665
195	165	670
196	328	516
197	600	728
198	880	370
199	951	313
200	697	709
201	645	83
202	240	504
203	61	917
204	697	362
205	450	714
206	142	141
207	413	977
208	447	469
209	700	524
210	768	905
211	526	595
212	656	142
213	882	970
214	340	403
215	831	589
216	611	130
217	643	475
218	205	773
219	960	617
220	848	935
221	917	476
222	271	448
223	878	182
224	843	743
225	136	263
226	582	686
227	677	525
228	737	845
229	727	408
230	463	391
231	837	486
232	760	202
233	406	472
234	396	553
235	424	277
236	133	669
237	178	989
238	137	213
239	35	658
240	874	111
241	685	912
242	779	603
243	154	192
244	851	512
245	313	719
246	951	792
247	205	996
248	994	649
249	827	519
250	995	109
251	827	344
252	276	39
253	297	468
254	839	370
255	193	476
256	102	597
257	489	709
258	646	914
259	82	20
260	381	356
261	64	265
262	781	720
263	379	692
264	851	13
265	673	863
266	592	784
267	572	710
268	335	786
269	392	808
270	45	670
271	844	493
272	65	371
273	978	309
274	452	470
275	691	248
276	716	513
277	188	500
278	122	848
279	303	641
280	862	692
281	271	97
282	229	148
283	147	127
284	380	549
285	458	920
286	248	847
287	906	863
288	539	22
289	979	351
290	219	534
291	471	485
292	536	312
293	881	863
294	307	642
295	68	869
296	282	398
297	652	546
298	601	594
299	74	441
300	233	700
301	511	982
302	542	28
303	921	832
304	366	540
305	213	457
306	109	373
307	268	183
308	630	720
309	749	561
310	776	135
311	133	922
312	429	77
313	295	635
314	745	934
315	253	861
316	61	954
317	72	503
318	981	529
319	311	177
320	244	528
321	425	348
322	224	862
323	293	711
324	673	948
325	722	535
326	806	876
327	27	681
328	152	295
329	11	518
330	432	40
331	887	630
332	829	830
333	571	283
334	104	997
335	473	995
336	842	549
337	442	209
338	841	755
339	819	47
340	632	550
341	522	792
342	327	78
343	142	538
344	919	956
345	800	248
346	243	521
347	735	151
348	413	140
349	296	984
350	244	581
351	941	659
352	29	585
353	302	656
354	677	386
355	315	497
356	342	786
357	528	130
358	923	606
359	819	294
360	133	55
361	282	313
362	280	175
363	796	824
364	476	191
365	321	601
366	407	25
367	562	907
368	811	716
369	913	450
370	481	578
371	369	368
372	488	316
373	111	399
374	719	477
375	842	275
376	222	820
377	506	754
378	989	426
379	250	36
380	657	136
381	757	326
382	679	891
383	902	382
384	624	47
385	305	968
386	742	785
387	179	589
388	412	829
389	263	241
390	840	429
391	499	475
392	219	612
393	709	504
394	745	747
395	162	181
396	729	914
397	966	58
398	407	191
399	450	355
400	811	154
401	782	335
402	966	294
403	630	362
404	77	362
405	895	462
406	283	179
407	904	756
408	421	928
409	405	425
410	302	896
411	138	389
412	125	130
413	980	358
414	381	175
415	919	855
416	10	995
417	849	429
418	891	899
419	617	882
420	367	747
421	667	682
422	617	231
423	892	618
424	966	562
425	259	875
426	833	464
427	322	836
428	890	896
429	4	912
430	545	44
431	165	744
432	150	155
433	784	122
434	658	436
435	565	229
436	397	583
437	317	277
438	533	890
439	406	919
440	692	699
441	605	588
442	524	32
443	590	766
444	944	601
445	655	686
446	58	450
447	749	870
448	621	366
449	259	429
450	569	4
451	464	73
452	731	727
453	366	223
454	411	31
455	382	613
456	84	106
457	332	254
458	748	662
459	26	753
460	20	816
461	686	295
462	355	390
463	594	33
464	39	360
465	564	647
466	941	904
467	398	575
468	555	463
469	436	729
470	499	681
471	976	127
472	876	372
473	625	911
474	667	157
475	677	870
476	968	129
477	12	267
478	54	152
479	428	708
480	57	36
481	603	845
482	449	281
483	639	999
484	857	195
485	564	755
486	265	442
487	978	967
488	151	843
489	779	284
490	49	72
491	8	553
492	870	496
493	121	582
494	712	808
495	195	730
496	648	133
497	943	538
498	631	732
499	855	490
500	823	225
501	21	196
502	573	157
503	61	408
504	881	58
505	872	818
506	498	373
507	792	4
508	942	367
509	288	895
510	828	829
511	179	201
512	845	135
513	416	996
514	36	200
515	189	890
516	250	864
517	336	184
518	406	56
519	956	20
520	237	517
521	766	194
522	734	382
523	187	656
524	829	348
525	6	865
526	44	64
527	303	744
528	223	669
529	498	921
530	519	900
531	251	716
532	744	319
533	637	959
534	475	163
535	893	297
536	135	551
537	943	91
538	952	184
539	605	801
540	345	378
541	909	15
542	286	585
543	866	785
544	278	322
545	335	715
546	735	103
547	772	318
548	685	164
549	199	540
550	836	227
551	619	59
552	967	570
553	259	144
554	656	381
555	726	671
556	973	968
557	698	770
558	863	297
559	853	621
560	558	324
561	554	252
562	584	22
563	370	396
564	95	356
565	866	944
566	69	691
567	253	923
568	473	54
569	864	558
570	117	504
571	848	506
572	836	988
573	569	825
574	683	63
575	558	643
576	926	870
577	472	428
578	927	491
579	598	440
580	887	355
581	676	421
582	802	669
583	307	656
584	70	663
585	616	563
586	529	156
587	334	235
588	862	864
589	2	980
590	710	414
591	805	633
592	308	326
593	894	592
594	168	94
595	465	6
596	166	554
597	826	274
598	30	151
599	165	446
600	823	195
601	641	24
602	288	16
603	927	723
604	190	859
605	517	898
606	869	443
607	286	292
608	984	675
609	64	745
610	692	321
611	389	660
612	864	672
613	961	521
614	6	233
615	788	286
616	889	512
617	617	189
618	772	696
619	72	794
620	333	776
621	896	605
622	441	160
623	175	5
624	701	817
625	945	114
626	704	79
627	754	872
628	617	385
629	755	62
630	348	692
631	671	993
632	108	597
633	892	528
634	26	471
635	85	580
636	830	687
637	54	662
638	271	650
639	467	598
640	196	868
641	298	565
642	82	169
643	415	636
644	29	615
645	902	750
646	444	363
647	49	588
648	887	825
649	171	5
650	554	374
651	749	429
652	162	578
653	159	223
654	195	541
655	442	201
656	93	661
657	388	77
658	595	771
659	880	758
660	328	235
661	130	989
662	558	496
663	405	135
664	354	865
665	462	767
666	519	892
667	744	192
668	861	893
669	489	52
670	367	720
671	198	495
672	861	756
673	64	87
674	386	382
675	540	538
676	685	70
677	168	995
678	787	664
679	595	6
680	983	379
681	873	386
682	195	597
683	421	600
684	362	659
685	482	88
686	824	773
687	881	882
688	122	965
689	607	34
690	955	632
691	490	161
692	436	271
693	905	393
694	760	883
695	39	470
696	712	392
697	34	151
698	344	197
699	660	209
700	505	937
701	520	434
702	783	124
703	91	820
704	173	762
705	517	242
706	339	294
707	17	306
708	729	397
709	649	841
710	913	398
711	127	7
712	782	695
713	750	858
714	441	181
715	739	611
716	558	297
717	756	844
718	623	126
719	790	505
720	175	70
721	709	170
722	283	363
723	731	533
724	154	479
725	587	815
726	457	86
727	26	197
728	601	914
729	462	262
730	807	230
731	360	679
732	887	541
733	751	129
734	727	172
735	119	102
736	916	66
737	215	11
738	725	911
739	688	998
740	807	7
741	836	176
742	693	938
743	241	972
744	230	743
745	506	288
746	88	955
747	252	546
748	953	87
749	753	956
750	165	932
751	133	927
752	608	404
753	386	897
754	781	291
755	526	51
756	578	307
757	817	431
758	749	598
759	947	417
760	772	116
761	553	993
762	77	511
763	385	76
764	475	117
765	718	738
766	266	28
767	153	657
768	523	177
769	656	117
770	93	927
771	886	614
772	20	577
773	19	629
774	563	670
775	931	978
776	651	753
777	956	58
778	347	453
779	999	661
780	941	987
781	52	165
782	22	698
783	985	849
784	820	217
785	1	571
786	505	400
787	346	663
788	463	91
789	122	176
790	274	50
791	547	251
792	773	976
793	387	552
794	958	126
795	953	235
796	664	332
797	790	778
798	482	54
799	752	673
800	112	907
801	972	55
802	683	565
803	419	368
804	465	427
805	217	222
806	418	63
807	943	362
808	863	795
809	335	371
810	375	986
811	753	928
812	879	391
813	318	253
814	49	577
815	47	830
816	804	491
817	204	894
818	722	194
819	608	405
820	204	831
821	483	477
822	680	478
823	197	438
824	980	110
825	715	310
826	636	194
827	278	991
828	695	4
829	603	916
830	688	917
831	443	535
832	626	73
833	941	426
834	712	172
835	262	882
836	867	595
837	875	866
838	421	458
839	491	277
840	786	534
841	235	422
842	274	526
843	903	552
844	547	104
845	826	384
846	197	814
847	722	649
848	402	346
849	125	126
850	179	735
851	178	96
852	902	375
853	153	844
854	554	134
855	960	957
856	887	48
857	588	156
858	525	889
859	770	206
860	553	376
861	451	313
862	153	887
863	780	277
864	301	869
865	724	82
866	981	416
867	774	108
868	42	881
869	343	722
870	139	370
871	4	738
872	302	598
873	915	564
874	652	967
875	169	353
876	70	45
877	570	443
878	293	658
879	484	452
880	362	496
881	368	728
882	480	210
883	973	254
884	641	778
885	903	458
886	809	223
887	726	236
888	414	765
889	606	392
890	894	647
891	981	705
892	209	700
893	988	353
894	90	190
895	679	707
896	618	684
897	924	787
898	986	330
899	322	836
900	221	229
901	505	809
902	15	466
903	799	341
904	835	456
905	684	459
906	646	195
907	964	182
908	78	14
909	109	198
910	455	95
911	539	734
912	389	855
913	625	169
914	35	583
915	522	509
916	697	414
917	775	531
918	582	565
919	850	329
920	136	266
921	824	928
922	822	503
923	560	705
924	220	635
925	571	912
926	902	826
927	733	666
928	41	3
929	650	104
930	310	161
931	655	714
932	590	891
933	736	282
934	557	180
935	493	16
936	661	162
937	539	478
938	826	49
939	127	573
940	392	218
941	958	821
942	149	785
943	58	277
944	348	535
945	744	23
946	459	309
947	414	613
948	447	370
949	987	250
950	157	158
951	249	882
952	674	432
953	779	102
954	43	501
955	187	436
956	957	860
957	593	64
958	873	457
959	502	219
960	150	480
961	110	674
962	436	125
963	424	803
964	538	228
965	868	4
966	680	924
967	319	876
968	7	862
969	660	497
970	552	223
971	398	672
972	332	835
973	786	958
974	407	299
975	488	696
976	501	161
977	202	796
978	827	252
979	223	195
980	500	615
981	10	602
982	88	475
983	249	797
984	431	322
985	235	203
986	636	217
987	215	668
988	718	53
989	724	411
990	863	621
991	779	935
992	887	804
993	264	574
994	848	827
995	474	941
996	213	428
997	575	69
998	420	82
999	834	11
1000	938	976
1001	610	77
DEMAND_SECTION
1	0
2	7
3	4
4	1
5	6
6	4
7	4
8	9
9	8
10	4
11	7
12	5
13	9
14	7
15	7
16	6
17	7
18	5
19	7
20	1
21	2
22	5
23	2
24	1
25	4
26	6
27	6
28	8
29	2
30	2
31	4
32	2
33	9
34	1
35	2
36	8
37	7
38	1
39	3
40	3
41	7
42	9
43	4
44	6
45	3
46	9
47	7
48	3
49	9
50	1
51	4
52	8
53	6
54	7
55	6
56	9
57	6
58	4
59	5
60	7
61	2
62	4
63	1
64	7
65	9
66	5
67	3
68	2
69	4
70	1
71	2
72	7
73	7
74	9
75	4
76	6
77	2
78	5
79	4
80	6
81	2
82	6
83	7
84	8
85	5
86	5
87	8
88	9
89	1
90	6
91	1
92	7
93	1
94	9
95	2
96	2
97	4
98	2
99	3
100	5
101	9
102	5
103	6
104	5
105	5
106	5
107	6
108	3
109	2
110	3
111	4
112	9
113	3
114	6
115	9
116	2
117	9
118	2
119	4
120	1
121	5
122	4
123	7
124	2
125	9
126	1
127	5
128	1
129	8
130	3
131	6
132	8
133	5
134	7
135	9
136	7
137	2
138	3
139	3
140	7
141	4
142	8
143	4
144	3
145	2
146	6
147	2
148	1
149	4
150	9
151	7
152	9
153	2
154	9
155	2
156	8
157	6
158	7
159	5
160	8
161	2
162	4
163	1
164	9
165	1
166	6
167	7
168	2
169	2
170	5
171	4
172	1
173	7
174	7
175	8
176	9
177	8
178	3
179	1
180	7
181	1
182	4
183	2
184	5
185	3
186	7
187	5
188	2
189	6
190	5
191	7
192	4
193	9
194	3
195	8
196	5
197	1
198	2
199	2
200	8
201	9
202	3
203	8
204	7
205	3
206	8
207	7
208	7
209	9
210	4
211	5
212	3
213	1
214	2
215	3
216	5
217	1
218	3
219	8
220	9
221	6
222	9
223	1
224	2
225	8
226	6
227	8
228	3
229	7
230	3
231	7
232	2
233	6
234	1
235	6
236	9
237	6
238	4
239	5
240	6
241	6
242	8
243	8
244	4
245	3
246	2
247	7
248	5
249	6
250	5
251	7
252	8
253	5
254	5
255	2
256	1
257	2
258	8
259	3
260	4
261	1
262	8
263	6
264	9
265	6
266	4
267	1
268	1
269	9
270	2
271	3
272	6
273	7
274	3
275	7
276	2
277	7
278	7
279	7
280	8
281	2
282	7
283	7
284	2
285	6
286	2
287	4
288	2
289	7
290	6
291	9
292	9
293	9
294	1
295	6
296	9
297	4
298	6
299	5
300	7
301	7
302	2
303	7
304	7
305	4
306	2
307	8
308	2
309	5
310	5
311	7
312	5
313	2
314	2
315	8
316	9
317	1
318	8
319	9
320	8
321	6
322	1
323	9
324	8
325	7
326	6
327	8
328	6
329	7
330	7
331	8
332	2
333	2
334	4
335	4
336	6
337	4
338	6
339	1
340	2
341	4
342	7
343	3
344	8
345	9
346	7
347	4
348	8
349	2
350	2
351	9
352	2
353	8
354	2
355	9
356	1
357	4
358	5
359	1
360	8
361	2
362	6
363	7
364	5
365	4
366	3
367	3
368	1
369	3
370	3
371	5
372	5
373	8
374	6
375	4
376	3
377	9
378	8
379	7
380	2
381	7
382	6
383	8
384	4
385	4
386	2
387	3
388	5
389	9
390	9
391	4
392	7
393	6
394	2
395	4
396	6
397	7
398	3
399	1
400	3
401	5
402	3
403	4
404	5
405	1
406	1
407	3
408	5
409	8
410	9
411	6
412	7
413	8
414	6
415	8
416	5
417	2
418	8
419	5
420	5
421	6
422	1
423	2
424	8
425	4
426	8
427	8
428	8
429	4
430	6
431	3
432	8
433	3
434	8
435	6
436	2
437	8
438	4
439	7
440	2
441	1
442	7
443	1
444	2
445	3
446	5
447	8
448	4
449	4
450	6
451	7
452	7
453	4
454	4
455	6
456	9
457	1
458	8
459	4
460	2
461	5
462	5
463	4
464	3
465	8
466	8
467	3
468	5
469	7
470	8
471	7
472	3
473	1
474	7
475	4
476	3
477	1
478	7
479	5
480	4
481	3
482	5
483	9
484	4
485	1
486	7
487	7
488	1
489	7
490	5
491	5
492	2
493	5
494	3
495	2
496	2
497	7
498	6
499	6
500	4
501	1
502	8
503	3
504	7
505	5
506	6
507	4
508	6
509	7
510	9
511	4
512	8
513	9
514	1
515	1
516	9
517	4
518	6
519	5
520	2
521	9
522	8
523	1
524	8
525	6
526	1
527	1
528	9
529	5
530	7
531	4
532	9
533	1
534	1
535	8
536	8
537	9
538	6
539	9
540	1
541	4
542	5
543	6
544	4
545	1
546	9
547	4
548	9
549	4
550	8
551	7
552	1
553	2
554	7
555	8
556	9
557	8
558	5
559	2
560	9
561	6
562	4
563	8
564	9
565	1
566	3
567	8
568	5
569	7
570	7
571	2
572	4
573	4
574	8
575	4
576	8
577	2
578	4
579	6
580	5
581	2
582	2
583	7
584	3
585	1
586	2
587	4
588	5
589	7
590	9
591	7
592	7
593	9
594	5
595	8
596	4
597	5
598	7
599	1
600	2
601	8
602	6
603	7
604	8
605	3
606	5
607	9
608	8
609	6
610	3
611	2
612	7
613	5
614	5
615	3
616	7
617	5
618	7
619	7
620	3
621	5
622	4
623	2
624	9
625	1
626	2
627	7
628	8
629	6
630	4
631	3
632	7
633	2
634	5
635	8
636	5
637	4
638	4
639	9
640	2
641	5
642	1
643	7
644	5
645	8
646	9
647	5
648	2
649	3
650	1
651	7
652	4
653	4
654	4
655	2
656	2
657	6
658	9
659	2
660	4
661	5
662	5
663	2
664	1
665	5
666	6
667	1
668	2
669	6
670	4
671	3
672	1
673	7
674	9
675	5
676	7
677	9
678	3
679	8
680	1
681	9
682	1
683	4
684	2
685	4
686	3
687	2
688	7
689	1
690	6
691	3
692	8
693	4
694	3
695	5
696	6
697	7
698	2
699	7
700	7
701	9
702	7
703	7
704	3
705	4
706	3
707	6
708	9
709	2
710	8
711	2
712	2
713	7
714	1
715	4
716	7
717	5
718	4
719	8
720	7
721	6
722	9
723	8
724	8
725	9
726	7
727	9
728	9
729	5
730	6
731	9
732	5
733	6
734	1
735	1
736	3
737	7
738	7
739	1
740	1
741	1
742	7
743	7
744	2
745	7
746	4
747	2
748	9
749	2
750	6
751	5
752	5
753	6
754	1
755	3
756	8
757	7
758	1
759	5
760	6
761	2
762	6
763	8
764	6
765	6
766	3
767	6
768	9
769	6
770	9
771	6
772	3
773	7
774	7
775	2
776	8
777	8
778	8
779	7
780	9
781	1
782	5
783	7
784	8
785	9
786	4
787	9
788	6
789	3
790	2
791	8
792	6
793	1
794	9
795	3
796	9
797	3
798	9
799	5
800	8
801	6
802	8
803	3
804	4
805	9
806	4
807	3
808	8
809	9
810	2
811	4
812	7
813	5
814	6
815	7
816	9
817	1
818	2
819	1
820	2
821	4
822	3
823	3
824	4
825	1
826	8
827	9
828	4
829	5
830	9
831	9
832	1
833	6
834	2
835	7
836	8
837	8
838	3
839	6
840	1
841	1
842	6
843	8
844	3
845	2
846	4
847	8
848	9
849	6
850	8
851	4
852	1
853	6
854	5
855	6
856	1
857	9
858	7
859	6
860	5
861	8
862	1
863	6
864	2
865	1
866	7
867	6
868	9
869	4
870	2
871	3
872	1
873	3
874	5
875	6
876	4
877	2
878	4
879	4
880	8
881	3
882	3
883	3
884	8
885	7
886	9
887	1
888	9
889	6
890	5
891	6
892	9
893	8
894	2
895	9
896	1
897	4
898	4
899	4
900	4
901	7
902	2
903	7
904	6
905	6
906	1
907	6
908	7
909	2
910	6
911	7
912	5
913	6
914	1
915	6
916	2
917	5
918	1
919	8
920	6
921	8
922	7
923	3
924	3
925	4
926	4
927	2
928	3
929	8
930	4
931	2
932	8
933	8
934	1
935	5
936	9
937	2
938	4
939	8
940	4
941	4
942	9
943	1
944	6
945	7
946	6
947	5
948	7
949	6
950	9
951	9
952	5
953	4
954	6
955	1
956	7
957	1
958	4
959	8
960	3
961	9
962	4
963	3
964	7
965	2
966	4
967	9
968	7
969	4
970	2
971	7
972	1
973	5
974	1
975	9
976	5
977	7
978	8
979	8
980	3
981	4
982	3
983	5
984	4
985	7
986	4
987	9
988	1
989	6
990	2
991	5
992	8
993	8
994	9
995	8
996	1
997	7
998	6
999	5
1000	8
1001	3
TIME_WINDOW_SECTION
1	0	3000
2	1302	2291
3	649	2305
4	400	1025
5	1451	2288
6	377	1961
7	1714	2272
8	112	1886
9	0	1252
10	1599	2390
11	747	2593
12	441	2427
13	1861	2453
14	1403	2108
15	212	524
16	1185	2682
17	1557	3000
18	220	1931
19	333	2056
20	1164	2706
21	769	1863
22	1293	1985
23	178	2002
24	1863	2226
25	0	1119
26	0	1326
27	0	1730
28	525	1010
29	16	1084
30	1492	2437
31	1185	2423
32	721	1662
33	1633	2100
34	1080	1617
35	0	1527
36	0	1216
37	1025	2961
38	874	1245
39	1023	1486
40	848	2399
41	327	2259
42	1029	1249
43	1226	2203
44	635	1289
45	558	2203
46	1276	1553
47	649	1187
48	1631	2495
49	0	1555
50	1032	1304
51	1839	2416
52	500	1915
53	1777	2683
54	968	1753
55	1188	1915
56	1262	1724
57	663	1730
58	1152	1381
59	1553	3000
60	438	1856
61	393	1337
62	926	1935
63	655	1112
64	1513	2106
65	212	1710
66	625	1782
67	501	2221
68	355	613
69	165	1610
70	0	1717
71	0	569
72	138	1304
73	269	2201
74	860	1197
75	1697	3000
76	172	1836
77	938	1171
78	435	1480
79	796	2763
80	1367	1699
81	734	1896
82	1471	1691
83	0	1562
84	537	2106
85	1077	2956
86	254	1371
87	1471	2669
88	879	1100
89	313	1617
90	0	1508
91	952	2608
92	1551	2564
93	789	1998
94	88	1857
95	981	2275
96	1226	1565
97	1582	2409
98	788	1732
99	942	2210
100	1397	2192
101	1208	2257
102	426	1356
103	769	1929
104	1327	2568
105	542	1724
106	1311	2288
107	1894	2603
108	482	1351
109	1492	1844
110	498	1740
111	1281	1804
112	1162	2579
113	888	2681
114	698	1857
115	666	1990
116	134	1842
117	1839	2172
118	63	864
119	530	879
120	0	841
121	1757	2679
122	329	2171
123	402	2077
124	1532	2047
125	0	1608
126	1035	2266
127	1369	1961
128	373	1280
129	1158	2335
130	682	1876
131	0	1659
132	0	1423
133	1223	2158
134	1318	1736
135	733	2692
136	871	1513
137	967	1848
138	1287	2343
139	704	2283
140	23	1964
141	0	1588
142	0	1426
143	1882	2828
144	1357	1721
145	344	2274
146	238	2010
147	922	2530
148	98	1015
149	1206	2350
150	437	1488
151	660	1706
152	243	2194
153	52	1200
154	1782	2256
155	1104	2639
156	595	2425
157	1173	2869
158	879	2121
159	731	2579
160	866	2340
161	155	1411
162	888	2875
163	1441	2158
164	191	1320
165	1112	2001
166	810	1589
167	966	2897
168	297	1993
169	611	2308
170	824	1730
171	320	2125
172	907	1505
173	592	2358
174	1451	2633
175	1376	1988
176	138	899
177	1808	2461
178	0	1749
179	1050	2486
180	568	2360
181	0	1042
182	1941	2697
183	109	386
184	68	586
185	668	2365
186	1036	2827
187	1865	2393
188	1138	1986
189	916	1156
190	1272	1476
191	618	1653
192	1565	2006
193	1552	2223
194	1622	2804
195	429	2125
196	641	841
197	1706	2096
198	109	1917
199	1913	2915
200	0	1250
201	861	2780
202	1289	1947
203	1033	2113
204	1805	2893
205	581	1241
206	1447	2067
207	0	1727
208	295	750
209	1472	2981
210	77	1486
211	707	1082
212	2324	2794
213	642	2535
214	647	2104
215	679	2595
216	531	2250
217	1176	2718
218	0	1835
219	1477	2600
220	597	2104
221	1448	2139
222	878	1310
223	1916	2828
224	1673	2447
225	628	951
226	172	2005
227	0	1238
228	1626	2070
229	1830	2116
230	1245	2135
231	1733	2903
232	735	2615
233	50	948
234	894	1913
235	1342	3000
236	815	2601
237	914	2862
238	1559	2104
239	919	2126
240	0	1497
241	638	2590
242	1124	3000
243	712	2503
244	54	466
245	1135	2895
246	1704	2802
247	333	1741
248	698	932
249	1082	2299
250	845	2154
251	0	679
252	1271	1593
253	886	2252
254	1200	2702
255	344	1897
256	608	1745
257	1597	2277
258	376	2037
259	973	1911
260	1165	3000
261	1416	2252
262	1068	2176
263	560	779
264	526	1639
265	555	1551
266	1209	3000
267	1297	2145
268	1078	2793
269	623	1245
270	180	1932
271	97	1309
272	1708	2370
273	1788	2748
274	1425	2888
275	1554	2823
276	362	1646
277	1261	2049
278	987	1394
279	567	2003
280	1430	3000
281	675	2235
282	587	1002
283	1274	1799
284	661	1636
285	1800	2148
286	520	2299
287	1001	1668
288	2087	2651
289	769	1701
290	722	2657
291	371	704
292	0	537
293	763	2343
294	317	992
295	777	2602
296	910	1547
297	1263	2206
298	0	1321
299	1286	1687
300	0	1636
301	1069	2171
302	461	1858
303	291	1874
304	560	1318
305	608	1660
306	1645	2288
307	465	1539
308	88	963
309	1670	2685
310	0	827
311	377	2354
312	940	1780
313	1306	1654
314	841	1294
315	320	2163
316	982	2118
317	1019	2581
318	499	2105
319	1743	2019
320	434	1590
321	0	1148
322	1368	2632
323	1512	2135
324	521	2223
325	1459	3000
326	1397	2109
327	740	1722
328	443	2220
329	1249	2745
330	885	1546
331	1693	2493
332	942	2106
333	1890	2601
334	1549	1922
335	1167	2636
336	1274	1768
337	2008	2606
338	1341	3000
339	316	1600
340	103	1438
341	1236	3000
342	915	2756
343	1210	2294
344	668	2272
345	1097	1942
346	422	1222
347	1253	2431
348	998	2609
349	174	2041
350	966	1387
351	1345	3000
352	256	1500
353	1565	2624
354	1540	2048
355	616	1881
356	342	1441
357	879	1924
358	253	570
359	1259	2827
360	881	2296
361	1485	2907
362	0	1300
363	1078	3000
364	1480	1970
365	196	1413
366	970	1260
367	1238	2236
368	1405	3000
369	1177	1811
370	257	831
371	1020	1421
372	963	1319
373	541	2493
374	1079	2682
375	1442	3000
376	1075	2055
377	1677	2276
378	896	2128
379	282	2278
380	787	2163
381	1711	3000
382	660	2163
383	661	1162
384	676	2475
385	849	1296
386	0	1109
387	1505	1894
388	326	1392
389	0	1729
390	807	1550
391	0	1267
392	755	1312
393	0	840
394	223	1553
395	1566	2033
396	0	1754
397	0	1584
398	675	2449
399	582	1087
400	602	2310
401	1359	2502
402	1732	2876
403	1274	2513
404	977	1953
405	2037	2525
406	1718	2587
407	449	1139
408	1191	1780
409	843	2315
410	893	2830
411	1019	2477
412	933	1204
413	1342	3000
414	744	1973
415	1382	3000
416	428	2372
417	502	1896
418	885	1858
419	1566	1769
420	429	1505
421	0	973
422	535	926
423	1120	2734
424	731	2188
425	1455	2298
426	7	297
427	1303	2828
428	1355	3000
429	858	1671
430	462	868
431	483	2261
432	574	1798
433	227	1443
434	1166	2204
435	2228	2478
436	930	2329
437	503	2355
438	1264	2944
439	904	2241
440	957	2496
441	1711	2033
442	1504	2511
443	70	1059
444	2192	2533
445	241	1042
446	1276	2882
447	1366	2307
448	1477	3000
449	1214	3000
450	1407	1842
451	1831	2760
452	1170	1521
453	512	1149
454	1006	1611
455	458	760
456	195	1944
457	0	1366
458	1219	2283
459	160	2070
460	820	1759
461	1457	2353
462	401	1234
463	1972	2398
464	1101	2944
465	429	1191
466	446	1993
467	2082	2348
468	203	948
469	669	1377
470	172	1465
471	829	2687
472	780	1289
473	1165	1826
474	0	1630
475	110	1211
476	1262	2360
477	763	2749
478	857	2232
479	1233	2707
480	1395	2534
481	1317	2705
482	1355	1742
483	63	1858
484	1071	2319
485	719	2107
486	1945	2345
487	768	1851
488	1465	2428
489	2449	2846
490	0	1780
491	541	2514
492	1472	3000
493	532	1386
494	928	1580
495	1201	2784
496	967	2150
497	586	1193
498	1588	2459
499	0	1089
500	452	1625
501	501	1845
502	491	1767
503	1556	2050
504	1160	1880
505	817	1966
506	12	721
507	897	1315
508	385	1967
509	1348	2360
510	1487	2566
511	920	2427
512	728	956
513	1028	2154
514	1217	2839
515	813	1804
516	1142	2156
517	1928	2184
518	1011	1707
519	363	2270
520	1179	2870
521	1784	2004
522	1956	2316
523	1223	2034
524	0	1733
525	691	1207
526	1563	2224
527	774	2629
528	199	2138
529	1091	2754
530	1374	2330
531	488	1073
532	1257	2812
533	296	1098
534	65	1368
535	426	1229
536	994	1645
537	1108	1365
538	2026	3000
539	657	1574
540	1097	1489
541	247	755
542	449	851
543	1336	3000
544	261	1031
545	0	1247
546	1073	2373
547	1884	3000
548	1640	2333
549	299	2067
550	601	1630
551	803	1108
552	1131	2402
553	1297	2667
554	742	1889
555	1060	2973
556	1624	2489
557	793	1651
558	824	2239
559	149	442
560	0	1005
561	1654	3000
562	1753	2433
563	463	2305
564	177	1911
565	1063	1461
566	1031	2480
567	920	2277
568	959	1496
569	271	620
570	1365	2058
571	815	2626
572	0	1590
573	127	1696
574	478	1009
575	1379	3000
576	1065	1408
577	50	1526
578	1932	2745
579	503	1787
580	0	1613
581	0	1403
582	737	1297
583	929	2789
584	428	1871
585	554	1938
586	1636	2111
587	2174	2406
588	681	1861
589	377	2323
590	1248	1759
591	1689	3000
592	1438	2523
593	1980	2320
594	383	2050
595	1811	2019
596	1115	1848
597	890	1420
598	469	2355
599	1621	1948
600	1605	3000
601	921	2424
602	30	1924
603	0	1133
604	1557	2153
605	1343	2500
606	101	1640
607	0	1339
608	675	2220
609	921	1615
610	0	673
611	0	1083
612	1276	1525
613	1051	1304
614	426	1420
615	1287	2048
616	1240	1673
617	593	2467
618	1197	1582
619	1561	1780
620	1067	2719
621	838	2003
622	1480	3000
623	650	1330
624	1544	1935
625	1572	2357
626	0	1341
627	1110	1588
628	989	1385
629	0	1543
630	154	1988
631	528	1144
632	1196	1747
633	0	1263
634	1481	2156
635	1679	2261
636	604	1636
637	194	1726
638	1717	2615
639	89	701
640	1860	2133
641	1647	2903
642	626	2613
643	972	2122
644	385	1597
645	1155	2823
646	477	991
647	1380	2130
648	1036	2175
649	822	2320
650	210	631
651	1638	3000
652	661	992
653	975	1881
654	880	1110
655	1580	2828
656	108	1898
657	1307	2464
658	229	748
659	1740	1954
660	0	1584
661	487	1704
662	821	1419
663	1471	3000
664	0	1546
665	1630	2521
666	863	2368
667	811	2054
668	896	2802
669	0	1527
670	580	2028
671	1298	2404
672	123	2070
673	269	2160
674	1148	1638
675	878	2590
676	1472	3000
677	901	1427
678	0	1135
679	1141	1992
680	827	1960
681	2313	2734
682	857	2413
683	0	1400
684	0	1385
685	1374	2842
686	1409	2282
687	7	1694
688	645	1576
689	1205	2170
690	1624	2591
691	867	2177
692	1610	3000
693	169	1697
694	160	2052
695	1557	2010
696	0	1325
697	1450	1888
698	171	2076
699	846	1202
700	338	1860
701	0	915
702	1724	2969
703	741	2197
704	1168	2431
705	815	2260
706	651	2003
707	1702	2097
708	1864	3000
709	380	875
710	0	1345
711	644	949
712	1054	1583
713	0	1274
714	69	1669
715	1619	2896
716	1880	2530
717	1312	1727
718	1810	3000
719	1608	2019
720	526	963
721	0	1158
722	2066	2292
723	0	1185
724	360	1428
725	1155	2634
726	999	1458
727	255	2192
728	899	1477
729	1407	2059
730	870	2381
731	567	2374
732	0	1109
733	1426	1858
734	1726	2163
735	1438	2039
736	171	1598
737	521	1995
738	699	1380
739	0	1850
740	407	660
741	727	2012
742	29	1788
743	556	1653
744	1468	2722
745	482	2382
746	661	2236
747	0	1700
748	821	2123
749	1566	1895
750	432	2105
751	813	1191
752	318	2172
753	1176	1392
754	494	1659
755	947	1278
756	352	1912
757	0	1636
758	1427	1839
759	1902	2280
760	255	1436
761	989	2247
762	1685	2109
763	1837	2526
764	552	1644
765	1286	1709
766	307	1488
767	386	1261
768	366	2351
769	579	1332
770	872	1552
771	1640	3000
772	1046	2175
773	767	1676
774	959	2064
775	758	1371
776	418	2401
777	1339	2955
778	1398	2109
779	1695	2427
780	503	1194
781	272	1222
782	1570	2318
783	167	1669
784	1446	1693
785	1340	2385
786	0	1101
787	1585	2949
788	30	1441
789	1105	1312
790	771	2258
791	2108	2728
792	434	1982
793	1161	2335
794	475	2007
795	953	2496
796	1144	2887
797	0	1575
798	0	1271
799	88	1056
800	278	1848
801	758	2625
802	453	1538
803	97	1269
804	111	1527
805	753	1837
806	50	1429
807	157	1853
808	345	2140
809	1669	1900
810	520	1652
811	0	1619
812	1032	2225
813	571	1492
814	1040	1473
815	960	1373
816	883	1970
817	985	1770
818	1578	1947
819	0	1174
820	579	2036
821	753	1901
822	912	1860
823	1254	2074
824	394	1141
825	1051	2575
826	415	830
827	1038	2951
828	0	1092
829	1425	1746
830	1258	1614
831	453	2047
832	1054	1489
833	0	1539
834	1598	1949
835	825	1462
836	981	1895
837	1596	1842
838	563	2093
839	1901	2604
840	2127	2934
841	582	1042
842	0	1782
843	1896	2651
844	594	950
845	1420	2427
846	347	1971
847	1464	2002
848	1070	2654
849	720	1908
850	343	1907
851	813	1968
852	911	1453
853	1195	1576
854	384	856
855	325	1186
856	992	2894
857	1986	2726
858	923	2648
859	967	1611
860	1220	2564
861	2075	2892
862	746	2576
863	0	635
864	473	1047
865	527	1102
866	256	651
867	1002	2167
868	1035	2223
869	1164	1532
870	301	2116
871	560	1792
872	985	1658
873	0	1376
874	219	1339
875	1654	1971
876	1014	1950
877	395	1547
878	409	1261
879	1244	2028
880	155	1553
881	1691	1937
882	1104	2022
883	1316	2195
884	1168	1402
885	1109	1984
886	1615	3000
887	0	513
888	1396	1879
889	832	1751
890	727	1449
891	933	2545
892	700	1641
893	388	1720
894	852	1311
895	17	2012
896	1755	2121
897	52	1004
898	469	1328
899	1480	2261
900	472	1648
901	646	1554
902	1168	1700
903	2127	3000
904	1990	2897
905	766	1360
906	1559	2157
907	227	634
908	892	1983
909	671	1523
910	0	1457
911	1549	1845
912	1200	2005
913	898	2603
914	412	1402
915	335	1111
916	971	2416
917	0	1228
918	281	2118
919	777	1287
920	547	766
921	2027	2243
922	2186	2863
923	324	1341
924	369	2183
925	1110	2002
926	1312	3000
927	1532	3000
928	792	1192
929	1246	3000
930	1260	2270
931	391	1667
932	1717	2387
933	1668	3000
934	1885	3000
935	1714	2582
936	1224	1839
937	627	2137
938	133	962
939	0	1724
940	0	1258
941	323	1669
942	1549	2239
943	0	1445
944	1324	1739
945	1186	2952
946	0	1955
947	800	1932
948	0	1575
949	1422	2638
950	934	2233
951	575	1494
952	2201	3000
953	432	1684
954	1052	1318
955	1308	1743
956	907	2418
957	1247	2667
958	1479	2507
959	1344	1917
960	1126	2919
961	335	1798
962	0	1169
963	1856	2182
964	526	1140
965	138	1173
966	210	1141
967	1311	1723
968	966	2388
969	1557	2552
970	32	1127
971	584	2181
972	967	2562
973	916	1258
974	417	2225
975	1234	2231
976	0	1508
977	556	2024
978	304	1195
979	1264	2058
980	933	2859
981	1026	1667
982	1303	2869
983	1496	2140
984	1861	2306
985	1581	2123
986	1645	3000
987	341	2008
988	1022	2969
989	1383	2394
990	505	1123
991	1238	2947
992	89	1327
993	715	1920
994	454	905
995	1770	2075
996	799	2357
997	1535	3000
998	760	2111
999	0	1323
1000	600	914
1001	681	2665
DEPOT_SECTION
1
-1
EOF
