NAME : n1001-0032
COMMENT : "Generated by pyvrp_manuel (OVRPLTW)"
TYPE : OVRPLTW
DIMENSION : 1001
EDGE_WEIGHT_TYPE : EUC_2D
CAPACITY : 150
VEHICLES : 1000
OPEN_ROUTE : YES
DISTANCE : 3000
SERVICE_TIME : 200
NODE_COORD_SECTION
1	73	9
2	796	453
3	334	218
4	214	6
5	700	608
6	272	720
7	465	808
8	452	757
9	19	596
10	92	125
11	783	778
12	209	193
13	954	614
14	507	949
15	9	309
16	971	610
17	686	951
18	481	738
19	928	336
20	774	508
21	627	881
22	373	42
23	716	338
24	518	322
25	100	66
26	474	661
27	676	346
28	504	344
29	196	989
30	10	533
31	164	41
32	277	133
33	848	649
34	918	471
35	959	506
36	958	810
37	261	816
38	844	673
39	824	876
40	874	17
41	773	347
42	49	617
43	619	554
44	756	841
45	935	102
46	109	763
47	309	920
48	841	138
49	466	47
50	254	380
51	886	163
52	613	874
53	153	648
54	348	736
55	590	201
56	830	808
57	186	115
58	829	853
59	880	574
60	644	874
61	937	968
62	964	883
63	28	316
64	979	413
65	647	356
66	815	649
67	975	118
68	204	451
69	627	430
70	625	426
71	715	457
72	154	575
73	964	667
74	101	677
75	671	406
76	182	361
77	472	95
78	550	52
79	619	964
80	647	829
81	36	364
82	596	80
83	139	619
84	629	830
85	14	45
86	24	583
87	154	817
88	694	711
89	351	587
90	232	306
91	104	142
92	110	396
93	661	324
94	693	433
95	292	456
96	569	879
97	278	552
98	144	714
99	175	195
100	671	406
101	517	705
102	269	333
103	228	557
104	302	348
105	131	638
106	44	619
107	745	718
108	757	86
109	983	523
110	770	798
111	651	879
112	443	469
113	329	800
114	956	173
115	803	240
116	70	807
117	495	485
118	240	953
119	594	386
120	913	603
121	770	416
122	492	249
123	948	305
124	569	401
125	359	448
126	812	161
127	338	869
128	432	101
129	140	525
130	911	992
131	527	340
132	657	996
133	696	546
134	388	416
135	371	17
136	668	348
137	337	672
138	907	643
139	309	841
140	219	965
141	250	916
142	746	110
143	575	887
144	463	372
145	94	755
146	899	386
147	187	678
148	656	15
149	173	407
150	721	647
151	802	36
152	394	803
153	807	396
154	287	715
155	770	364
156	508	861
157	800	695
158	429	416
159	477	513
160	3	507
161	939	313
162	904	371
163	390	38
164	24	44
165	621	544
166	867	764
167	299	638
168	213	496
169	498	749
170	585	767
171	444	803
172	853	266
173	46	14
174	555	10
175	51	125
176	566	375
177	682	907
178	453	685
179	280	185
180	209	758
181	794	393
182	392	851
183	511	392
184	341	148
185	364	770
186	413	359
187	31	12
188	473	877
189	735	301
190	631	514
191	337	973
192	142	359
193	467	172
194	396	391
195	118	389
196	121	32
197	776	345
198	471	421
199	582	572
200	523	667
201	293	219
202	997	189
203	585	954
204	67	782
205	295	454
206	736	30
207	715	296
208	934	604
209	220	440
210	717	80
211	882	902
212	206	673
213	637	385
214	174	382
215	109	6
216	291	284
217	894	452
218	543	319
219	932	621
220	95	897
221	774	824
222	872	280
223	884	463
224	891	406
225	764	668
226	156	41
227	162	87
228	306	264
229	813	342
230	282	841
231	20	468
232	582	938
233	746	617
234	842	554
235	256	466
236	365	376
237	196	872
238	864	686
239	905	18
240	631	928
241	285	514
242	622	234
243	160	831
244	791	595
245	137	276
246	482	756
247	493	306
248	307	289
249	614	327
250	418	990
251	214	709
252	655	669
253	146	341
254	179	113
255	42	362
256	982	747
257	93	478
258	968	54
259	250	873
260	374	620
261	970	243
262	614	59
263	679	18
264	875	803
265	713	895
266	2	697
267	485	488
268	135	80
269	826	132
270	557	275
271	159	496
272	890	869
273	492	745
274	64	313
275	750	407
276	890	301
277	978	183
278	562	683
279	444	13
280	945	224
281	450	507
282	874	96
283	857	319
284	144	746
285	540	757
286	697	868
287	800	846
288	846	177
289	695	526
290	936	489
291	386	214
292	408	327
293	339	548
294	432	351
295	16	622
296	45	101
297	811	870
298	316	773
299	805	455
300	336	345
301	553	232
302	148	612
303	378	541
304	631	187
305	232	438
306	817	975
307	249	259
308	791	265
309	481	562
310	260	631
311	863	774
312	799	980
313	532	424
314	988	288
315	746	730
316	909	603
317	622	670
318	640	891
319	498	246
320	947	226
321	842	104
322	792	887
323	418	376
324	36	762
325	129	908
326	203	446
327	105	571
328	355	767
329	257	776
330	161	98
331	938	624
332	797	357
333	840	473
334	636	681
335	760	523
336	643	226
337	858	815
338	305	539
339	396	416
340	256	63
341	705	429
342	750	776
343	994	754
344	545	725
345	203	303
346	733	43
347	551	591
348	485	718
349	956	978
350	443	651
351	536	770
352	711	510
353	427	583
354	998	442
355	224	682
356	575	146
357	312	864
358	241	741
359	705	355
360	609	324
361	450	190
362	310	123
363	297	396
364	198	732
365	121	575
366	357	755
367	192	764
368	954	463
369	724	735
370	57	897
371	306	340
372	156	213
373	754	317
374	448	764
375	840	609
376	932	842
377	985	717
378	920	768
379	11	38
380	450	117
381	899	331
382	486	260
383	541	530
384	106	403
385	524	115
386	825	573
387	331	452
388	46	745
389	838	931
390	473	720
391	480	124
392	887	995
393	341	515
394	230	808
395	524	718
396	897	76
397	327	619
398	903	485
399	735	474
400	85	922
401	662	943
402	38	182
403	779	629
404	405	345
405	235	540
406	178	50
407	524	774
408	198	414
409	81	68
410	897	512
411	873	963
412	832	398
413	189	765
414	797	638
415	789	258
416	510	457
417	548	236
418	282	196
419	958	75
420	759	815
421	226	400
422	629	47
423	595	336
424	36	477
425	975	874
426	782	631
427	996	960
428	540	152
429	596	240
430	323	924
431	223	145
432	108	412
433	786	579
434	582	40
435	268	240
436	594	65
437	446	690
438	380	394
439	775	444
440	726	801
441	562	665
442	519	207
443	864	479
444	778	739
445	429	249
446	565	514
447	772	422
448	149	42
449	770	344
450	196	932
451	299	411
452	874	142
453	231	8
454	530	720
455	190	964
456	919	579
457	191	192
458	141	564
459	913	499
460	634	302
461	603	987
462	754	761
463	272	39
464	749	142
465	674	817
466	519	553
467	246	212
468	191	88
469	503	763
470	620	231
471	854	551
472	884	408
473	747	396
474	254	171
475	38	241
476	721	210
477	240	381
478	172	413
479	953	113
480	241	970
481	153	55
482	338	441
483	994	497
484	746	768
485	24	708
486	26	727
487	747	725
488	296	305
489	109	609
490	432	453
491	538	327
492	871	965
493	730	226
494	545	797
495	203	587
496	959	965
497	259	708
498	843	118
499	64	105
500	515	372
501	141	952
502	572	474
503	712	148
504	700	973
505	183	87
506	889	120
507	838	290
508	600	50
509	181	256
510	553	329
511	550	831
512	51	455
513	152	825
514	783	376
515	212	531
516	788	345
517	423	43
518	413	571
519	221	344
520	443	939
521	639	444
522	671	373
523	111	382
524	673	433
525	217	548
526	145	554
527	818	62
528	266	164
529	118	524
530	406	768
531	869	375
532	571	681
533	145	676
534	89	790
535	897	324
536	18	740
537	990	968
538	768	148
539	627	719
540	158	517
541	292	542
542	182	821
543	598	82
544	978	785
545	388	401
546	531	281
547	119	458
548	220	950
549	103	998
550	219	892
551	568	807
552	430	799
553	385	511
554	297	194
555	216	406
556	974	959
557	621	589
558	562	78
559	889	917
560	96	132
561	215	760
562	63	388
563	595	406
564	414	853
565	247	179
566	570	652
567	78	587
568	596	361
569	352	440
570	651	404
571	437	841
572	557	727
573	455	617
574	5	674
575	659	895
576	685	743
577	345	692
578	15	276
579	442	980
580	632	326
581	625	490
582	746	309
583	638	928
584	394	760
585	961	155
586	208	356
587	709	689
588	109	722
589	775	290
590	489	261
591	420	808
592	487	960
593	601	959
594	102	826
595	576	269
596	634	122
597	574	646
598	440	762
599	570	285
600	81	120
601	217	315
602	324	590
603	362	736
604	963	829
605	863	730
606	131	565
607	421	494
608	20	385
609	999	266
610	170	969
611	613	522
612	599	419
613	872	652
614	820	357
615	280	352
616	179	384
617	854	971
618	630	268
619	201	35
620	131	962
621	999	191
622	254	742
623	726	943
624	697	512
625	910	863
626	506	942
627	267	645
628	23	697
629	761	215
630	582	534
631	293	770
632	249	71
633	452	729
634	62	337
635	39	647
636	794	22
637	677	40
638	212	997
639	966	744
640	808	481
641	847	747
642	862	831
643	75	867
644	319	493
645	37	666
646	351	237
647	132	991
648	92	204
649	12	969
650	649	529
651	744	157
652	824	338
653	140	744
654	406	339
655	264	967
656	791	893
657	154	914
658	181	524
659	634	615
660	867	881
661	668	757
662	520	728
663	31	555
664	796	136
665	594	982
666	51	177
667	796	359
668	35	932
669	709	916
670	421	944
671	343	825
672	77	475
673	149	241
674	428	212
675	150	777
676	668	412
677	264	36
678	854	385
679	502	843
680	720	51
681	255	599
682	582	857
683	858	59
684	794	351
685	57	627
686	997	429
687	166	785
688	636	293
689	827	779
690	280	604
691	348	240
692	723	671
693	340	434
694	471	302
695	272	407
696	942	629
697	698	56
698	976	887
699	189	946
700	364	385
701	297	446
702	802	951
703	514	671
704	275	248
705	125	476
706	25	283
707	859	566
708	362	563
709	40	50
710	588	582
711	207	911
712	5	378
713	83	104
714	878	67
715	206	884
716	69	602
717	987	70
718	476	989
719	238	117
720	173	561
721	780	937
722	349	317
723	745	133
724	616	386
725	743	675
726	13	263
727	845	623
728	940	827
729	855	731
730	30	732
731	559	588
732	35	282
733	578	160
734	285	152
735	154	968
736	161	399
737	603	138
738	889	793
739	206	868
740	581	987
741	89	376
742	864	976
743	41	286
744	347	88
745	580	147
746	335	573
747	279	301
748	700	679
749	786	967
750	435	513
751	386	360
752	810	800
753	814	209
754	635	425
755	461	235
756	703	884
757	155	869
758	511	287
759	264	177
760	287	433
761	491	297
762	102	996
763	928	571
764	176	447
765	481	754
766	727	291
767	165	170
768	537	501
769	159	477
770	421	882
771	199	953
772	573	158
773	117	764
774	995	925
775	388	813
776	259	585
777	599	575
778	380	932
779	35	850
780	668	873
781	523	528
782	582	354
783	367	723
784	448	444
785	108	779
786	66	870
787	591	469
788	335	860
789	179	422
790	468	53
791	43	316
792	584	42
793	189	423
794	8	770
795	815	710
796	666	223
797	301	564
798	848	550
799	514	447
800	549	279
801	948	839
802	494	878
803	974	848
804	538	675
805	918	539
806	623	47
807	324	26
808	505	774
809	719	895
810	856	380
811	992	111
812	434	110
813	714	200
814	634	404
815	853	362
816	653	66
817	96	80
818	158	732
819	900	622
820	807	620
821	420	412
822	630	372
823	993	577
824	274	689
825	842	981
826	828	370
827	70	84
828	637	271
829	215	684
830	512	22
831	368	176
832	997	902
833	978	413
834	438	433
835	973	111
836	958	210
837	278	334
838	800	588
839	660	317
840	141	693
841	41	360
842	338	702
843	21	831
844	878	497
845	859	726
846	70	729
847	876	195
848	562	939
849	416	880
850	245	371
851	940	817
852	544	770
853	993	540
854	500	161
855	756	596
856	792	335
857	283	7
858	510	123
859	564	28
860	423	956
861	780	178
862	256	657
863	865	49
864	914	525
865	450	935
866	662	598
867	60	162
868	821	156
869	269	461
870	806	483
871	709	309
872	671	323
873	150	722
874	243	382
875	124	616
876	629	476
877	506	494
878	632	711
879	821	222
880	322	780
881	518	770
882	260	731
883	927	806
884	140	982
885	868	36
886	838	82
887	947	525
888	656	648
889	990	799
890	296	332
891	9	92
892	787	992
893	793	443
894	46	597
895	894	195
896	380	757
897	5	663
898	674	965
899	446	727
900	259	84
901	469	549
902	820	82
903	883	395
904	451	795
905	785	13
906	384	855
907	824	804
908	168	745
909	811	131
910	270	911
911	257	156
912	695	627
913	567	974
914	273	519
915	622	251
916	146	295
917	560	814
918	995	38
919	714	322
920	582	84
921	29	139
922	950	414
923	559	167
924	586	283
925	442	789
926	377	832
927	377	124
928	629	769
929	47	721
930	205	958
931	175	117
932	349	595
933	445	187
934	784	598
935	485	558
936	179	721
937	927	237
938	857	710
939	970	140
940	47	459
941	382	549
942	23	918
943	436	544
944	174	386
945	354	739
946	84	661
947	892	260
948	825	988
949	671	826
950	276	59
951	282	85
952	42	268
953	423	246
954	463	152
955	553	958
956	382	530
957	115	42
958	951	863
959	198	960
960	899	720
961	220	700
962	635	235
963	257	403
964	81	93
965	453	265
966	882	308
967	958	281
968	625	666
969	301	403
970	440	756
971	505	443
972	875	633
973	251	286
974	336	266
975	744	892
976	371	404
977	838	143
978	874	803
979	498	957
980	139	581
981	274	565
982	162	937
983	813	152
984	373	491
985	352	129
986	28	902
987	82	658
988	417	443
989	763	348
990	21	0
991	36	290
992	808	913
993	433	113
994	833	124
995	787	24
996	496	969
997	955	179
998	300	288
999	242	904
1000	405	538
1001	394	76
DEMAND_SECTION
1	0
2	1
3	2
4	6
5	1
6	4
7	6
8	1
9	4
10	1
11	8
12	6
13	8
14	5
15	3
16	1
17	2
18	9
19	1
20	2
21	7
22	1
23	3
24	3
25	2
26	4
27	5
28	7
29	8
30	4
31	1
32	9
33	6
34	1
35	8
36	7
37	3
38	3
39	8
40	7
41	9
42	1
43	9
44	5
45	4
46	4
47	8
48	9
49	1
50	1
51	8
52	5
53	9
54	4
55	9
56	8
57	5
58	9
59	3
60	5
61	7
62	7
63	5
64	7
65	5
66	4
67	8
68	4
69	4
70	9
71	8
72	4
73	5
74	8
75	6
76	3
77	5
78	1
79	6
80	7
81	7
82	1
83	3
84	7
85	4
86	7
87	6
88	6
89	1
90	8
91	8
92	8
93	8
94	3
95	1
96	4
97	9
98	3
99	6
100	3
101	1
102	4
103	6
104	8
105	8
106	8
107	7
108	6
109	2
110	8
111	8
112	4
113	5
114	1
115	1
116	7
117	2
118	5
119	3
120	5
121	9
122	8
123	6
124	3
125	9
126	3
127	7
128	9
129	2
130	3
131	1
132	7
133	9
134	8
135	6
136	8
137	7
138	6
139	7
140	6
141	2
142	6
143	4
144	2
145	1
146	5
147	3
148	5
149	4
150	7
151	2
152	1
153	9
154	6
155	1
156	1
157	7
158	4
159	8
160	5
161	4
162	5
163	4
164	5
165	5
166	7
167	7
168	6
169	2
170	1
171	4
172	1
173	8
174	1
175	9
176	7
177	2
178	8
179	3
180	9
181	4
182	2
183	5
184	6
185	3
186	6
187	5
188	5
189	6
190	2
191	6
192	7
193	8
194	3
195	2
196	4
197	5
198	1
199	5
200	2
201	1
202	8
203	1
204	6
205	7
206	1
207	2
208	8
209	6
210	3
211	3
212	6
213	1
214	4
215	7
216	2
217	2
218	2
219	2
220	6
221	4
222	5
223	4
224	8
225	2
226	1
227	6
228	9
229	1
230	5
231	4
232	8
233	9
234	9
235	9
236	9
237	1
238	6
239	7
240	6
241	2
242	2
243	5
244	2
245	4
246	9
247	9
248	9
249	5
250	3
251	2
252	4
253	2
254	6
255	2
256	1
257	4
258	1
259	7
260	5
261	6
262	7
263	1
264	3
265	6
266	1
267	4
268	7
269	5
270	6
271	3
272	9
273	6
274	1
275	9
276	3
277	2
278	1
279	2
280	6
281	8
282	5
283	1
284	1
285	6
286	2
287	9
288	5
289	1
290	2
291	9
292	7
293	4
294	7
295	8
296	2
297	6
298	7
299	3
300	2
301	2
302	2
303	1
304	1
305	1
306	7
307	2
308	2
309	9
310	7
311	4
312	4
313	3
314	6
315	2
316	3
317	3
318	1
319	1
320	9
321	6
322	9
323	9
324	9
325	9
326	8
327	1
328	6
329	3
330	3
331	7
332	4
333	5
334	3
335	7
336	1
337	7
338	5
339	4
340	3
341	1
342	7
343	4
344	9
345	7
346	4
347	1
348	5
349	5
350	3
351	3
352	6
353	2
354	2
355	2
356	8
357	2
358	5
359	3
360	4
361	9
362	9
363	9
364	2
365	3
366	9
367	4
368	1
369	2
370	6
371	3
372	1
373	5
374	6
375	8
376	7
377	2
378	9
379	9
380	9
381	6
382	4
383	2
384	3
385	5
386	4
387	6
388	6
389	1
390	1
391	1
392	7
393	6
394	1
395	1
396	9
397	2
398	6
399	1
400	4
401	5
402	1
403	6
404	2
405	9
406	1
407	1
408	3
409	1
410	4
411	9
412	5
413	4
414	9
415	6
416	8
417	7
418	5
419	1
420	8
421	3
422	8
423	3
424	5
425	7
426	6
427	7
428	7
429	5
430	3
431	4
432	1
433	6
434	4
435	4
436	7
437	6
438	1
439	4
440	2
441	7
442	7
443	9
444	3
445	8
446	7
447	5
448	1
449	1
450	2
451	5
452	5
453	3
454	1
455	5
456	4
457	7
458	4
459	7
460	3
461	9
462	1
463	1
464	4
465	8
466	2
467	4
468	7
469	6
470	8
471	9
472	7
473	7
474	5
475	2
476	9
477	2
478	6
479	5
480	3
481	7
482	6
483	5
484	6
485	3
486	4
487	6
488	3
489	4
490	9
491	8
492	6
493	5
494	4
495	9
496	4
497	7
498	8
499	4
500	9
501	9
502	5
503	9
504	2
505	9
506	1
507	4
508	6
509	7
510	4
511	2
512	7
513	5
514	1
515	1
516	3
517	4
518	2
519	6
520	8
521	2
522	5
523	1
524	1
525	9
526	4
527	7
528	5
529	7
530	8
531	1
532	3
533	6
534	8
535	5
536	7
537	6
538	3
539	2
540	9
541	4
542	4
543	3
544	2
545	9
546	1
547	6
548	6
549	7
550	2
551	6
552	1
553	4
554	1
555	7
556	8
557	6
558	1
559	1
560	9
561	2
562	5
563	3
564	7
565	1
566	8
567	3
568	1
569	5
570	1
571	9
572	8
573	4
574	9
575	9
576	3
577	8
578	8
579	6
580	3
581	7
582	6
583	4
584	4
585	6
586	8
587	7
588	5
589	1
590	7
591	7
592	5
593	6
594	6
595	1
596	5
597	3
598	1
599	1
600	2
601	5
602	4
603	6
604	2
605	6
606	5
607	7
608	8
609	7
610	8
611	3
612	1
613	4
614	8
615	2
616	3
617	6
618	9
619	9
620	9
621	1
622	4
623	5
624	3
625	5
626	3
627	4
628	5
629	1
630	2
631	8
632	3
633	3
634	2
635	1
636	9
637	4
638	9
639	3
640	2
641	2
642	3
643	5
644	5
645	3
646	2
647	2
648	7
649	9
650	2
651	8
652	5
653	7
654	5
655	4
656	2
657	8
658	4
659	3
660	5
661	2
662	4
663	4
664	9
665	5
666	5
667	5
668	7
669	7
670	3
671	8
672	7
673	4
674	6
675	6
676	5
677	5
678	6
679	5
680	1
681	1
682	2
683	2
684	3
685	5
686	4
687	2
688	8
689	7
690	4
691	9
692	3
693	9
694	9
695	6
696	1
697	2
698	7
699	8
700	2
701	7
702	5
703	4
704	1
705	4
706	6
707	3
708	3
709	1
710	5
711	6
712	4
713	4
714	2
715	2
716	8
717	5
718	9
719	2
720	2
721	8
722	8
723	3
724	5
725	5
726	3
727	5
728	4
729	8
730	3
731	4
732	1
733	9
734	3
735	4
736	4
737	3
738	7
739	2
740	8
741	4
742	6
743	1
744	1
745	7
746	8
747	1
748	4
749	9
750	2
751	3
752	8
753	5
754	2
755	4
756	3
757	7
758	7
759	2
760	2
761	7
762	5
763	6
764	3
765	2
766	1
767	7
768	8
769	3
770	7
771	6
772	7
773	3
774	7
775	8
776	2
777	2
778	1
779	8
780	7
781	8
782	3
783	8
784	2
785	8
786	2
787	8
788	6
789	6
790	2
791	1
792	9
793	3
794	1
795	6
796	7
797	2
798	1
799	3
800	8
801	9
802	9
803	3
804	6
805	6
806	3
807	4
808	8
809	1
810	3
811	3
812	7
813	9
814	6
815	9
816	2
817	7
818	4
819	7
820	5
821	2
822	3
823	8
824	4
825	6
826	3
827	9
828	6
829	8
830	3
831	1
832	6
833	8
834	1
835	4
836	9
837	6
838	8
839	1
840	3
841	6
842	1
843	1
844	3
845	4
846	5
847	6
848	1
849	8
850	5
851	3
852	5
853	8
854	7
855	4
856	5
857	1
858	6
859	1
860	9
861	7
862	6
863	1
864	5
865	8
866	7
867	7
868	3
869	8
870	3
871	8
872	3
873	5
874	6
875	7
876	4
877	8
878	4
879	2
880	1
881	3
882	5
883	8
884	1
885	3
886	9
887	5
888	9
889	7
890	6
891	6
892	2
893	7
894	3
895	8
896	7
897	7
898	4
899	5
900	6
901	8
902	3
903	5
904	7
905	4
906	2
907	7
908	1
909	7
910	2
911	8
912	6
913	7
914	8
915	3
916	5
917	6
918	9
919	9
920	8
921	1
922	2
923	5
924	2
925	6
926	2
927	8
928	4
929	6
930	8
931	8
932	5
933	1
934	8
935	3
936	8
937	6
938	6
939	5
940	2
941	5
942	8
943	4
944	7
945	4
946	9
947	3
948	5
949	5
950	8
951	7
952	2
953	5
954	9
955	8
956	9
957	8
958	8
959	5
960	2
961	2
962	6
963	5
964	5
965	7
966	5
967	5
968	9
969	4
970	9
971	4
972	5
973	3
974	6
975	9
976	1
977	8
978	9
979	5
980	1
981	6
982	3
983	7
984	3
985	6
986	7
987	2
988	7
989	5
990	8
991	9
992	5
993	5
994	3
995	2
996	5
997	5
998	4
999	3
1000	2
1001	9
TIME_WINDOW_SECTION
1	0	3000
2	1753	2063
3	1789	2127
4	1888	2253
5	635	1591
6	105	1832
7	0	1833
8	813	1403
9	434	1801
10	1426	1764
11	1501	1955
12	73	740
13	795	1555
14	1036	2156
15	788	2638
16	823	1416
17	1089	1859
18	369	2351
19	1703	1989
20	301	2199
21	973	1527
22	1699	3000
23	970	2690
24	537	1243
25	1295	2607
26	1263	1588
27	631	2508
28	0	1349
29	814	2208
30	1503	2574
31	1551	2449
32	1857	2274
33	535	2493
34	948	1291
35	752	2364
36	564	2245
37	884	2006
38	1137	2405
39	1356	1703
40	325	1910
41	1309	1648
42	24	1272
43	1431	2118
44	819	2561
45	999	2149
46	1210	2103
47	1282	1708
48	430	1847
49	1671	2167
50	0	1688
51	1100	1382
52	140	2090
53	847	2186
54	377	2182
55	1589	1860
56	481	2065
57	22	1214
58	1081	1863
59	506	2360
60	596	1500
61	593	2238
62	1079	1465
63	382	1979
64	1091	2131
65	206	2042
66	648	2484
67	900	2394
68	1617	2904
69	1595	2471
70	122	1790
71	1060	2205
72	1580	2315
73	969	1320
74	614	2494
75	522	2077
76	855	1315
77	666	2589
78	307	875
79	630	1653
80	814	1784
81	1192	2856
82	416	2173
83	1542	2301
84	793	1557
85	1915	2288
86	1237	2648
87	766	2063
88	602	2009
89	1193	1950
90	1140	2048
91	1457	1774
92	558	1389
93	1554	1960
94	991	2101
95	2054	2458
96	207	2125
97	1788	2554
98	1138	2961
99	91	1304
100	319	1530
101	625	2049
102	1354	1747
103	1657	2674
104	1138	1657
105	955	1448
106	528	1049
107	1484	1698
108	1197	1994
109	945	2300
110	444	2431
111	530	2415
112	923	2297
113	911	2547
114	561	2029
115	202	1350
116	529	2223
117	1139	1714
118	1543	1983
119	1230	2609
120	1358	2081
121	1551	2379
122	937	1318
123	649	2154
124	612	1789
125	470	1356
126	828	1967
127	851	1304
128	641	2274
129	756	2743
130	1050	1961
131	1074	1429
132	235	2102
133	865	1746
134	1594	2362
135	0	1062
136	272	1596
137	805	2328
138	1437	1700
139	929	2007
140	489	1461
141	756	1526
142	769	2108
143	817	1856
144	0	1384
145	679	1285
146	464	2210
147	1619	2200
148	0	1320
149	0	1702
150	1025	1497
151	971	1377
152	391	1650
153	130	1866
154	230	1902
155	873	2075
156	1303	1707
157	1212	2325
158	863	2077
159	604	2517
160	103	1897
161	1632	1869
162	1111	1721
163	2002	2951
164	0	1174
165	856	2072
166	1020	2149
167	1586	1870
168	1770	2177
169	1000	1881
170	252	1663
171	1133	2593
172	839	2580
173	252	2004
174	839	1244
175	0	1686
176	1079	1963
177	399	1922
178	552	1245
179	1733	2387
180	335	2300
181	756	1086
182	832	2377
183	764	1102
184	580	1521
185	1298	2303
186	863	1154
187	1073	1350
188	696	1753
189	578	1053
190	1463	1878
191	462	2153
192	1535	2044
193	1631	1956
194	1174	3000
195	714	1402
196	219	887
197	572	1586
198	587	1819
199	1190	2673
200	606	2394
201	0	1344
202	829	2625
203	579	1862
204	1609	2351
205	743	1083
206	237	1132
207	1025	1794
208	186	1933
209	0	1266
210	1158	2933
211	1304	1582
212	1174	2765
213	1192	2393
214	1809	2490
215	1585	2018
216	1341	2906
217	488	2056
218	1106	2563
219	1145	1512
220	1468	1669
221	940	1709
222	1189	2527
223	1038	2361
224	1129	2168
225	544	2498
226	2573	2816
227	1622	2048
228	1206	2084
229	744	2738
230	659	2143
231	1362	2509
232	1059	1372
233	809	2781
234	841	1800
235	328	1481
236	669	1131
237	1436	2152
238	1050	1519
239	737	1618
240	937	1509
241	958	1410
242	748	2554
243	178	1711
244	1166	2553
245	1431	3000
246	642	2469
247	418	1773
248	1792	3000
249	1393	2365
250	534	2053
251	1241	2864
252	381	2193
253	0	1838
254	0	790
255	1096	2286
256	986	1719
257	469	1366
258	1035	1282
259	188	2093
260	937	2649
261	825	2631
262	105	2057
263	0	1231
264	804	1831
265	589	1844
266	1857	2065
267	231	2107
268	0	1529
269	1259	2274
270	661	2313
271	1112	2914
272	767	1676
273	160	1999
274	166	1368
275	886	2026
276	97	1983
277	1319	1831
278	488	1917
279	1234	1599
280	27	1944
281	862	1606
282	1056	1846
283	820	2596
284	1300	2026
285	78	2013
286	893	2343
287	772	2123
288	614	1629
289	1009	1320
290	970	1632
291	579	1665
292	1183	1919
293	650	2430
294	512	988
295	94	1234
296	907	1204
297	1118	1870
298	737	2462
299	800	2563
300	1731	2532
301	1499	1854
302	77	1991
303	1292	2631
304	512	1807
305	1226	2433
306	364	2293
307	1688	2932
308	422	1254
309	133	2015
310	1635	2226
311	709	2280
312	685	2143
313	1526	2640
314	1397	2233
315	1018	2231
316	1163	2219
317	1390	2272
318	652	1721
319	207	2115
320	1214	1763
321	902	2779
322	1272	1688
323	1901	2525
324	694	1011
325	1061	1480
326	236	1882
327	1434	1754
328	1245	2212
329	856	1368
330	0	1620
331	1196	1488
332	1163	1807
333	610	2460
334	650	2423
335	357	2004
336	219	1984
337	1003	1967
338	1001	2857
339	625	2452
340	234	1229
341	412	1733
342	1064	1577
343	563	1878
344	816	1999
345	1361	1868
346	99	1851
347	1022	2582
348	1518	2283
349	775	2111
350	752	2098
351	1041	1937
352	794	1219
353	863	2607
354	1173	1839
355	1462	2526
356	483	2368
357	724	2317
358	0	1803
359	1339	1977
360	350	1881
361	1183	2595
362	733	1105
363	180	799
364	893	2424
365	663	2198
366	743	1243
367	1340	2252
368	1078	2322
369	703	1835
370	1664	2000
371	1488	2499
372	1106	1750
373	1451	1800
374	139	1791
375	967	1786
376	823	2280
377	508	1898
378	409	2101
379	2293	3000
380	0	941
381	867	1834
382	973	2096
383	844	1728
384	530	1019
385	886	1342
386	1477	1679
387	323	1697
388	1483	2071
389	661	2154
390	1255	1982
391	426	957
392	888	1695
393	373	2084
394	556	2344
395	1324	1927
396	561	2276
397	914	1844
398	445	1638
399	1301	2073
400	321	2231
401	487	1731
402	0	1138
403	1496	1938
404	172	1815
405	218	1255
406	1005	2137
407	891	1687
408	1016	2611
409	237	1226
410	966	1812
411	532	2023
412	669	2476
413	519	2226
414	795	2299
415	157	2113
416	509	2102
417	1153	2148
418	1345	1873
419	1280	2200
420	522	1803
421	504	1771
422	1743	2054
423	577	779
424	803	2256
425	682	1911
426	1064	2529
427	1227	1675
428	1427	1831
429	666	2258
430	662	2024
431	1266	2958
432	1021	1834
433	1216	2135
434	1627	2351
435	0	1555
436	672	2320
437	267	1437
438	1476	2983
439	1405	2456
440	850	1294
441	1274	1738
442	258	1492
443	485	2127
444	1385	1723
445	1438	2357
446	1490	2511
447	546	1284
448	0	955
449	1261	1606
450	673	2337
451	1946	2319
452	1249	2446
453	1309	3000
454	860	2354
455	413	1592
456	855	1686
457	221	1464
458	681	1438
459	969	1652
460	1275	1845
461	272	2036
462	267	2212
463	1830	3000
464	1039	2608
465	1176	2160
466	190	1520
467	0	1404
468	1009	1259
469	986	2853
470	986	1619
471	933	2688
472	1104	2030
473	853	2204
474	1007	1526
475	623	2075
476	807	1076
477	610	1122
478	187	1931
479	909	2022
480	1365	1914
481	936	2915
482	400	770
483	566	2281
484	1401	2169
485	987	1716
486	1068	2784
487	448	1870
488	457	2221
489	987	2255
490	310	2209
491	0	1244
492	1314	1657
493	0	1751
494	1001	1429
495	0	1695
496	534	2407
497	574	1505
498	1186	1472
499	1255	1456
500	785	2467
501	198	1713
502	519	1660
503	0	1768
504	1414	1881
505	370	2058
506	735	2012
507	1389	1830
508	860	1616
509	1675	3000
510	1983	2253
511	703	1339
512	888	2675
513	887	1374
514	751	2672
515	977	1974
516	0	1759
517	1897	2763
518	1086	1917
519	572	2239
520	514	2371
521	987	1956
522	1106	2469
523	1235	2025
524	92	1724
525	0	1615
526	1709	2421
527	1283	2516
528	1963	2585
529	0	1407
530	833	2715
531	1426	1706
532	692	1236
533	810	1422
534	437	1681
535	900	2467
536	523	1591
537	557	2233
538	1089	1916
539	434	1660
540	1022	2977
541	701	917
542	952	2302
543	1373	2779
544	934	1657
545	628	849
546	819	1210
547	1916	2252
548	222	2179
549	774	2207
550	1257	1900
551	413	1677
552	242	2165
553	858	2407
554	661	1559
555	100	1625
556	654	2094
557	1011	2958
558	970	2272
559	1006	1458
560	45	1480
561	1302	2757
562	1939	2880
563	1106	1911
564	1492	1836
565	1067	2737
566	391	2178
567	1146	2004
568	1485	2672
569	0	1722
570	1789	2057
571	1517	1985
572	1579	2281
573	917	1293
574	1914	2242
575	1333	2126
576	1381	1711
577	1258	2156
578	1210	1484
579	57	2038
580	1047	3000
581	1170	1957
582	1700	2078
583	862	1810
584	948	2512
585	154	1978
586	1408	2210
587	1180	2091
588	656	1208
589	623	1284
590	334	1694
591	618	1780
592	279	2038
593	752	2259
594	335	1348
595	968	2898
596	140	1236
597	1339	1859
598	585	1828
599	697	1281
600	0	1545
601	1342	3000
602	774	1569
603	912	1269
604	697	1858
605	1013	1391
606	1541	2556
607	655	1944
608	1640	2309
609	970	2357
610	838	1394
611	935	2671
612	0	1578
613	583	2032
614	1318	2290
615	1942	2190
616	144	2029
617	765	1787
618	1014	2635
619	1243	1619
620	1196	1402
621	314	2124
622	789	1856
623	537	1870
624	1252	2041
625	1359	1764
626	212	2040
627	289	1508
628	670	2343
629	770	1768
630	1189	1420
631	1302	1942
632	418	1795
633	60	2014
634	1562	2714
635	829	1645
636	610	1046
637	592	2329
638	859	2636
639	898	2012
640	1506	2081
641	1132	1394
642	890	2303
643	535	2279
644	1527	1754
645	1186	2716
646	225	648
647	825	1149
648	1764	2760
649	1342	2157
650	790	2219
651	783	2749
652	344	1625
653	205	2000
654	1422	2961
655	348	1981
656	925	1359
657	658	2357
658	786	2626
659	920	2886
660	686	1884
661	941	2638
662	1006	2191
663	0	1583
664	301	1937
665	243	1971
666	0	1243
667	978	2900
668	1538	2110
669	602	1969
670	1049	2339
671	327	2071
672	752	1948
673	1302	3000
674	515	1291
675	461	1664
676	1273	2404
677	477	686
678	1340	1726
679	1136	2415
680	1953	2312
681	922	2508
682	666	2001
683	1270	2495
684	604	1351
685	998	2637
686	948	1947
687	816	2289
688	391	2176
689	588	2416
690	1271	2308
691	1066	2265
692	435	1950
693	1446	3000
694	1728	2132
695	1982	2707
696	924	1840
697	855	2322
698	1193	1608
699	1585	1886
700	1234	1583
701	918	2273
702	848	1589
703	1347	1870
704	724	2074
705	368	786
706	49	1870
707	899	2103
708	952	2484
709	2078	3000
710	1176	2371
711	641	2578
712	1200	2846
713	0	573
714	691	2353
715	921	2220
716	1719	2527
717	434	1468
718	1373	1670
719	650	1525
720	487	2341
721	854	1484
722	0	1707
723	721	1187
724	1316	2224
725	747	2479
726	620	976
727	1075	2529
728	1324	1580
729	736	1898
730	405	2293
731	1455	2212
732	1845	2715
733	697	1577
734	293	2125
735	345	1849
736	227	1810
737	307	1513
738	1001	2296
739	919	2307
740	534	2093
741	780	1296
742	574	2007
743	1376	2684
744	1099	1908
745	466	2448
746	424	1163
747	941	1265
748	277	1790
749	897	1591
750	1311	1669
751	532	1902
752	1386	1911
753	1535	1989
754	850	2572
755	0	1362
756	736	2041
757	849	1343
758	1248	1960
759	697	1472
760	308	1402
761	575	2155
762	932	1365
763	304	2289
764	1590	2347
765	477	1843
766	93	1694
767	1494	2299
768	1497	2740
769	401	2341
770	365	2081
771	1386	2296
772	1497	2349
773	1075	2481
774	541	2286
775	1468	1753
776	662	2464
777	326	2031
778	637	1741
779	998	2093
780	199	1941
781	752	2747
782	1493	2277
783	485	2458
784	1309	2696
785	1017	1672
786	625	2064
787	1578	1794
788	399	2319
789	0	1820
790	1837	2504
791	729	2194
792	1723	2475
793	240	1716
794	925	2896
795	775	2387
796	1118	2188
797	356	1115
798	1033	2100
799	136	1146
800	367	1432
801	1006	1635
802	1589	2018
803	690	2400
804	334	2049
805	503	2487
806	236	926
807	2047	2776
808	721	2072
809	1080	1696
810	1590	1984
811	900	1645
812	0	1261
813	169	1424
814	682	1787
815	1282	1959
816	362	1727
817	843	2815
818	1006	1558
819	791	2652
820	1001	1994
821	74	1968
822	1186	2224
823	662	2633
824	1157	1398
825	1251	1523
826	591	1200
827	1976	3000
828	334	1740
829	117	1558
830	1352	2080
831	721	1048
832	1129	1495
833	976	1818
834	869	2490
835	241	1613
836	882	2244
837	887	2264
838	716	2192
839	238	2105
840	59	1344
841	1352	1907
842	1026	2030
843	1738	2029
844	943	1690
845	1183	1773
846	1866	2246
847	1288	2599
848	671	2575
849	428	1466
850	1181	2814
851	954	1683
852	621	2308
853	964	2328
854	500	1041
855	1124	1352
856	644	2207
857	1370	2464
858	1464	2898
859	940	2624
860	401	1678
861	435	1839
862	1480	2077
863	666	1169
864	848	1206
865	941	2047
866	1094	2332
867	1561	3000
868	831	1880
869	1248	3000
870	892	2231
871	1264	2261
872	1213	1873
873	684	1868
874	277	546
875	146	2051
876	1594	1882
877	510	2283
878	942	2795
879	1084	2111
880	1143	1363
881	590	1715
882	770	2575
883	1111	1567
884	849	2074
885	912	2556
886	1444	1670
887	954	2120
888	1148	1908
889	1101	1983
890	1641	2349
891	2256	2899
892	517	2328
893	1588	1960
894	86	2059
895	578	1850
896	1368	2169
897	1605	2176
898	989	1675
899	972	2907
900	96	1126
901	0	1611
902	1382	1676
903	992	1582
904	280	1677
905	382	1851
906	725	1210
907	563	2048
908	1338	2405
909	677	1331
910	317	1723
911	1344	1994
912	995	2352
913	596	2028
914	457	2393
915	250	2099
916	0	1623
917	1265	2378
918	697	1917
919	776	2185
920	407	1677
921	43	920
922	1253	1939
923	0	1736
924	0	1729
925	648	1246
926	1508	1816
927	1203	2499
928	671	1577
929	896	2537
930	1008	1255
931	994	1503
932	1571	2472
933	0	1789
934	849	1119
935	820	2753
936	1083	2455
937	746	1926
938	927	2405
939	247	1871
940	334	1449
941	710	2396
942	470	2118
943	266	1654
944	575	1949
945	1032	1702
946	1137	1400
947	8	1930
948	1302	1606
949	658	2285
950	0	656
951	1313	1890
952	0	1081
953	501	1872
954	579	1494
955	1103	1340
956	0	1756
957	2594	2855
958	698	1798
959	1002	2545
960	1369	1747
961	1761	2132
962	303	998
963	0	1300
964	934	1401
965	1360	3000
966	1068	2172
967	794	1350
968	987	2723
969	371	1517
970	174	1584
971	467	1039
972	217	1915
973	1191	2286
974	1380	3000
975	830	2448
976	527	1979
977	0	1907
978	304	2050
979	725	2663
980	1872	2085
981	1310	2279
982	828	2807
983	685	1808
984	551	973
985	1248	2715
986	869	1725
987	643	2350
988	39	1927
989	387	1859
990	2172	3000
991	0	784
992	1191	1893
993	0	1409
994	1101	2389
995	1730	2262
996	866	1270
997	301	2191
998	279	2137
999	302	2039
1000	1388	2181
1001	458	1552
DEPOT_SECTION
1
-1
EOF
