NAME : n1001-0023
COMMENT : "Generated by pyvrp_manuel (OVRPBTW)"
TYPE : OVRPBTW
DIMENSION : 1001
EDGE_WEIGHT_TYPE : EUC_2D
CAPACITY : 150
VEHICLES : 1000
OPEN_ROUTE : YES
SERVICE_TIME : 200
NODE_COORD_SECTION
1	850	167
2	969	272
3	565	135
4	878	697
5	405	212
6	115	125
7	474	592
8	611	339
9	274	146
10	348	635
11	805	545
12	681	265
13	271	507
14	288	621
15	135	517
16	998	707
17	38	599
18	101	991
19	589	234
20	752	336
21	306	14
22	168	593
23	457	329
24	108	598
25	427	16
26	350	396
27	536	481
28	733	591
29	498	539
30	582	912
31	691	473
32	855	383
33	983	325
34	501	409
35	77	322
36	983	987
37	349	541
38	511	102
39	99	208
40	588	721
41	77	687
42	505	58
43	836	444
44	130	591
45	696	597
46	550	358
47	743	234
48	712	875
49	107	225
50	501	871
51	227	21
52	363	240
53	318	912
54	7	578
55	45	674
56	463	195
57	765	278
58	932	819
59	464	476
60	9	541
61	765	893
62	536	977
63	780	428
64	752	738
65	330	375
66	562	725
67	485	575
68	564	112
69	418	444
70	968	618
71	589	535
72	796	69
73	584	68
74	889	476
75	182	219
76	590	424
77	887	659
78	874	547
79	687	248
80	989	977
81	384	909
82	478	994
83	769	527
84	530	363
85	931	705
86	67	147
87	125	499
88	851	256
89	28	756
90	343	235
91	614	523
92	833	703
93	863	92
94	757	601
95	601	660
96	848	221
97	70	4
98	68	397
99	757	353
100	29	313
101	263	565
102	164	348
103	243	49
104	538	170
105	88	634
106	236	536
107	396	658
108	667	790
109	448	121
110	63	193
111	765	721
112	318	975
113	641	0
114	260	998
115	887	874
116	696	217
117	883	152
118	715	848
119	272	313
120	982	679
121	197	393
122	591	599
123	236	790
124	712	36
125	126	118
126	285	231
127	831	825
128	444	137
129	999	465
130	455	55
131	396	970
132	927	365
133	472	633
134	341	143
135	107	424
136	335	719
137	561	899
138	181	934
139	911	346
140	223	328
141	735	261
142	966	839
143	754	576
144	584	516
145	951	564
146	98	496
147	793	379
148	965	439
149	311	601
150	119	137
151	400	870
152	208	829
153	40	448
154	513	690
155	793	359
156	153	478
157	597	981
158	909	346
159	867	149
160	652	856
161	468	733
162	928	55
163	758	977
164	877	842
165	362	815
166	249	149
167	503	639
168	756	802
169	343	361
170	83	218
171	418	141
172	940	375
173	699	475
174	703	115
175	496	449
176	2	813
177	928	565
178	197	873
179	559	606
180	981	581
181	574	758
182	112	305
183	194	44
184	23	411
185	859	466
186	835	735
187	100	81
188	690	252
189	990	935
190	916	338
191	428	65
192	397	958
193	331	353
194	213	295
195	719	980
196	97	755
197	451	839
198	456	207
199	392	601
200	918	265
201	124	841
202	422	327
203	101	671
204	922	604
205	290	779
206	117	892
207	287	600
208	293	638
209	195	149
210	97	997
211	440	155
212	196	515
213	986	74
214	284	974
215	2	591
216	106	989
217	228	684
218	566	516
219	216	127
220	878	742
221	3	939
222	338	363
223	481	399
224	749	731
225	800	911
226	56	958
227	717	409
228	471	938
229	892	570
230	690	853
231	330	407
232	694	864
233	29	869
234	5	58
235	517	790
236	288	253
237	887	975
238	845	116
239	483	525
240	264	588
241	321	846
242	895	416
243	135	391
244	52	327
245	658	733
246	127	102
247	355	302
248	53	229
249	113	579
250	719	874
251	291	525
252	184	342
253	700	598
254	28	210
255	900	512
256	469	681
257	289	392
258	819	969
259	165	593
260	72	980
261	59	525
262	424	773
263	968	692
264	675	259
265	451	93
266	352	822
267	367	476
268	408	564
269	92	887
270	583	178
271	166	890
272	661	10
273	810	797
274	489	626
275	765	147
276	525	851
277	996	913
278	397	258
279	200	575
280	737	45
281	711	610
282	795	319
283	968	589
284	415	265
285	9	134
286	574	950
287	234	568
288	335	685
289	435	425
290	634	90
291	659	844
292	577	934
293	272	188
294	304	48
295	590	201
296	171	692
297	553	665
298	270	102
299	250	512
300	131	407
301	786	817
302	20	442
303	396	241
304	39	265
305	714	549
306	540	510
307	702	156
308	542	103
309	176	85
310	847	278
311	913	585
312	269	886
313	740	740
314	769	861
315	544	220
316	668	526
317	376	990
318	177	138
319	845	418
320	981	820
321	536	359
322	439	255
323	334	6
324	860	517
325	855	401
326	786	661
327	306	294
328	206	697
329	395	792
330	352	705
331	906	440
332	976	664
333	200	818
334	887	539
335	542	791
336	244	347
337	243	754
338	649	659
339	179	77
340	324	999
341	239	570
342	530	368
343	595	81
344	156	667
345	463	20
346	254	860
347	419	669
348	58	414
349	4	132
350	339	619
351	101	295
352	593	421
353	741	615
354	754	658
355	98	35
356	327	678
357	982	53
358	314	201
359	886	456
360	98	765
361	66	640
362	31	733
363	62	949
364	141	305
365	40	703
366	576	812
367	884	939
368	202	154
369	187	395
370	79	594
371	960	918
372	954	604
373	203	613
374	518	961
375	373	894
376	880	360
377	928	711
378	373	519
379	365	278
380	869	284
381	644	669
382	302	605
383	736	234
384	241	172
385	296	794
386	374	49
387	799	749
388	865	272
389	930	717
390	964	288
391	144	258
392	999	714
393	309	826
394	116	64
395	874	46
396	257	403
397	268	395
398	132	716
399	999	962
400	403	79
401	9	552
402	507	134
403	747	389
404	783	282
405	275	299
406	104	50
407	544	256
408	672	511
409	382	853
410	568	672
411	44	309
412	739	215
413	3	236
414	901	836
415	301	408
416	4	23
417	657	241
418	506	779
419	869	657
420	290	437
421	316	322
422	23	93
423	391	214
424	536	324
425	161	765
426	318	383
427	3	415
428	57	13
429	461	862
430	264	294
431	445	276
432	634	680
433	701	269
434	480	169
435	582	906
436	444	910
437	675	865
438	451	544
439	139	409
440	511	135
441	715	283
442	283	382
443	115	242
444	123	653
445	844	17
446	144	544
447	444	239
448	258	949
449	974	857
450	590	866
451	191	25
452	501	985
453	935	531
454	56	448
455	177	344
456	517	924
457	77	59
458	62	966
459	9	560
460	732	881
461	716	879
462	208	558
463	422	121
464	970	665
465	871	572
466	540	122
467	286	404
468	369	711
469	750	443
470	120	101
471	908	600
472	661	29
473	444	266
474	80	772
475	747	829
476	499	657
477	645	298
478	64	589
479	285	211
480	555	943
481	862	739
482	353	29
483	298	323
484	464	247
485	173	52
486	641	594
487	823	108
488	849	313
489	753	52
490	944	359
491	284	755
492	666	50
493	86	249
494	934	273
495	160	523
496	618	401
497	489	332
498	33	909
499	117	15
500	180	399
501	667	847
502	299	900
503	168	300
504	661	937
505	134	870
506	580	624
507	841	283
508	2	532
509	10	486
510	986	88
511	211	155
512	345	675
513	337	820
514	823	149
515	585	27
516	453	726
517	311	537
518	118	537
519	558	94
520	59	200
521	330	8
522	23	235
523	56	571
524	956	288
525	350	347
526	363	181
527	496	67
528	17	195
529	887	460
530	532	540
531	364	997
532	450	479
533	370	883
534	451	489
535	418	474
536	539	934
537	79	48
538	990	307
539	712	311
540	823	488
541	181	784
542	621	128
543	618	196
544	75	970
545	533	410
546	263	950
547	225	784
548	888	372
549	581	911
550	60	876
551	47	877
552	486	398
553	872	866
554	386	300
555	835	582
556	672	523
557	766	798
558	910	550
559	0	279
560	838	783
561	49	411
562	431	821
563	936	543
564	588	725
565	36	632
566	776	384
567	578	646
568	706	430
569	924	769
570	125	621
571	71	811
572	229	364
573	878	560
574	389	915
575	501	52
576	908	955
577	912	612
578	259	148
579	59	696
580	230	633
581	58	34
582	95	108
583	233	342
584	257	133
585	353	335
586	199	935
587	124	469
588	321	725
589	11	340
590	567	756
591	448	361
592	558	951
593	79	291
594	878	796
595	509	344
596	798	848
597	539	482
598	249	869
599	319	598
600	830	276
601	688	743
602	508	604
603	340	683
604	55	135
605	274	228
606	937	247
607	5	329
608	279	719
609	205	984
610	417	513
611	253	409
612	778	566
613	51	858
614	961	934
615	953	649
616	758	747
617	353	4
618	62	347
619	900	250
620	821	419
621	336	540
622	495	629
623	299	454
624	163	647
625	399	272
626	585	582
627	812	999
628	191	236
629	121	303
630	582	107
631	194	774
632	524	485
633	292	797
634	560	377
635	190	750
636	164	541
637	539	562
638	661	164
639	542	100
640	439	745
641	496	676
642	254	633
643	499	396
644	921	249
645	740	74
646	214	993
647	76	578
648	508	772
649	77	143
650	62	590
651	8	134
652	380	627
653	705	522
654	308	646
655	76	172
656	833	847
657	972	531
658	290	784
659	819	224
660	91	215
661	670	981
662	473	574
663	23	81
664	553	745
665	551	121
666	654	882
667	233	848
668	256	977
669	121	477
670	440	763
671	984	966
672	816	828
673	838	483
674	81	100
675	650	805
676	812	253
677	922	294
678	432	970
679	365	92
680	711	513
681	201	935
682	95	336
683	216	209
684	710	755
685	152	195
686	70	631
687	474	242
688	434	731
689	960	833
690	140	521
691	73	103
692	703	384
693	37	404
694	847	915
695	783	844
696	826	935
697	733	871
698	902	678
699	443	336
700	115	582
701	612	23
702	195	758
703	742	204
704	248	678
705	567	912
706	247	651
707	920	922
708	707	603
709	279	775
710	291	552
711	399	95
712	6	453
713	606	788
714	373	697
715	793	415
716	406	842
717	630	897
718	914	882
719	37	393
720	484	765
721	967	158
722	342	814
723	666	970
724	744	193
725	546	362
726	121	431
727	533	788
728	607	994
729	867	912
730	180	422
731	403	550
732	8	233
733	58	908
734	575	753
735	161	98
736	716	498
737	520	43
738	393	630
739	532	60
740	417	554
741	614	416
742	164	53
743	273	338
744	158	843
745	981	497
746	278	292
747	52	141
748	990	438
749	405	6
750	529	306
751	317	943
752	565	334
753	983	786
754	888	354
755	947	653
756	47	110
757	896	520
758	705	916
759	988	122
760	814	512
761	271	605
762	961	53
763	67	510
764	782	754
765	972	445
766	782	347
767	825	232
768	801	616
769	225	835
770	360	474
771	295	571
772	489	719
773	426	647
774	518	5
775	597	84
776	664	803
777	390	688
778	405	94
779	741	509
780	777	878
781	174	70
782	242	772
783	73	496
784	72	210
785	475	622
786	760	987
787	508	699
788	327	385
789	267	704
790	484	670
791	920	789
792	359	802
793	543	811
794	936	806
795	848	492
796	221	11
797	595	210
798	348	641
799	104	534
800	33	560
801	998	545
802	879	580
803	465	844
804	356	672
805	51	595
806	469	491
807	937	245
808	37	280
809	226	57
810	469	812
811	960	901
812	294	11
813	835	267
814	406	770
815	258	417
816	712	584
817	168	631
818	494	256
819	898	271
820	118	283
821	299	483
822	615	854
823	7	306
824	390	6
825	606	815
826	137	850
827	999	718
828	152	142
829	481	201
830	199	130
831	384	680
832	869	777
833	579	711
834	582	9
835	938	935
836	428	337
837	138	400
838	531	140
839	134	556
840	639	929
841	743	231
842	837	460
843	11	872
844	666	235
845	189	872
846	495	914
847	62	15
848	272	143
849	121	681
850	752	912
851	596	49
852	821	703
853	312	139
854	708	721
855	406	845
856	961	741
857	996	359
858	190	752
859	518	748
860	522	937
861	616	432
862	936	526
863	645	900
864	427	971
865	602	484
866	569	209
867	330	790
868	781	979
869	178	300
870	278	194
871	213	580
872	923	681
873	839	354
874	193	511
875	642	594
876	147	52
877	68	229
878	413	146
879	961	22
880	503	108
881	404	177
882	917	819
883	371	879
884	258	295
885	980	97
886	184	34
887	23	711
888	730	779
889	339	60
890	754	69
891	82	601
892	136	986
893	414	265
894	118	513
895	858	647
896	617	668
897	68	808
898	928	187
899	591	899
900	312	747
901	107	571
902	204	25
903	815	940
904	181	786
905	201	213
906	589	719
907	305	626
908	373	692
909	494	192
910	306	508
911	207	826
912	981	342
913	593	649
914	305	687
915	1	548
916	691	327
917	823	573
918	824	359
919	733	964
920	844	741
921	608	157
922	508	479
923	760	881
924	263	867
925	584	33
926	549	798
927	841	550
928	654	904
929	598	339
930	888	348
931	61	912
932	516	878
933	226	742
934	820	971
935	571	858
936	264	585
937	411	876
938	375	572
939	409	363
940	473	51
941	186	478
942	116	46
943	128	799
944	350	130
945	388	839
946	752	851
947	647	426
948	885	343
949	251	524
950	973	709
951	933	499
952	91	593
953	793	113
954	885	319
955	328	538
956	559	96
957	539	740
958	191	952
959	542	549
960	332	632
961	380	465
962	861	597
963	349	893
964	666	498
965	57	428
966	175	298
967	867	120
968	667	2
969	235	488
970	53	992
971	767	935
972	463	483
973	107	545
974	980	4
975	925	681
976	126	615
977	80	380
978	286	834
979	910	911
980	858	476
981	138	819
982	270	658
983	194	719
984	681	773
985	323	316
986	242	242
987	23	937
988	158	439
989	102	231
990	768	916
991	949	525
992	651	295
993	821	336
994	723	378
995	275	44
996	599	466
997	175	329
998	892	304
999	576	175
1000	882	944
1001	367	608
DEMAND_SECTION
1	0
2	8
3	9
4	8
5	2
6	2
7	7
8	3
9	8
10	1
11	8
12	9
13	1
14	4
15	2
16	2
17	9
18	6
19	7
20	3
21	5
22	3
23	9
24	7
25	1
26	6
27	3
28	2
29	7
30	6
31	7
32	5
33	3
34	9
35	8
36	6
37	2
38	8
39	7
40	7
41	6
42	3
43	8
44	8
45	1
46	8
47	9
48	4
49	5
50	8
51	2
52	4
53	2
54	6
55	8
56	1
57	4
58	3
59	2
60	2
61	2
62	7
63	4
64	3
65	6
66	2
67	3
68	2
69	7
70	3
71	3
72	2
73	1
74	8
75	2
76	7
77	2
78	3
79	1
80	5
81	4
82	6
83	2
84	3
85	6
86	4
87	3
88	5
89	3
90	5
91	4
92	9
93	5
94	3
95	1
96	7
97	7
98	2
99	7
100	6
101	7
102	5
103	1
104	1
105	4
106	1
107	8
108	4
109	4
110	4
111	3
112	2
113	2
114	9
115	3
116	6
117	1
118	9
119	2
120	9
121	6
122	9
123	9
124	9
125	1
126	2
127	4
128	4
129	7
130	3
131	1
132	1
133	1
134	7
135	5
136	9
137	3
138	7
139	5
140	6
141	2
142	5
143	6
144	3
145	6
146	6
147	9
148	9
149	8
150	6
151	2
152	5
153	6
154	7
155	2
156	7
157	4
158	7
159	6
160	6
161	4
162	7
163	4
164	7
165	2
166	4
167	9
168	2
169	8
170	5
171	8
172	1
173	4
174	3
175	1
176	3
177	2
178	7
179	1
180	1
181	8
182	4
183	9
184	5
185	7
186	7
187	6
188	6
189	5
190	7
191	2
192	6
193	7
194	1
195	6
196	6
197	8
198	2
199	8
200	3
201	4
202	8
203	6
204	8
205	6
206	7
207	6
208	3
209	7
210	9
211	3
212	6
213	4
214	7
215	9
216	9
217	2
218	6
219	2
220	3
221	5
222	9
223	5
224	4
225	8
226	7
227	2
228	3
229	7
230	7
231	5
232	5
233	1
234	4
235	7
236	8
237	8
238	4
239	8
240	9
241	6
242	6
243	1
244	5
245	5
246	6
247	2
248	9
249	9
250	9
251	8
252	9
253	3
254	2
255	8
256	2
257	3
258	1
259	2
260	9
261	6
262	9
263	9
264	5
265	3
266	5
267	7
268	1
269	7
270	9
271	1
272	7
273	8
274	9
275	1
276	1
277	3
278	5
279	7
280	1
281	8
282	6
283	7
284	9
285	6
286	2
287	7
288	4
289	7
290	7
291	9
292	5
293	1
294	8
295	1
296	5
297	9
298	2
299	6
300	6
301	1
302	1
303	5
304	2
305	1
306	8
307	4
308	2
309	5
310	5
311	8
312	5
313	1
314	1
315	1
316	7
317	6
318	1
319	6
320	2
321	8
322	1
323	9
324	6
325	5
326	8
327	4
328	8
329	1
330	1
331	9
332	8
333	1
334	9
335	3
336	6
337	6
338	5
339	1
340	2
341	2
342	7
343	2
344	2
345	2
346	7
347	2
348	4
349	5
350	3
351	1
352	5
353	7
354	4
355	9
356	6
357	6
358	8
359	6
360	9
361	2
362	4
363	3
364	6
365	7
366	5
367	3
368	9
369	3
370	5
371	1
372	9
373	8
374	9
375	3
376	4
377	1
378	2
379	3
380	1
381	2
382	6
383	5
384	4
385	3
386	2
387	4
388	3
389	6
390	1
391	8
392	3
393	5
394	8
395	4
396	2
397	5
398	9
399	6
400	8
401	1
402	6
403	7
404	2
405	4
406	8
407	8
408	5
409	2
410	5
411	5
412	3
413	9
414	1
415	8
416	8
417	6
418	5
419	5
420	1
421	4
422	1
423	4
424	6
425	9
426	2
427	5
428	2
429	3
430	9
431	5
432	9
433	3
434	1
435	6
436	9
437	6
438	1
439	6
440	3
441	9
442	1
443	3
444	3
445	2
446	4
447	2
448	8
449	7
450	4
451	2
452	2
453	5
454	5
455	6
456	3
457	4
458	7
459	5
460	4
461	5
462	7
463	7
464	9
465	3
466	3
467	9
468	7
469	3
470	8
471	2
472	9
473	5
474	6
475	8
476	9
477	9
478	3
479	9
480	8
481	8
482	1
483	7
484	3
485	3
486	6
487	4
488	7
489	3
490	9
491	4
492	3
493	6
494	9
495	6
496	4
497	8
498	6
499	8
500	1
501	7
502	2
503	5
504	5
505	5
506	8
507	1
508	8
509	2
510	5
511	8
512	9
513	7
514	4
515	2
516	4
517	6
518	7
519	9
520	6
521	4
522	4
523	1
524	3
525	4
526	6
527	2
528	3
529	5
530	2
531	4
532	4
533	9
534	9
535	2
536	4
537	1
538	5
539	7
540	4
541	7
542	8
543	6
544	9
545	5
546	4
547	1
548	9
549	7
550	3
551	8
552	2
553	8
554	7
555	7
556	5
557	3
558	3
559	1
560	3
561	5
562	8
563	5
564	4
565	8
566	6
567	3
568	7
569	6
570	3
571	7
572	9
573	6
574	8
575	9
576	9
577	1
578	3
579	7
580	9
581	3
582	2
583	6
584	9
585	7
586	9
587	7
588	8
589	2
590	8
591	5
592	4
593	4
594	8
595	9
596	2
597	3
598	1
599	7
600	4
601	5
602	7
603	1
604	7
605	2
606	4
607	1
608	4
609	9
610	7
611	9
612	7
613	9
614	1
615	9
616	2
617	4
618	7
619	9
620	1
621	6
622	5
623	8
624	4
625	4
626	9
627	1
628	7
629	1
630	5
631	9
632	1
633	2
634	6
635	2
636	5
637	8
638	3
639	2
640	2
641	9
642	7
643	3
644	3
645	5
646	9
647	5
648	4
649	6
650	6
651	1
652	4
653	2
654	1
655	4
656	5
657	8
658	5
659	1
660	6
661	3
662	8
663	5
664	2
665	6
666	3
667	5
668	1
669	1
670	7
671	5
672	9
673	9
674	2
675	8
676	7
677	2
678	7
679	4
680	7
681	2
682	4
683	8
684	9
685	8
686	6
687	8
688	5
689	6
690	9
691	1
692	6
693	4
694	2
695	3
696	4
697	5
698	1
699	7
700	2
701	7
702	4
703	7
704	4
705	3
706	9
707	2
708	6
709	4
710	6
711	1
712	8
713	5
714	1
715	9
716	7
717	1
718	7
719	5
720	6
721	7
722	5
723	2
724	3
725	8
726	3
727	5
728	2
729	5
730	2
731	3
732	4
733	9
734	4
735	9
736	3
737	5
738	3
739	9
740	6
741	6
742	8
743	3
744	3
745	1
746	1
747	8
748	9
749	2
750	3
751	5
752	3
753	2
754	4
755	1
756	6
757	2
758	4
759	2
760	5
761	8
762	1
763	6
764	1
765	6
766	5
767	6
768	3
769	2
770	3
771	2
772	1
773	1
774	7
775	7
776	2
777	2
778	3
779	4
780	6
781	8
782	2
783	3
784	2
785	1
786	7
787	2
788	9
789	4
790	1
791	4
792	7
793	3
794	2
795	8
796	5
797	3
798	5
799	3
800	1
801	6
802	4
803	4
804	5
805	8
806	2
807	8
808	9
809	5
810	2
811	4
812	3
813	2
814	2
815	9
816	6
817	3
818	9
819	6
820	6
821	8
822	4
823	3
824	2
825	1
826	7
827	5
828	7
829	9
830	4
831	8
832	8
833	6
834	3
835	5
836	8
837	5
838	7
839	6
840	1
841	8
842	6
843	6
844	8
845	9
846	7
847	4
848	7
849	7
850	8
851	5
852	5
853	6
854	3
855	4
856	8
857	5
858	3
859	9
860	8
861	7
862	4
863	3
864	3
865	4
866	9
867	4
868	5
869	1
870	6
871	3
872	5
873	8
874	3
875	7
876	7
877	9
878	3
879	3
880	7
881	9
882	4
883	7
884	9
885	1
886	4
887	5
888	5
889	1
890	4
891	6
892	4
893	1
894	3
895	7
896	4
897	8
898	8
899	8
900	8
901	2
902	2
903	5
904	5
905	7
906	3
907	8
908	2
909	9
910	2
911	8
912	5
913	9
914	8
915	4
916	5
917	4
918	4
919	9
920	4
921	5
922	6
923	7
924	7
925	6
926	1
927	9
928	6
929	2
930	3
931	8
932	2
933	7
934	8
935	3
936	2
937	8
938	7
939	3
940	4
941	9
942	9
943	2
944	2
945	7
946	4
947	1
948	8
949	4
950	2
951	1
952	4
953	4
954	7
955	8
956	3
957	5
958	3
959	7
960	4
961	6
962	3
963	5
964	9
965	2
966	6
967	6
968	9
969	8
970	8
971	7
972	8
973	2
974	6
975	2
976	9
977	3
978	4
979	3
980	1
981	4
982	2
983	5
984	7
985	5
986	4
987	9
988	9
989	9
990	4
991	2
992	4
993	9
994	1
995	7
996	2
997	6
998	3
999	9
1000	3
1001	5
TIME_WINDOW_SECTION
1	0	3000
2	961	1201
3	0	729
4	1211	1470
5	1332	2343
6	1043	2202
7	634	1176
8	1501	3000
9	1166	3000
10	0	1804
11	826	2548
12	1649	3000
13	746	1881
14	845	1313
15	599	2353
16	727	2310
17	1457	1970
18	916	1451
19	1468	1952
20	783	1480
21	244	1945
22	770	1819
23	964	1506
24	1633	1908
25	426	2423
26	1785	2313
27	1555	2986
28	501	865
29	504	1095
30	961	2877
31	381	1998
32	0	1627
33	1531	3000
34	869	1427
35	926	1362
36	1013	1716
37	391	2212
38	1401	2063
39	743	1132
40	589	1867
41	711	2177
42	623	2354
43	1125	1707
44	1411	1747
45	0	1827
46	577	1263
47	1272	2916
48	0	1780
49	647	1098
50	803	2420
51	1147	2255
52	1094	2293
53	1757	2010
54	921	1357
55	902	2737
56	1802	2587
57	1116	1659
58	1600	2412
59	1294	2588
60	1238	1674
61	521	1971
62	1070	1866
63	1834	3000
64	0	1681
65	1858	2355
66	896	1501
67	712	1553
68	0	1495
69	798	1694
70	2112	2405
71	1089	1390
72	0	667
73	0	1735
74	1694	2164
75	750	1258
76	0	1741
77	1520	2936
78	216	1888
79	2019	2469
80	245	1921
81	217	1592
82	785	1584
83	950	1438
84	310	1483
85	444	1082
86	1470	1947
87	944	1210
88	0	1210
89	764	2659
90	1170	1390
91	0	1235
92	426	1412
93	2492	2734
94	1411	1911
95	885	2688
96	0	1111
97	69	1607
98	1594	2323
99	336	924
100	1006	2099
101	652	2275
102	0	1590
103	603	1284
104	1044	2906
105	725	2150
106	1022	1621
107	1354	1764
108	907	1248
109	22	883
110	1350	2094
111	123	1042
112	391	2370
113	1297	2259
114	227	2045
115	781	1473
116	0	1133
117	496	766
118	805	2736
119	0	1850
120	1351	2962
121	0	1675
122	312	1086
123	951	2457
124	1551	2955
125	149	1641
126	0	1713
127	753	1712
128	0	1353
129	188	1594
130	951	1664
131	866	1520
132	245	1665
133	417	2139
134	0	1747
135	376	1608
136	1021	2363
137	1227	1485
138	918	1416
139	422	2118
140	703	944
141	0	1176
142	794	1824
143	414	1533
144	1399	2961
145	1638	2971
146	840	2730
147	1009	2232
148	1332	1569
149	1063	2026
150	350	2204
151	434	1643
152	654	1930
153	611	1456
154	298	1346
155	482	1456
156	893	1836
157	582	2555
158	1552	3000
159	2147	3000
160	938	2651
161	1050	1526
162	2255	2866
163	1142	2363
164	1608	1921
165	689	2619
166	810	1369
167	108	1283
168	178	1498
169	1864	2103
170	846	1564
171	512	1847
172	1442	2436
173	1468	2345
174	817	1543
175	514	1454
176	820	2146
177	1376	2407
178	542	1994
179	603	1040
180	1368	1710
181	1296	1883
182	777	2445
183	656	1589
184	979	1629
185	1096	1511
186	1716	2494
187	437	1844
188	982	1339
189	396	2204
190	1547	3000
191	0	1073
192	502	2149
193	546	1565
194	136	2013
195	807	1775
196	1224	1989
197	559	1673
198	541	754
199	737	1339
200	678	1071
201	802	1731
202	695	2018
203	1332	1868
204	612	1828
205	769	1763
206	589	1910
207	61	1611
208	1271	1802
209	300	1078
210	455	1938
211	529	1399
212	1661	1908
213	11	1392
214	128	2061
215	1025	1318
216	682	2674
217	718	1337
218	25	1583
219	1752	2256
220	1009	1461
221	797	2027
222	852	2020
223	195	1631
224	0	1604
225	980	1610
226	1017	1253
227	692	1865
228	1284	2319
229	323	1145
230	1167	2371
231	1569	2617
232	436	1732
233	1244	1986
234	787	2468
235	687	2472
236	1424	2567
237	1274	1551
238	0	1139
239	1221	2713
240	987	1239
241	901	1164
242	110	1934
243	1742	2189
244	644	2097
245	1031	3000
246	381	2116
247	1619	1944
248	1409	2535
249	1018	2035
250	1443	2604
251	952	1567
252	423	1568
253	1231	1659
254	1300	2314
255	279	1086
256	1366	2486
257	134	1477
258	763	2090
259	437	2008
260	854	1569
261	300	2271
262	1238	2686
263	213	1697
264	1484	2652
265	1839	2848
266	787	2381
267	1347	2128
268	1311	2947
269	961	2481
270	1094	2411
271	1140	2338
272	382	1280
273	623	1486
274	330	2198
275	708	2586
276	21	1797
277	1588	1797
278	478	1652
279	969	1513
280	403	2290
281	2099	2386
282	125	897
283	1976	2710
284	1409	2679
285	674	1084
286	630	2467
287	163	2048
288	780	1026
289	589	1947
290	1709	2600
291	404	2401
292	814	1939
293	1594	2628
294	301	1869
295	231	1848
296	1324	2387
297	449	1426
298	846	1492
299	574	1789
300	1641	1896
301	1281	2092
302	304	1764
303	262	931
304	806	1199
305	1476	2442
306	195	2004
307	556	1581
308	1528	2864
309	919	2770
310	1537	1764
311	0	1480
312	837	1624
313	1444	2218
314	1002	2028
315	1344	2551
316	1174	1459
317	882	1747
318	32	1317
319	770	1603
320	1511	2384
321	8	1649
322	0	1153
323	0	1550
324	0	1305
325	1093	2284
326	1288	1929
327	425	712
328	100	1645
329	1332	2538
330	959	1183
331	477	1633
332	1858	2347
333	421	1780
334	1839	2380
335	1046	1486
336	1122	2222
337	963	1691
338	739	948
339	1137	1480
340	353	2339
341	1312	2281
342	0	1524
343	0	880
344	1472	2093
345	1178	2753
346	1010	2755
347	450	2091
348	1227	2559
349	305	2131
350	630	2490
351	115	1834
352	1839	2122
353	1245	3000
354	0	1797
355	606	1741
356	282	2263
357	2143	2448
358	243	2086
359	0	1295
360	1014	2442
361	914	1951
362	729	2229
363	960	1521
364	1441	1727
365	623	1641
366	1872	2100
367	676	1797
368	0	1590
369	264	1536
370	764	1598
371	565	2465
372	1345	2410
373	663	2028
374	749	2024
375	754	1061
376	618	2492
377	1059	1474
378	1241	2473
379	774	1304
380	1102	2997
381	1763	2161
382	1486	2431
383	256	628
384	975	2157
385	103	1728
386	235	1299
387	629	2444
388	568	957
389	697	1281
390	651	2260
391	1251	1454
392	1496	2508
393	1439	1817
394	774	1244
395	474	1980
396	985	2005
397	665	1843
398	1048	2703
399	1518	1809
400	617	1924
401	868	1491
402	1468	2298
403	1146	1701
404	29	468
405	778	2654
406	560	1955
407	1342	1733
408	817	1561
409	1604	2003
410	1904	2358
411	1190	2516
412	2151	2863
413	417	1825
414	815	2357
415	0	1666
416	235	2143
417	1567	3000
418	624	2093
419	1722	2243
420	35	1658
421	1027	2576
422	1145	2162
423	217	1603
424	0	1204
425	1417	2085
426	645	2272
427	283	1487
428	1037	2459
429	1693	2251
430	920	2451
431	147	1392
432	1019	1464
433	870	1486
434	1508	3000
435	1130	2487
436	825	2437
437	1309	2766
438	1616	2147
439	1697	2221
440	323	1502
441	1442	1819
442	536	1354
443	1281	1818
444	791	1110
445	704	1410
446	602	2152
447	1456	3000
448	1498	1734
449	1150	2787
450	465	2242
451	1609	1867
452	291	1962
453	707	2353
454	709	1998
455	996	2401
456	1290	1620
457	513	1701
458	1397	1784
459	913	2337
460	1268	2351
461	430	2413
462	1295	2004
463	1380	2450
464	1164	2169
465	1434	2833
466	740	1374
467	1179	1992
468	225	1807
469	321	1598
470	680	1745
471	1196	1958
472	280	1142
473	1768	2228
474	799	1819
475	973	1442
476	1221	1479
477	2087	2754
478	1229	2209
479	1605	2819
480	1664	2076
481	1059	2796
482	1091	2423
483	654	2426
484	1078	1841
485	1072	2732
486	1338	2329
487	0	1524
488	535	1836
489	125	1685
490	475	2107
491	1429	1674
492	43	1789
493	137	1811
494	1399	3000
495	1100	2938
496	369	1597
497	1346	2907
498	1143	1387
499	632	1469
500	1210	2884
501	115	1579
502	234	1678
503	1404	2510
504	1734	2128
505	998	1745
506	812	1559
507	1107	2937
508	287	1675
509	1079	2399
510	303	1345
511	0	1678
512	483	2097
513	758	1974
514	0	986
515	224	2068
516	488	1595
517	714	1685
518	626	1153
519	1637	2998
520	306	1865
521	593	920
522	131	1821
523	519	1541
524	1664	3000
525	1325	2046
526	872	1827
527	364	2083
528	1462	1949
529	0	1554
530	772	1075
531	142	1981
532	513	2455
533	744	1945
534	486	1737
535	1694	2190
536	855	2257
537	525	2393
538	1420	3000
539	1963	3000
540	240	1742
541	1185	2050
542	491	1933
543	1173	2574
544	1135	2010
545	796	2779
546	1102	2357
547	1061	2702
548	1606	3000
549	711	2025
550	1498	1916
551	534	2341
552	796	2717
553	561	1376
554	0	1596
555	814	1801
556	1803	2764
557	751	2260
558	289	1618
559	1148	1983
560	453	1352
561	666	1851
562	288	1751
563	1644	2807
564	829	2384
565	1200	1643
566	1941	2475
567	1587	2073
568	109	1805
569	2018	2354
570	1136	1416
571	686	2392
572	438	1558
573	1177	2958
574	563	1757
575	216	1979
576	1588	2325
577	966	1345
578	1145	1616
579	867	2035
580	1727	2044
581	0	1968
582	331	1706
583	466	2442
584	921	2603
585	624	924
586	1108	1884
587	1624	2132
588	1033	1676
589	777	2135
590	1223	1968
591	953	2743
592	1411	1719
593	1428	2380
594	1138	1437
595	455	1320
596	1289	2867
597	1289	3000
598	1032	2389
599	1444	2649
600	1586	2986
601	1564	1886
602	1253	2235
603	563	1765
604	1314	1886
605	784	1609
606	425	893
607	523	1635
608	254	2015
609	1025	2046
610	653	2367
611	710	2125
612	515	1387
613	317	2201
614	592	1347
615	373	770
616	551	1025
617	1392	1945
618	1285	2614
619	1408	3000
620	0	818
621	1755	2216
622	1566	1877
623	1216	2003
624	986	1325
625	822	2814
626	0	1253
627	934	2024
628	1388	2508
629	1033	1996
630	1041	1810
631	979	2740
632	0	1558
633	686	1633
634	447	1892
635	670	1326
636	398	2140
637	1432	2232
638	1142	2426
639	1816	2907
640	604	1003
641	643	2363
642	569	1596
643	472	1644
644	438	1572
645	0	574
646	518	2389
647	848	1907
648	152	1796
649	1581	2458
650	1138	1535
651	1439	2442
652	1630	2191
653	2104	2473
654	1583	1898
655	1232	2325
656	243	1289
657	1734	1970
658	858	2625
659	369	1002
660	28	1850
661	669	1127
662	2026	2388
663	1657	1993
664	660	1461
665	44	1097
666	1459	2160
667	669	1180
668	894	1579
669	822	2544
670	188	2059
671	380	1434
672	1276	2383
673	0	1204
674	667	1705
675	178	1371
676	754	1537
677	113	1507
678	667	1302
679	1590	2367
680	723	2240
681	907	1532
682	661	2257
683	609	2228
684	214	2084
685	466	1821
686	363	1665
687	166	787
688	1408	2363
689	823	2020
690	815	1802
691	878	1619
692	850	2779
693	1595	2028
694	424	2117
695	0	1384
696	1209	1891
697	1291	2543
698	0	1849
699	1859	2851
700	1095	2396
701	1466	2152
702	922	2575
703	1102	2705
704	685	1121
705	1098	2811
706	1564	2192
707	1203	2718
708	1220	2636
709	1254	2460
710	1140	1343
711	1099	1809
712	573	2465
713	857	1575
714	356	1933
715	0	1668
716	258	2109
717	0	1801
718	1266	2783
719	726	1461
720	1092	1366
721	1742	3000
722	1391	2063
723	1538	1844
724	609	2387
725	1932	2512
726	1149	2093
727	934	1679
728	1130	2715
729	465	2144
730	1248	2029
731	1261	2513
732	975	2554
733	1170	1984
734	1152	1778
735	503	975
736	42	1916
737	1107	1439
738	1493	2306
739	1031	1334
740	320	1303
741	801	2319
742	351	1622
743	308	2287
744	773	1588
745	0	878
746	804	2637
747	770	1938
748	343	2326
749	314	1185
750	877	2118
751	1419	1970
752	452	1555
753	25	1875
754	261	2241
755	0	1555
756	1164	2413
757	1575	3000
758	945	2173
759	356	1070
760	1879	2129
761	1156	2791
762	1569	2310
763	608	1216
764	583	2171
765	985	1238
766	577	2543
767	230	866
768	364	1640
769	811	2599
770	1211	2259
771	1693	2530
772	1613	2457
773	868	1372
774	87	1085
775	1486	2152
776	1388	2001
777	1004	1433
778	1684	2984
779	614	1623
780	1656	2410
781	740	1893
782	1298	1521
783	264	1832
784	758	1164
785	972	1303
786	871	2390
787	475	957
788	972	1976
789	590	1835
790	687	1051
791	1276	2969
792	1260	2358
793	1644	2089
794	1175	3000
795	1063	2589
796	1213	2858
797	1624	2622
798	775	1918
799	376	1334
800	1480	2065
801	874	1635
802	895	2518
803	595	1849
804	0	1672
805	1560	1877
806	914	1508
807	2083	2792
808	384	2261
809	935	2799
810	1291	2459
811	270	1572
812	279	2075
813	149	775
814	628	2293
815	955	2736
816	117	1312
817	580	2401
818	472	1808
819	185	1798
820	1043	2467
821	874	2470
822	0	1731
823	898	2151
824	1629	1888
825	883	2311
826	760	1668
827	1730	2209
828	1139	2703
829	1133	1681
830	973	2951
831	1076	2703
832	1197	2695
833	413	1213
834	1484	1986
835	1249	2268
836	2043	2386
837	0	1718
838	1787	2260
839	691	1369
840	1819	2040
841	1267	2816
842	716	1401
843	496	1933
844	1512	2841
845	1290	1935
846	1363	2021
847	110	1849
848	428	1795
849	1265	1976
850	1086	1443
851	749	1206
852	625	1340
853	1164	1884
854	856	1749
855	1023	2338
856	917	2034
857	162	2082
858	650	1269
859	1350	2190
860	650	2095
861	1328	2058
862	1774	2771
863	1238	1816
864	90	1916
865	1566	2121
866	714	1069
867	1386	2392
868	799	2688
869	766	1153
870	1260	2309
871	968	1854
872	676	1139
873	726	1244
874	1118	1513
875	1332	2759
876	283	1772
877	808	1792
878	1371	2350
879	388	986
880	924	1457
881	534	1610
882	1158	1459
883	840	2799
884	290	1129
885	1315	3000
886	1572	1959
887	593	2226
888	1342	1898
889	64	1699
890	1183	2699
891	509	1635
892	1263	1816
893	0	1040
894	820	2238
895	1624	2246
896	0	1499
897	1596	1908
898	0	875
899	616	2475
900	819	2471
901	659	1343
902	1744	2016
903	579	2244
904	1325	1733
905	1622	2151
906	646	944
907	970	2294
908	8	1702
909	1411	2808
910	111	1513
911	1025	2468
912	588	966
913	619	901
914	563	1681
915	1099	1321
916	986	1292
917	867	1546
918	0	947
919	1176	2735
920	355	1340
921	0	1507
922	1531	2297
923	1569	2280
924	1331	1685
925	873	1165
926	1461	1854
927	1111	1854
928	579	2279
929	2065	2762
930	664	1524
931	1463	1781
932	0	1775
933	568	2260
934	1034	2371
935	767	2549
936	1102	2771
937	0	1818
938	824	2342
939	1620	2083
940	320	1190
941	665	2178
942	624	1702
943	507	2428
944	1527	2744
945	142	1882
946	654	1852
947	1655	2532
948	2306	2637
949	0	1704
950	394	1294
951	470	1045
952	1553	2094
953	346	1924
954	1543	2821
955	382	1186
956	177	1204
957	741	2599
958	906	2160
959	961	1974
960	1108	2449
961	1432	3000
962	26	1719
963	194	1669
964	626	2560
965	1581	2071
966	1373	1829
967	510	1431
968	293	1675
969	501	1729
970	654	2583
971	854	2126
972	1192	2471
973	623	1067
974	2094	2367
975	0	1313
976	1365	1916
977	728	2630
978	568	1800
979	540	1807
980	1190	2081
981	812	2021
982	841	1605
983	416	2174
984	474	932
985	712	2659
986	1305	2003
987	968	1545
988	1160	2233
989	904	1707
990	1081	1409
991	669	1568
992	1693	2996
993	798	2152
994	952	2706
995	802	2734
996	617	834
997	1561	2430
998	1522	2294
999	854	1837
1000	1216	2167
1001	703	1486
BACKHAUL_SECTION
7	9	11	17	26	28	29	30	32	35	42	48	51	58	59	61	67	70	72	74	76	81	82	105	107	110	113	114	119	128	130	131	138	141	145	154	160	166	169	175	184	185	186	189	192	196	197	198	199	208	209	219	221	223	230	232	233	235	243	245	247	249	254	263	269	271	272	273	275	290	292	293	294	296	305	310	313	317	322	330	333	348	354	360	364	378	384	392	399	401	405	411	420	424	426	430	433	436	440	448	449	465	466	467	473	477	478	484	487	492	498	499	502	508	512	535	539	550	551	555	559	566	574	590	592	594	602	604	620	622	626	641	643	654	662	666	680	688	698	707	714	718	719	728	736	745	746	748	753	755	759	760	764	765	775	782	785	791	802	804	807	821	822	824	834	835	839	842	844	846	847	849	854	858	860	862	863	865	866	867	869	890	906	921	930	937	938	945	950	954	957	959	974	975	976	977	978	979	996	999	-1
DEPOT_SECTION
1
-1
EOF
