NAME : n1001-0025
COMMENT : "Generated by pyvrp_manuel (OVRPBTW)"
TYPE : OVRPBTW
DIMENSION : 1001
EDGE_WEIGHT_TYPE : EUC_2D
CAPACITY : 150
VEHICLES : 1000
OPEN_ROUTE : YES
SERVICE_TIME : 200
NODE_COORD_SECTION
1	693	13
2	976	748
3	841	239
4	894	837
5	32	362
6	721	811
7	269	249
8	648	112
9	301	104
10	197	176
11	996	836
12	446	364
13	864	177
14	204	621
15	455	362
16	492	454
17	60	330
18	955	249
19	192	893
20	617	841
21	570	51
22	287	553
23	702	500
24	318	205
25	356	558
26	981	243
27	742	761
28	896	822
29	189	493
30	849	96
31	239	180
32	800	246
33	688	99
34	161	947
35	331	50
36	357	774
37	35	523
38	707	912
39	409	167
40	112	321
41	147	989
42	721	201
43	404	892
44	642	431
45	412	767
46	416	408
47	211	138
48	777	957
49	963	740
50	128	931
51	537	536
52	127	734
53	579	991
54	831	930
55	761	72
56	91	14
57	371	684
58	380	856
59	905	162
60	108	432
61	13	953
62	771	4
63	704	403
64	192	507
65	518	592
66	223	309
67	175	691
68	581	5
69	658	136
70	852	265
71	902	32
72	0	427
73	242	112
74	659	887
75	365	412
76	318	754
77	387	76
78	235	156
79	197	713
80	366	335
81	618	907
82	838	927
83	743	495
84	198	977
85	922	187
86	517	390
87	989	91
88	652	707
89	624	895
90	828	370
91	889	802
92	906	596
93	510	461
94	165	587
95	931	507
96	788	240
97	723	9
98	694	323
99	98	342
100	886	213
101	165	269
102	778	880
103	334	861
104	864	26
105	714	975
106	589	653
107	456	596
108	409	132
109	539	11
110	245	224
111	798	889
112	20	421
113	795	934
114	716	575
115	948	346
116	311	338
117	703	167
118	78	627
119	135	22
120	53	962
121	86	464
122	506	700
123	219	110
124	948	462
125	599	764
126	278	741
127	800	25
128	814	407
129	158	495
130	283	894
131	740	498
132	371	999
133	424	720
134	513	125
135	822	321
136	272	742
137	689	533
138	856	975
139	525	422
140	5	164
141	241	950
142	933	466
143	383	242
144	572	9
145	843	727
146	703	839
147	478	303
148	455	266
149	426	823
150	132	353
151	62	444
152	950	303
153	828	624
154	612	427
155	831	694
156	47	618
157	873	45
158	970	286
159	675	122
160	52	648
161	607	687
162	733	421
163	882	217
164	27	491
165	293	4
166	917	78
167	483	159
168	537	378
169	537	214
170	247	701
171	528	538
172	8	686
173	833	949
174	910	943
175	583	423
176	972	377
177	384	292
178	50	889
179	359	908
180	959	887
181	726	732
182	207	365
183	740	690
184	698	533
185	380	202
186	364	937
187	516	551
188	898	580
189	3	867
190	633	98
191	449	941
192	144	347
193	896	260
194	142	738
195	546	631
196	159	868
197	915	482
198	381	478
199	836	453
200	575	52
201	324	651
202	251	754
203	872	668
204	748	661
205	204	800
206	904	285
207	888	527
208	556	328
209	236	706
210	777	603
211	114	18
212	533	77
213	25	674
214	929	703
215	486	560
216	913	169
217	923	702
218	716	147
219	514	338
220	449	701
221	93	779
222	128	475
223	806	528
224	604	725
225	99	384
226	630	101
227	821	542
228	243	932
229	914	588
230	294	386
231	620	592
232	653	693
233	907	355
234	883	940
235	349	739
236	66	580
237	727	689
238	136	671
239	932	596
240	178	66
241	139	458
242	298	479
243	761	92
244	798	239
245	242	351
246	580	356
247	125	665
248	793	657
249	136	219
250	463	404
251	405	573
252	22	706
253	159	696
254	677	318
255	689	392
256	558	215
257	791	286
258	527	981
259	712	573
260	824	497
261	952	841
262	158	839
263	336	593
264	408	34
265	388	886
266	405	60
267	0	599
268	41	591
269	672	659
270	272	894
271	306	628
272	773	14
273	691	663
274	186	833
275	412	8
276	231	413
277	756	357
278	918	21
279	138	244
280	407	390
281	673	129
282	442	238
283	196	882
284	459	652
285	289	587
286	414	96
287	628	326
288	589	883
289	859	575
290	786	538
291	290	893
292	479	648
293	450	415
294	104	695
295	520	429
296	765	759
297	626	131
298	775	987
299	809	240
300	338	101
301	146	237
302	238	159
303	427	254
304	282	332
305	99	720
306	982	127
307	222	71
308	482	498
309	529	49
310	836	627
311	865	717
312	364	374
313	341	527
314	763	53
315	906	872
316	890	407
317	719	826
318	888	386
319	913	135
320	815	100
321	568	294
322	423	83
323	460	433
324	367	97
325	384	846
326	553	871
327	703	15
328	876	204
329	295	159
330	821	36
331	336	89
332	733	481
333	555	620
334	453	938
335	655	62
336	812	654
337	746	937
338	941	474
339	438	448
340	967	951
341	236	804
342	786	411
343	833	106
344	233	445
345	105	120
346	628	551
347	851	415
348	590	671
349	353	746
350	356	796
351	740	750
352	458	121
353	706	170
354	121	149
355	971	653
356	162	369
357	119	403
358	820	700
359	840	719
360	48	427
361	991	883
362	514	611
363	94	847
364	299	337
365	893	880
366	135	630
367	649	436
368	629	424
369	289	906
370	25	57
371	157	155
372	525	815
373	456	985
374	613	396
375	162	981
376	410	313
377	148	225
378	825	602
379	801	171
380	338	826
381	388	498
382	25	625
383	801	506
384	950	340
385	496	685
386	669	743
387	790	153
388	34	784
389	671	37
390	913	682
391	965	410
392	523	423
393	764	184
394	489	230
395	778	61
396	318	109
397	3	112
398	511	540
399	962	251
400	125	348
401	792	173
402	982	619
403	569	348
404	118	774
405	686	982
406	45	969
407	428	394
408	30	16
409	265	917
410	577	899
411	315	966
412	427	703
413	650	897
414	761	143
415	785	586
416	741	589
417	439	996
418	597	955
419	436	211
420	339	71
421	66	819
422	251	816
423	593	420
424	180	939
425	986	879
426	596	543
427	221	811
428	176	260
429	316	717
430	202	971
431	429	700
432	617	597
433	382	630
434	377	255
435	956	86
436	961	303
437	473	949
438	984	622
439	268	785
440	733	469
441	246	961
442	45	32
443	655	419
444	438	203
445	589	580
446	968	997
447	570	157
448	857	423
449	125	299
450	44	969
451	288	209
452	152	737
453	894	509
454	553	188
455	290	643
456	939	771
457	596	961
458	934	450
459	280	759
460	804	126
461	658	645
462	569	592
463	772	755
464	242	452
465	648	301
466	172	538
467	936	865
468	691	750
469	181	116
470	385	735
471	517	986
472	145	459
473	284	407
474	74	539
475	12	52
476	723	240
477	788	700
478	613	501
479	973	810
480	572	688
481	436	665
482	419	648
483	332	563
484	345	748
485	593	41
486	140	403
487	501	265
488	549	453
489	987	24
490	544	318
491	162	331
492	459	22
493	739	289
494	809	878
495	309	923
496	190	224
497	467	344
498	765	634
499	188	766
500	753	225
501	34	251
502	319	848
503	817	760
504	972	388
505	150	337
506	179	279
507	758	941
508	565	572
509	779	216
510	668	653
511	267	259
512	857	766
513	785	183
514	694	622
515	851	597
516	344	449
517	544	812
518	871	300
519	281	571
520	787	363
521	46	637
522	888	427
523	398	788
524	281	182
525	107	968
526	75	816
527	836	254
528	212	761
529	400	375
530	697	372
531	595	754
532	785	213
533	81	524
534	378	608
535	940	461
536	901	822
537	717	414
538	217	396
539	551	795
540	968	300
541	399	88
542	411	250
543	222	482
544	554	378
545	389	183
546	267	936
547	614	264
548	527	522
549	496	696
550	827	748
551	805	166
552	854	950
553	978	28
554	738	459
555	667	764
556	412	62
557	401	318
558	650	687
559	793	638
560	657	802
561	647	892
562	634	810
563	988	313
564	929	683
565	299	894
566	331	294
567	464	943
568	820	162
569	164	739
570	729	775
571	386	544
572	797	220
573	46	133
574	983	561
575	747	644
576	271	102
577	375	538
578	237	580
579	108	939
580	214	976
581	363	573
582	587	991
583	332	450
584	988	478
585	59	317
586	687	153
587	62	493
588	617	487
589	1000	716
590	645	985
591	696	398
592	146	486
593	236	814
594	190	324
595	8	370
596	320	16
597	599	534
598	105	304
599	204	783
600	785	987
601	806	234
602	767	254
603	166	884
604	754	798
605	435	899
606	601	823
607	471	796
608	616	801
609	454	560
610	936	853
611	50	757
612	88	33
613	51	341
614	589	298
615	283	218
616	334	105
617	293	46
618	309	691
619	452	718
620	997	852
621	595	91
622	362	366
623	828	999
624	592	958
625	349	394
626	36	257
627	77	911
628	922	989
629	356	669
630	789	600
631	970	547
632	546	454
633	956	133
634	495	211
635	59	643
636	134	876
637	601	690
638	763	192
639	397	660
640	366	13
641	794	657
642	236	262
643	66	848
644	554	551
645	173	434
646	600	471
647	440	752
648	448	240
649	218	393
650	999	645
651	150	769
652	514	743
653	8	250
654	437	505
655	14	866
656	794	400
657	590	638
658	576	700
659	847	380
660	304	489
661	704	285
662	996	191
663	334	97
664	869	144
665	916	144
666	829	468
667	585	465
668	771	945
669	973	134
670	924	483
671	378	126
672	507	300
673	114	647
674	678	878
675	112	586
676	517	248
677	580	721
678	382	498
679	22	106
680	34	696
681	682	927
682	277	544
683	420	348
684	472	609
685	312	270
686	826	83
687	100	743
688	738	876
689	313	85
690	880	918
691	209	330
692	190	279
693	535	235
694	680	435
695	487	269
696	150	252
697	700	543
698	20	648
699	86	201
700	606	180
701	646	445
702	457	730
703	54	931
704	809	618
705	619	657
706	643	359
707	664	651
708	378	553
709	585	219
710	380	20
711	179	592
712	948	237
713	579	586
714	26	368
715	273	166
716	842	95
717	132	801
718	831	9
719	91	149
720	923	529
721	337	610
722	840	410
723	100	75
724	818	987
725	204	970
726	288	148
727	64	255
728	70	828
729	219	234
730	494	66
731	373	391
732	90	988
733	485	205
734	943	825
735	684	238
736	185	525
737	891	554
738	896	484
739	209	813
740	724	632
741	981	572
742	909	198
743	225	30
744	148	785
745	100	590
746	364	406
747	598	58
748	142	71
749	271	34
750	479	178
751	552	384
752	479	260
753	155	746
754	306	452
755	499	750
756	280	248
757	76	333
758	698	891
759	667	868
760	753	168
761	131	696
762	919	696
763	695	576
764	391	574
765	841	713
766	454	377
767	509	199
768	450	772
769	24	365
770	850	753
771	357	560
772	157	516
773	105	520
774	489	408
775	896	46
776	470	112
777	995	705
778	658	81
779	886	567
780	448	63
781	624	892
782	325	764
783	628	33
784	984	491
785	613	541
786	724	640
787	418	595
788	959	920
789	897	857
790	135	984
791	224	787
792	43	77
793	544	63
794	532	188
795	465	461
796	613	396
797	596	214
798	233	15
799	378	596
800	7	422
801	579	154
802	385	79
803	305	643
804	94	647
805	280	383
806	47	845
807	680	421
808	357	816
809	354	251
810	869	589
811	782	235
812	452	543
813	2	372
814	33	533
815	829	474
816	274	747
817	886	98
818	839	204
819	434	465
820	884	652
821	139	621
822	216	739
823	960	518
824	901	882
825	481	967
826	28	943
827	672	916
828	884	803
829	161	82
830	618	118
831	891	267
832	601	545
833	995	551
834	989	360
835	594	158
836	142	964
837	137	261
838	462	918
839	203	807
840	688	366
841	261	755
842	618	48
843	704	468
844	429	469
845	982	524
846	189	951
847	5	247
848	94	939
849	667	988
850	696	46
851	519	494
852	401	887
853	706	434
854	63	165
855	31	379
856	658	912
857	544	57
858	394	847
859	944	202
860	924	437
861	537	523
862	216	277
863	755	488
864	232	579
865	832	260
866	209	952
867	783	73
868	802	960
869	745	615
870	448	381
871	631	971
872	514	163
873	809	166
874	881	531
875	415	235
876	18	356
877	395	540
878	899	750
879	743	118
880	760	965
881	199	149
882	917	668
883	20	847
884	632	878
885	426	534
886	209	986
887	664	996
888	267	65
889	33	773
890	283	713
891	485	635
892	433	51
893	188	957
894	659	517
895	697	71
896	653	306
897	904	327
898	3	817
899	969	101
900	465	513
901	502	422
902	668	618
903	125	563
904	563	765
905	29	417
906	127	78
907	831	659
908	248	405
909	247	519
910	96	750
911	102	12
912	719	603
913	769	130
914	657	421
915	244	870
916	623	786
917	658	775
918	971	912
919	993	448
920	260	243
921	634	812
922	718	995
923	484	699
924	40	129
925	988	698
926	722	564
927	672	346
928	189	233
929	781	606
930	209	630
931	117	95
932	721	786
933	676	594
934	45	507
935	835	326
936	190	23
937	654	343
938	604	770
939	633	958
940	831	411
941	238	129
942	367	444
943	49	469
944	477	591
945	543	344
946	265	74
947	600	344
948	935	639
949	74	145
950	579	998
951	31	799
952	567	587
953	268	837
954	891	264
955	380	349
956	199	790
957	115	365
958	974	299
959	266	434
960	800	569
961	522	913
962	113	443
963	209	688
964	561	709
965	383	369
966	874	681
967	58	996
968	995	172
969	559	290
970	830	722
971	949	182
972	515	532
973	593	70
974	947	324
975	812	666
976	931	301
977	403	141
978	451	771
979	830	827
980	529	881
981	393	295
982	708	407
983	19	385
984	137	442
985	172	93
986	889	971
987	492	662
988	56	978
989	580	403
990	0	225
991	316	83
992	735	711
993	314	392
994	562	511
995	828	845
996	151	264
997	79	200
998	411	509
999	329	768
1000	611	895
1001	550	221
DEMAND_SECTION
1	0
2	3
3	8
4	9
5	9
6	3
7	1
8	4
9	5
10	2
11	3
12	2
13	8
14	4
15	4
16	5
17	4
18	9
19	7
20	9
21	3
22	2
23	9
24	2
25	5
26	6
27	8
28	9
29	9
30	9
31	6
32	9
33	8
34	3
35	2
36	2
37	2
38	7
39	7
40	5
41	2
42	5
43	3
44	4
45	2
46	7
47	9
48	8
49	4
50	4
51	8
52	5
53	1
54	9
55	8
56	9
57	2
58	8
59	2
60	2
61	8
62	4
63	3
64	3
65	8
66	8
67	2
68	2
69	7
70	8
71	9
72	7
73	2
74	4
75	4
76	9
77	3
78	6
79	2
80	6
81	8
82	8
83	8
84	6
85	6
86	4
87	1
88	2
89	4
90	6
91	1
92	9
93	8
94	2
95	5
96	7
97	3
98	2
99	1
100	7
101	2
102	9
103	2
104	9
105	1
106	1
107	9
108	9
109	9
110	7
111	8
112	4
113	9
114	1
115	3
116	4
117	8
118	1
119	4
120	9
121	1
122	1
123	6
124	3
125	9
126	7
127	8
128	5
129	2
130	9
131	6
132	2
133	9
134	2
135	9
136	2
137	6
138	9
139	1
140	9
141	5
142	7
143	9
144	9
145	4
146	1
147	7
148	7
149	4
150	5
151	3
152	4
153	5
154	1
155	7
156	2
157	3
158	8
159	6
160	3
161	2
162	2
163	4
164	3
165	6
166	6
167	5
168	5
169	8
170	2
171	9
172	1
173	6
174	2
175	1
176	7
177	9
178	1
179	2
180	4
181	5
182	3
183	3
184	7
185	3
186	6
187	6
188	8
189	7
190	5
191	8
192	6
193	5
194	8
195	7
196	5
197	5
198	4
199	9
200	7
201	8
202	1
203	7
204	8
205	1
206	3
207	5
208	4
209	7
210	4
211	9
212	1
213	6
214	2
215	1
216	5
217	7
218	1
219	3
220	7
221	3
222	1
223	1
224	4
225	9
226	7
227	4
228	1
229	5
230	1
231	9
232	2
233	3
234	6
235	4
236	6
237	3
238	1
239	8
240	9
241	2
242	2
243	5
244	2
245	4
246	8
247	7
248	6
249	1
250	9
251	6
252	9
253	5
254	6
255	2
256	4
257	3
258	4
259	4
260	8
261	2
262	4
263	7
264	8
265	7
266	1
267	5
268	5
269	6
270	7
271	6
272	3
273	1
274	2
275	3
276	5
277	8
278	5
279	3
280	3
281	4
282	5
283	7
284	7
285	5
286	7
287	5
288	6
289	7
290	6
291	1
292	7
293	2
294	4
295	1
296	5
297	7
298	9
299	4
300	2
301	6
302	3
303	7
304	8
305	5
306	1
307	2
308	9
309	1
310	4
311	1
312	1
313	7
314	3
315	3
316	7
317	2
318	1
319	2
320	7
321	4
322	5
323	1
324	8
325	1
326	6
327	1
328	4
329	2
330	5
331	7
332	6
333	2
334	5
335	4
336	5
337	3
338	6
339	3
340	2
341	4
342	9
343	5
344	1
345	5
346	2
347	7
348	6
349	2
350	6
351	1
352	4
353	4
354	8
355	3
356	8
357	7
358	2
359	2
360	7
361	6
362	3
363	6
364	9
365	8
366	8
367	7
368	8
369	8
370	4
371	9
372	4
373	9
374	5
375	5
376	5
377	1
378	9
379	7
380	3
381	5
382	3
383	5
384	2
385	9
386	4
387	5
388	5
389	7
390	1
391	9
392	8
393	6
394	9
395	9
396	1
397	5
398	3
399	2
400	9
401	9
402	5
403	2
404	4
405	5
406	6
407	8
408	5
409	8
410	6
411	7
412	9
413	9
414	3
415	4
416	3
417	3
418	1
419	9
420	3
421	4
422	2
423	6
424	6
425	7
426	7
427	3
428	5
429	5
430	5
431	5
432	4
433	2
434	3
435	5
436	4
437	1
438	4
439	1
440	7
441	3
442	8
443	9
444	6
445	3
446	4
447	7
448	3
449	5
450	3
451	4
452	3
453	5
454	7
455	9
456	9
457	1
458	8
459	7
460	6
461	8
462	1
463	5
464	8
465	6
466	9
467	9
468	6
469	2
470	4
471	6
472	6
473	7
474	1
475	4
476	6
477	2
478	4
479	7
480	5
481	8
482	7
483	9
484	7
485	1
486	2
487	4
488	3
489	9
490	8
491	4
492	3
493	4
494	2
495	9
496	6
497	8
498	9
499	2
500	1
501	7
502	3
503	4
504	8
505	3
506	8
507	4
508	4
509	3
510	5
511	4
512	5
513	1
514	1
515	8
516	5
517	7
518	6
519	6
520	2
521	6
522	7
523	1
524	9
525	2
526	9
527	7
528	3
529	5
530	8
531	6
532	2
533	2
534	9
535	5
536	1
537	4
538	9
539	5
540	1
541	5
542	9
543	1
544	4
545	7
546	2
547	8
548	9
549	6
550	3
551	2
552	3
553	4
554	4
555	1
556	4
557	9
558	5
559	7
560	4
561	1
562	8
563	6
564	7
565	8
566	9
567	4
568	1
569	3
570	9
571	1
572	1
573	1
574	3
575	3
576	8
577	9
578	7
579	4
580	8
581	4
582	1
583	9
584	4
585	2
586	8
587	6
588	8
589	3
590	2
591	9
592	6
593	6
594	4
595	8
596	9
597	1
598	2
599	1
600	3
601	7
602	2
603	5
604	2
605	6
606	7
607	3
608	8
609	6
610	3
611	2
612	9
613	4
614	8
615	9
616	5
617	1
618	7
619	5
620	1
621	6
622	4
623	3
624	5
625	9
626	2
627	9
628	8
629	1
630	5
631	6
632	3
633	6
634	5
635	6
636	2
637	8
638	4
639	9
640	1
641	7
642	3
643	7
644	7
645	4
646	2
647	8
648	2
649	8
650	1
651	7
652	1
653	7
654	6
655	2
656	2
657	8
658	7
659	6
660	1
661	4
662	3
663	1
664	8
665	8
666	1
667	8
668	1
669	3
670	5
671	8
672	5
673	7
674	6
675	7
676	2
677	2
678	9
679	8
680	5
681	1
682	5
683	6
684	4
685	9
686	8
687	5
688	3
689	4
690	5
691	5
692	7
693	8
694	3
695	1
696	3
697	5
698	4
699	4
700	1
701	4
702	5
703	9
704	7
705	7
706	3
707	2
708	5
709	8
710	7
711	8
712	5
713	4
714	4
715	9
716	8
717	8
718	1
719	4
720	1
721	6
722	8
723	5
724	6
725	8
726	7
727	4
728	7
729	7
730	7
731	3
732	8
733	3
734	5
735	2
736	6
737	7
738	7
739	3
740	3
741	4
742	4
743	6
744	7
745	6
746	6
747	5
748	2
749	9
750	7
751	6
752	8
753	9
754	5
755	9
756	5
757	8
758	5
759	6
760	6
761	7
762	7
763	7
764	6
765	4
766	7
767	1
768	7
769	7
770	4
771	7
772	6
773	4
774	5
775	1
776	3
777	1
778	6
779	3
780	1
781	1
782	9
783	7
784	4
785	4
786	2
787	3
788	7
789	3
790	7
791	5
792	6
793	4
794	1
795	3
796	6
797	4
798	9
799	3
800	6
801	9
802	9
803	4
804	9
805	4
806	3
807	1
808	7
809	7
810	7
811	7
812	3
813	4
814	8
815	8
816	9
817	9
818	1
819	3
820	2
821	1
822	4
823	3
824	3
825	8
826	6
827	9
828	7
829	3
830	5
831	8
832	1
833	1
834	1
835	3
836	8
837	6
838	7
839	2
840	4
841	2
842	1
843	1
844	2
845	8
846	2
847	1
848	4
849	2
850	2
851	3
852	4
853	1
854	7
855	5
856	5
857	8
858	2
859	8
860	6
861	3
862	4
863	4
864	1
865	4
866	7
867	7
868	7
869	6
870	7
871	1
872	7
873	5
874	1
875	9
876	7
877	3
878	3
879	2
880	2
881	8
882	9
883	8
884	9
885	3
886	5
887	2
888	7
889	3
890	1
891	9
892	5
893	7
894	6
895	6
896	6
897	5
898	5
899	3
900	7
901	1
902	1
903	9
904	1
905	9
906	3
907	8
908	9
909	5
910	6
911	5
912	5
913	9
914	9
915	8
916	7
917	3
918	2
919	4
920	6
921	8
922	9
923	7
924	8
925	2
926	6
927	2
928	7
929	4
930	8
931	3
932	5
933	2
934	3
935	7
936	6
937	9
938	2
939	7
940	8
941	9
942	7
943	7
944	2
945	2
946	6
947	7
948	4
949	5
950	3
951	3
952	6
953	5
954	5
955	1
956	2
957	5
958	4
959	2
960	3
961	2
962	1
963	8
964	9
965	4
966	3
967	3
968	3
969	7
970	2
971	9
972	2
973	4
974	3
975	3
976	2
977	8
978	1
979	7
980	9
981	2
982	2
983	6
984	9
985	1
986	9
987	8
988	3
989	6
990	1
991	6
992	4
993	2
994	2
995	3
996	1
997	7
998	7
999	5
1000	4
1001	4
TIME_WINDOW_SECTION
1	0	3000
2	1228	2399
3	574	1613
4	983	2028
5	1405	2200
6	1042	1756
7	1446	2881
8	2401	2662
9	422	960
10	0	1519
11	320	2037
12	1303	1789
13	1160	1971
14	1469	2304
15	0	1649
16	1106	2263
17	631	1755
18	2207	2668
19	712	1537
20	642	1052
21	598	1665
22	1536	2655
23	876	2314
24	786	2372
25	1128	2336
26	1117	2727
27	394	1455
28	730	2479
29	1210	2388
30	1399	1702
31	717	1383
32	1983	2763
33	2183	2644
34	993	1459
35	1493	1894
36	399	1393
37	1524	1945
38	903	1493
39	1524	2674
40	1342	2400
41	456	1938
42	1112	2991
43	717	2488
44	1191	2556
45	1021	1751
46	1935	2554
47	1088	2643
48	928	2615
49	0	1579
50	845	2245
51	1125	2099
52	322	2068
53	788	1201
54	234	2073
55	2255	2637
56	830	2678
57	27	1984
58	251	1813
59	1623	1934
60	1432	1722
61	1309	1517
62	2476	2885
63	222	2137
64	877	1745
65	446	1135
66	1470	2824
67	958	1295
68	1528	2888
69	98	1782
70	1416	2644
71	2240	2611
72	13	1616
73	203	1939
74	938	1349
75	462	1981
76	786	1905
77	0	956
78	1048	2460
79	1436	1909
80	274	1713
81	968	2353
82	151	2133
83	917	2886
84	814	1794
85	1914	2143
86	1197	1561
87	530	1222
88	993	1613
89	1242	1741
90	690	1104
91	868	1733
92	1359	2570
93	1428	3000
94	887	1396
95	342	1808
96	323	1283
97	214	535
98	0	1049
99	1161	2389
100	0	1087
101	539	1582
102	650	1922
103	876	1569
104	1265	1925
105	1090	1605
106	1267	2788
107	796	1144
108	1779	3000
109	0	1100
110	1167	2882
111	976	2489
112	540	2253
113	877	2607
114	888	2812
115	633	976
116	302	1804
117	405	1134
118	1086	2773
119	1322	1809
120	684	1942
121	871	2855
122	1431	1911
123	861	1787
124	1346	2785
125	738	1515
126	516	2363
127	0	1240
128	303	787
129	732	1018
130	1321	1537
131	709	2038
132	798	2296
133	1540	2365
134	1693	2280
135	1015	1993
136	297	2205
137	741	1232
138	146	2057
139	1121	1384
140	884	1253
141	624	2374
142	601	2306
143	0	1000
144	201	1054
145	1764	2081
146	1295	2502
147	1474	2883
148	885	1669
149	542	1885
150	1621	2615
151	560	1208
152	1774	2689
153	693	2275
154	500	1284
155	464	2335
156	1452	1677
157	2276	2765
158	1451	2537
159	1132	1842
160	307	1972
161	1104	1972
162	2018	2757
163	196	654
164	0	1729
165	558	1057
166	635	1158
167	0	937
168	547	2300
169	2164	2710
170	752	1188
171	1885	2251
172	659	1896
173	1044	1540
174	1479	1778
175	1305	2578
176	1548	2620
177	1052	2068
178	1105	1690
179	991	1591
180	1173	1667
181	1665	2360
182	0	1536
183	946	1344
184	1260	2682
185	2055	2649
186	390	1764
187	370	2312
188	539	2154
189	490	2186
190	467	2000
191	477	2085
192	1228	2664
193	1211	2379
194	831	2288
195	1526	1803
196	983	1348
197	306	1923
198	1156	1557
199	905	1410
200	308	1597
201	720	2672
202	1007	1948
203	1367	2637
204	1219	2409
205	933	2514
206	539	1882
207	490	1449
208	1385	3000
209	1002	1873
210	671	2307
211	1223	1964
212	0	1128
213	680	1693
214	0	1590
215	1073	1430
216	904	2713
217	1156	2756
218	1230	3000
219	2261	2554
220	1497	1753
221	607	2347
222	541	2538
223	1456	3000
224	1254	1905
225	483	1146
226	0	1293
227	1490	1913
228	925	1144
229	1235	1546
230	306	1616
231	668	2569
232	630	1083
233	1363	2855
234	475	1610
235	1291	2375
236	665	1130
237	0	1694
238	278	1740
239	580	2265
240	357	1400
241	482	1962
242	847	1902
243	309	1492
244	1604	2806
245	1670	2322
246	519	1673
247	324	1946
248	1310	2561
249	1287	1554
250	1621	1864
251	900	1735
252	646	1600
253	619	2236
254	1061	3000
255	665	2040
256	1621	3000
257	460	2389
258	1239	1539
259	1284	1896
260	1012	1780
261	401	1463
262	1262	2043
263	402	1239
264	1712	3000
265	1000	2102
266	0	1431
267	1192	2240
268	1063	2267
269	914	1957
270	406	2324
271	1170	1411
272	182	2058
273	210	1439
274	765	1907
275	478	1744
276	1089	1699
277	89	982
278	596	1709
279	1188	3000
280	1966	2274
281	1301	1826
282	1564	3000
283	92	2042
284	1084	3000
285	1890	2258
286	0	823
287	2024	2511
288	366	2145
289	1446	2328
290	1887	2497
291	931	2501
292	328	1729
293	107	1260
294	1060	2067
295	1571	2916
296	359	1690
297	1992	2651
298	812	1968
299	0	1444
300	480	2056
301	1319	2480
302	1512	2523
303	326	964
304	1237	1682
305	711	1647
306	1686	3000
307	288	1140
308	1426	2392
309	1449	2572
310	844	1847
311	586	915
312	288	1705
313	1298	3000
314	1882	2921
315	1274	2145
316	769	2695
317	265	1434
318	1044	2790
319	1916	2589
320	593	1019
321	496	2291
322	266	1491
323	1252	3000
324	1107	1728
325	1628	2123
326	119	2112
327	0	913
328	702	2348
329	1401	1858
330	437	2313
331	984	1221
332	880	2691
333	1249	2598
334	704	1596
335	1832	3000
336	721	1815
337	951	1559
338	157	905
339	1660	2440
340	694	1501
341	601	2130
342	781	1216
343	771	2700
344	975	1609
345	1637	2068
346	1847	2561
347	0	1671
348	696	2067
349	1176	1468
350	1309	1579
351	1250	2732
352	466	2386
353	607	2311
354	1122	1667
355	1568	2147
356	1464	2661
357	447	1233
358	1721	2080
359	1105	1989
360	1405	1973
361	944	1776
362	971	1888
363	1093	1367
364	1519	1754
365	374	1812
366	982	1555
367	1532	3000
368	888	1936
369	957	1299
370	1058	2632
371	187	1543
372	489	1926
373	1376	1645
374	1721	2711
375	169	2090
376	1527	2763
377	1812	2464
378	1456	2316
379	1077	1742
380	1029	1959
381	1021	2655
382	837	1177
383	709	1211
384	783	2758
385	0	1592
386	1050	1926
387	277	2125
388	700	1710
389	845	2619
390	560	1902
391	1198	1416
392	0	1499
393	1278	3000
394	223	1479
395	464	1306
396	289	2253
397	634	2211
398	856	1764
399	601	1401
400	1036	2837
401	1151	2555
402	504	1620
403	1455	2208
404	986	2125
405	1095	1386
406	1226	2015
407	139	1898
408	1106	2862
409	271	2072
410	121	1787
411	582	1535
412	217	1395
413	928	2103
414	444	1125
415	1178	1907
416	1457	2467
417	1603	1892
418	1286	1997
419	652	1813
420	73	1427
421	1013	2480
422	1209	2374
423	219	1686
424	608	1858
425	1042	1410
426	1002	1374
427	894	1687
428	1007	1252
429	552	2279
430	949	1340
431	1395	1841
432	469	2389
433	741	2489
434	1558	2240
435	1694	1966
436	573	2468
437	199	2079
438	988	2701
439	1160	1988
440	249	755
441	804	1712
442	1441	2053
443	1176	2520
444	0	936
445	0	1309
446	964	2592
447	116	920
448	1352	1940
449	1323	2608
450	411	1956
451	468	972
452	269	2197
453	490	2159
454	0	1402
455	1520	1815
456	696	1406
457	1597	1915
458	730	2378
459	982	2238
460	2497	2734
461	580	1713
462	1275	2177
463	1168	1584
464	0	1690
465	885	1689
466	573	1925
467	114	2016
468	811	2327
469	0	1654
470	624	2445
471	304	1876
472	1164	1835
473	603	2312
474	681	2498
475	496	2241
476	2006	2817
477	1019	1292
478	1096	1885
479	898	2096
480	878	2281
481	1376	2377
482	504	1778
483	1152	2769
484	1012	1835
485	1569	3000
486	1413	2059
487	1649	2083
488	946	1266
489	1032	2652
490	0	1199
491	1147	1525
492	1585	2056
493	532	1498
494	470	1832
495	827	2333
496	1601	2375
497	2165	2422
498	477	963
499	538	1500
500	1502	2162
501	1483	2074
502	230	2169
503	737	1645
504	0	1347
505	377	1372
506	1648	2119
507	1421	1924
508	979	2040
509	1264	3000
510	1193	2659
511	992	1620
512	226	2070
513	0	1176
514	220	1188
515	685	2413
516	425	1445
517	1396	1915
518	1515	3000
519	346	2001
520	0	854
521	1208	1550
522	1027	2561
523	0	1885
524	368	1526
525	963	2100
526	1225	2298
527	0	742
528	1166	2472
529	1204	2098
530	0	1397
531	1024	1397
532	0	1766
533	641	2257
534	251	2080
535	254	2247
536	981	1807
537	88	825
538	907	2134
539	638	1626
540	1026	2042
541	1516	1868
542	1268	2870
543	962	2076
544	936	1608
545	1219	1486
546	668	2633
547	2095	2737
548	1025	2652
549	126	1422
550	1833	2109
551	515	1334
552	328	1763
553	1798	2617
554	869	2411
555	814	1413
556	193	1563
557	918	2736
558	952	2757
559	1113	2130
560	660	1896
561	1285	1713
562	470	1543
563	630	1106
564	578	1009
565	48	1886
566	52	1381
567	581	2495
568	308	798
569	575	2088
570	483	1409
571	99	1735
572	1722	2091
573	1701	2236
574	1675	2059
575	681	1510
576	285	1808
577	753	1151
578	1129	2143
579	787	2361
580	1032	2195
581	1665	1892
582	1153	2348
583	0	1767
584	1072	1796
585	1111	1391
586	1470	2012
587	795	1107
588	174	1132
589	1464	1812
590	242	2122
591	1858	2301
592	1331	2176
593	1008	1976
594	165	1412
595	754	1410
596	617	1567
597	448	806
598	1126	2566
599	861	2663
600	785	2374
601	1254	1919
602	1046	3000
603	698	2601
604	1084	2760
605	743	2392
606	905	2436
607	157	1540
608	552	2453
609	901	2258
610	259	1675
611	1271	2011
612	935	2611
613	931	2793
614	0	1410
615	635	2466
616	1555	3000
617	923	2800
618	734	1377
619	741	2618
620	792	1507
621	1559	2895
622	1710	2099
623	889	2488
624	1071	2018
625	211	838
626	1640	2333
627	969	2092
628	626	2536
629	1562	2267
630	549	2458
631	0	1535
632	30	1081
633	1135	1512
634	848	1881
635	990	2044
636	428	1934
637	1609	2363
638	0	1295
639	1232	2742
640	1105	2630
641	304	1292
642	1024	2592
643	1374	1934
644	0	1556
645	846	1271
646	954	2945
647	1491	1775
648	1062	1909
649	884	1087
650	497	1833
651	839	2815
652	1275	1842
653	1508	2406
654	2057	2383
655	501	2401
656	226	1318
657	1067	2651
658	1243	1635
659	1239	1756
660	109	1862
661	577	1291
662	1998	2703
663	1028	2505
664	97	1037
665	657	2218
666	1570	2045
667	1302	3000
668	888	2357
669	540	890
670	251	1732
671	2239	2502
672	1116	2507
673	195	1530
674	495	2256
675	660	1754
676	1413	1934
677	1484	2592
678	924	2178
679	1455	1961
680	660	2382
681	1327	2405
682	454	1004
683	1390	1702
684	913	2088
685	430	1613
686	1457	2186
687	430	1820
688	341	1989
689	1501	1900
690	1272	1953
691	1362	1693
692	601	2201
693	1209	2603
694	1898	2596
695	1026	2214
696	146	1565
697	411	1616
698	837	2019
699	1075	1710
700	851	2169
701	1838	2647
702	394	1602
703	1360	1576
704	533	1890
705	470	1925
706	758	2456
707	210	1403
708	935	2679
709	344	1645
710	1321	1864
711	386	1708
712	427	1331
713	1328	1995
714	770	1364
715	300	2206
716	1930	2260
717	493	1509
718	2218	2984
719	843	1957
720	287	1990
721	1292	2905
722	443	2241
723	1175	2735
724	552	2185
725	660	1931
726	722	1478
727	24	1916
728	1327	1560
729	1702	2047
730	1500	1881
731	333	1090
732	759	2211
733	0	1337
734	993	2682
735	790	2417
736	1470	2200
737	330	2289
738	1352	2397
739	232	1892
740	1146	2950
741	1825	2326
742	0	1385
743	772	2433
744	1164	2402
745	408	1996
746	781	1164
747	0	881
748	167	1175
749	769	1946
750	0	881
751	92	1976
752	281	1942
753	1577	2019
754	299	1911
755	1015	2248
756	0	1596
757	1519	2338
758	704	1835
759	634	1744
760	749	987
761	1122	2012
762	266	1290
763	1403	2574
764	1260	1513
765	650	1264
766	284	1981
767	948	2647
768	14	1660
769	72	1579
770	600	1254
771	1018	2694
772	945	2162
773	356	1403
774	1566	2486
775	2336	2607
776	1462	3000
777	1240	1518
778	1707	2037
779	905	1307
780	1527	2411
781	1185	1561
782	1119	1777
783	427	2357
784	0	1652
785	871	2662
786	1447	2770
787	1868	2424
788	1337	2072
789	1104	1341
790	850	1436
791	1276	1769
792	1331	2224
793	0	859
794	1531	3000
795	1612	2680
796	135	2125
797	904	2418
798	1565	2786
799	1197	2484
800	735	1201
801	885	2018
802	929	1969
803	1067	3000
804	549	1593
805	553	2002
806	1011	1557
807	1374	2065
808	779	2037
809	1452	2498
810	1370	2303
811	1408	2723
812	930	2431
813	1205	2236
814	373	1966
815	748	2342
816	159	2113
817	0	777
818	0	1293
819	1019	2208
820	202	1408
821	891	1374
822	989	2472
823	135	1644
824	647	1412
825	442	1825
826	448	2123
827	663	2122
828	378	2203
829	381	1263
830	59	1740
831	570	1859
832	1113	2392
833	739	2600
834	1736	2462
835	25	1951
836	1199	1832
837	432	1944
838	1013	2089
839	1540	1981
840	1703	2027
841	737	1905
842	866	1456
843	0	1436
844	415	761
845	1104	1969
846	352	2216
847	734	1664
848	1226	1996
849	434	2424
850	233	961
851	1050	1787
852	417	2069
853	528	1255
854	1439	2397
855	1234	1958
856	32	1885
857	0	998
858	881	1468
859	0	1313
860	631	2457
861	749	1052
862	1040	2244
863	628	1935
864	278	2174
865	284	960
866	626	2398
867	1283	2239
868	906	1181
869	1527	1877
870	0	1179
871	904	2245
872	870	1072
873	0	1420
874	799	2359
875	2262	2600
876	1218	2488
877	516	1767
878	684	1337
879	1528	2253
880	1499	1915
881	1577	2869
882	611	1100
883	866	2373
884	1695	2075
885	1089	1574
886	440	2264
887	143	1862
888	257	1649
889	1245	2179
890	897	2653
891	931	2093
892	0	1390
893	366	2300
894	1346	2134
895	0	1037
896	949	2001
897	374	1731
898	1394	1660
899	1629	2096
900	1509	2696
901	1270	3000
902	216	1204
903	1569	2008
904	1653	1920
905	902	1239
906	1767	2347
907	1432	2508
908	833	1161
909	501	996
910	986	1686
911	0	1515
912	486	1200
913	16	783
914	0	1684
915	629	2528
916	1193	1638
917	1094	2262
918	412	1630
919	1125	2191
920	353	1786
921	1047	2563
922	1091	1309
923	788	1088
924	793	1759
925	1638	2285
926	1400	1982
927	295	1671
928	1543	2482
929	69	1217
930	1296	2255
931	111	2090
932	1606	2131
933	1221	2552
934	1108	1843
935	1016	2276
936	645	2612
937	415	1696
938	1221	1602
939	861	2625
940	1498	2553
941	77	1599
942	554	1644
943	58	1932
944	1241	2131
945	0	1641
946	738	2593
947	731	2057
948	71	1474
949	435	1964
950	1426	1918
951	891	2267
952	899	1458
953	1528	1793
954	505	1484
955	841	1726
956	421	2174
957	1177	2139
958	0	1316
959	0	1457
960	418	1534
961	172	2035
962	624	2217
963	692	1906
964	1355	2635
965	333	1905
966	1524	2308
967	709	1852
968	167	2039
969	1474	3000
970	744	2331
971	1938	2151
972	1663	2266
973	0	805
974	464	1664
975	1522	2250
976	801	2416
977	269	1493
978	882	2710
979	89	1848
980	1223	2114
981	1185	3000
982	437	1577
983	300	2250
984	1640	2352
985	622	2598
986	1390	1962
987	910	1846
988	828	1610
989	345	1133
990	945	2739
991	899	1522
992	1602	1903
993	1342	2966
994	1307	2849
995	921	1670
996	1040	1959
997	460	1086
998	1399	2080
999	931	1926
1000	1387	1785
1001	936	1364
BACKHAUL_SECTION
7	9	11	17	26	28	29	30	32	35	42	48	51	58	59	61	67	70	72	74	76	81	82	105	107	110	113	114	119	128	130	131	138	141	145	154	160	166	169	175	184	185	186	189	192	196	197	198	199	208	209	219	221	223	230	232	233	235	243	245	247	249	254	263	269	271	272	273	275	290	292	293	294	296	305	310	313	317	322	330	333	348	354	360	364	378	384	392	399	401	405	411	420	424	426	430	433	436	440	448	449	465	466	467	473	477	478	484	487	492	498	499	502	508	512	535	539	550	551	555	559	566	574	590	592	594	602	604	620	622	626	641	643	654	662	666	680	688	698	707	714	718	719	728	736	745	746	748	753	755	759	760	764	765	775	782	785	791	802	804	807	821	822	824	834	835	839	842	844	846	847	849	854	858	860	862	863	865	866	867	869	890	906	921	930	937	938	945	950	954	957	959	974	975	976	977	978	979	996	999	-1
DEPOT_SECTION
1
-1
EOF
