NAME : n1001-0032
COMMENT : "Generated by pyvrp_manuel (OVRPBTW)"
TYPE : OVRPBTW
DIMENSION : 1001
EDGE_WEIGHT_TYPE : EUC_2D
CAPACITY : 150
VEHICLES : 1000
OPEN_ROUTE : YES
SERVICE_TIME : 200
NODE_COORD_SECTION
1	628	41
2	250	0
3	936	23
4	847	218
5	715	301
6	480	943
7	293	486
8	315	855
9	988	487
10	536	179
11	765	447
12	268	157
13	487	200
14	344	995
15	502	83
16	463	851
17	265	58
18	650	649
19	745	308
20	105	674
21	498	159
22	896	894
23	785	100
24	159	349
25	705	316
26	368	623
27	494	360
28	723	993
29	725	792
30	834	529
31	856	198
32	771	657
33	766	688
34	365	547
35	516	912
36	735	885
37	519	102
38	944	983
39	118	496
40	572	622
41	471	983
42	905	502
43	531	672
44	182	893
45	568	940
46	471	881
47	714	866
48	15	789
49	126	191
50	920	620
51	111	433
52	655	516
53	288	763
54	662	216
55	952	425
56	56	489
57	553	158
58	988	343
59	0	962
60	48	420
61	635	825
62	646	886
63	664	870
64	694	751
65	753	60
66	68	896
67	316	344
68	624	501
69	650	266
70	646	728
71	4	501
72	408	608
73	809	301
74	572	254
75	76	982
76	328	403
77	660	18
78	115	270
79	671	685
80	972	58
81	229	905
82	686	307
83	708	971
84	183	157
85	826	827
86	312	369
87	686	240
88	711	357
89	113	592
90	362	140
91	611	592
92	445	253
93	635	344
94	589	665
95	903	967
96	815	231
97	607	498
98	49	595
99	48	55
100	651	754
101	987	339
102	934	926
103	883	333
104	904	478
105	568	487
106	139	964
107	92	708
108	553	764
109	162	168
110	285	694
111	169	229
112	747	515
113	691	254
114	915	686
115	3	615
116	65	907
117	743	264
118	141	237
119	965	193
120	751	915
121	243	785
122	454	319
123	448	511
124	134	544
125	312	158
126	392	999
127	39	808
128	460	876
129	820	814
130	305	789
131	589	891
132	951	774
133	769	280
134	721	585
135	79	354
136	121	149
137	131	977
138	501	570
139	100	541
140	283	846
141	332	955
142	38	284
143	289	582
144	630	287
145	9	269
146	6	452
147	518	983
148	269	623
149	265	244
150	178	251
151	6	92
152	296	949
153	16	602
154	211	786
155	905	806
156	313	916
157	483	280
158	883	767
159	20	264
160	122	616
161	501	495
162	655	82
163	728	734
164	852	206
165	277	910
166	775	191
167	6	375
168	333	98
169	663	354
170	461	80
171	300	951
172	471	780
173	953	387
174	165	245
175	251	729
176	717	249
177	621	831
178	807	835
179	777	924
180	171	749
181	16	761
182	476	772
183	79	188
184	718	445
185	70	471
186	176	886
187	403	917
188	708	236
189	947	605
190	810	404
191	98	85
192	88	74
193	799	877
194	908	255
195	757	134
196	271	787
197	180	948
198	530	286
199	365	794
200	353	805
201	951	564
202	985	146
203	759	988
204	316	518
205	563	246
206	180	943
207	873	880
208	430	3
209	990	349
210	931	430
211	488	861
212	687	174
213	653	97
214	874	366
215	25	322
216	240	537
217	287	423
218	133	307
219	582	373
220	409	261
221	822	472
222	735	812
223	409	330
224	200	189
225	876	767
226	568	431
227	348	663
228	684	178
229	40	936
230	631	640
231	511	876
232	246	525
233	397	770
234	146	295
235	596	453
236	270	175
237	739	878
238	589	472
239	335	19
240	308	582
241	288	714
242	723	443
243	130	584
244	693	102
245	100	945
246	53	945
247	485	464
248	385	914
249	49	740
250	571	254
251	423	231
252	295	740
253	181	780
254	327	299
255	138	744
256	927	135
257	887	234
258	127	531
259	50	359
260	419	120
261	330	320
262	562	177
263	249	850
264	293	50
265	222	886
266	346	36
267	519	520
268	673	909
269	864	441
270	741	42
271	936	792
272	577	969
273	997	509
274	170	465
275	746	559
276	666	871
277	503	737
278	503	305
279	695	571
280	488	857
281	630	197
282	22	434
283	446	880
284	116	545
285	708	447
286	740	393
287	273	444
288	114	938
289	115	584
290	10	610
291	996	881
292	429	662
293	444	137
294	723	467
295	492	355
296	711	823
297	355	135
298	817	987
299	338	367
300	879	571
301	680	589
302	176	507
303	862	164
304	676	663
305	312	623
306	638	397
307	615	274
308	518	273
309	983	718
310	165	112
311	378	807
312	940	972
313	783	427
314	8	303
315	619	802
316	988	676
317	73	143
318	699	874
319	282	447
320	686	26
321	278	912
322	698	303
323	72	763
324	766	365
325	238	418
326	36	637
327	361	486
328	574	976
329	847	931
330	4	808
331	301	392
332	982	925
333	214	655
334	764	787
335	623	336
336	902	489
337	90	910
338	287	0
339	407	76
340	256	345
341	39	873
342	45	99
343	580	850
344	808	128
345	382	776
346	249	933
347	136	831
348	743	988
349	256	274
350	581	375
351	519	548
352	119	695
353	219	686
354	52	809
355	583	12
356	807	422
357	41	725
358	494	327
359	487	369
360	134	753
361	986	447
362	376	961
363	728	864
364	42	242
365	149	445
366	953	862
367	375	529
368	340	529
369	322	847
370	403	135
371	210	206
372	211	52
373	935	92
374	52	593
375	484	581
376	344	862
377	184	57
378	747	392
379	817	93
380	318	856
381	682	533
382	303	45
383	423	628
384	165	697
385	120	886
386	563	422
387	409	457
388	85	60
389	39	103
390	407	51
391	221	719
392	36	373
393	135	814
394	375	732
395	658	484
396	432	517
397	31	170
398	553	671
399	219	839
400	996	275
401	193	99
402	978	954
403	933	825
404	420	897
405	732	786
406	937	672
407	480	889
408	229	710
409	804	724
410	754	150
411	987	573
412	238	652
413	298	398
414	492	790
415	214	865
416	569	221
417	684	830
418	291	605
419	824	957
420	804	151
421	745	527
422	534	7
423	836	781
424	145	294
425	118	829
426	865	592
427	294	9
428	534	363
429	378	804
430	562	128
431	472	33
432	968	672
433	629	356
434	517	383
435	108	449
436	291	124
437	289	902
438	934	793
439	829	923
440	629	619
441	803	657
442	268	819
443	459	415
444	696	112
445	558	66
446	295	582
447	931	282
448	881	711
449	889	163
450	425	897
451	456	723
452	305	719
453	773	937
454	87	282
455	802	428
456	496	261
457	83	468
458	696	572
459	928	830
460	600	654
461	30	139
462	80	245
463	506	729
464	996	375
465	482	406
466	261	849
467	996	236
468	211	517
469	287	971
470	290	188
471	975	826
472	473	603
473	959	570
474	502	898
475	955	509
476	825	137
477	820	688
478	950	966
479	65	755
480	67	216
481	542	922
482	335	684
483	682	419
484	3	281
485	818	326
486	135	274
487	947	257
488	505	638
489	678	463
490	724	152
491	954	654
492	272	916
493	758	164
494	275	394
495	785	360
496	892	977
497	114	691
498	747	559
499	320	850
500	150	836
501	742	545
502	120	760
503	308	419
504	434	12
505	917	628
506	91	190
507	763	486
508	359	150
509	137	791
510	353	271
511	47	168
512	82	610
513	668	913
514	520	608
515	772	856
516	113	851
517	354	475
518	784	112
519	790	750
520	474	517
521	519	413
522	495	681
523	356	791
524	105	748
525	457	908
526	845	363
527	464	868
528	835	124
529	788	659
530	731	653
531	549	590
532	720	343
533	616	522
534	227	452
535	194	79
536	518	989
537	875	66
538	553	112
539	199	799
540	652	322
541	643	191
542	133	244
543	935	249
544	142	352
545	780	185
546	327	732
547	795	833
548	183	144
549	980	68
550	325	13
551	1	324
552	65	274
553	399	529
554	358	714
555	554	238
556	905	838
557	327	140
558	694	448
559	11	654
560	840	627
561	365	337
562	572	513
563	506	747
564	563	844
565	950	812
566	437	222
567	236	299
568	496	952
569	718	172
570	952	44
571	963	70
572	70	698
573	458	123
574	201	33
575	834	670
576	592	784
577	625	531
578	291	145
579	617	576
580	162	251
581	585	24
582	127	49
583	308	35
584	63	923
585	292	597
586	917	850
587	821	42
588	174	117
589	790	877
590	24	434
591	98	921
592	959	831
593	835	594
594	101	633
595	570	30
596	487	819
597	742	473
598	193	278
599	536	380
600	714	458
601	196	705
602	726	801
603	244	709
604	232	942
605	420	23
606	687	667
607	986	300
608	456	290
609	913	41
610	129	102
611	432	968
612	634	287
613	158	671
614	112	91
615	397	136
616	135	917
617	177	713
618	805	414
619	793	155
620	231	281
621	325	976
622	556	8
623	283	705
624	929	895
625	480	401
626	306	121
627	9	544
628	533	997
629	136	537
630	563	531
631	416	137
632	572	146
633	540	548
634	968	236
635	276	486
636	501	524
637	838	313
638	438	566
639	646	367
640	58	9
641	727	67
642	867	993
643	783	280
644	553	974
645	223	234
646	520	82
647	724	72
648	746	672
649	75	93
650	420	699
651	871	9
652	106	293
653	103	553
654	632	768
655	126	705
656	587	555
657	192	155
658	478	700
659	547	366
660	69	741
661	670	530
662	398	612
663	935	326
664	711	734
665	320	79
666	447	434
667	588	128
668	428	707
669	168	463
670	674	162
671	614	173
672	521	777
673	456	739
674	805	608
675	142	742
676	583	287
677	472	539
678	786	959
679	540	10
680	438	749
681	673	838
682	221	512
683	293	233
684	340	470
685	47	303
686	221	688
687	53	975
688	195	512
689	842	730
690	952	139
691	506	975
692	141	477
693	138	732
694	845	456
695	799	469
696	95	968
697	892	63
698	860	951
699	727	778
700	909	131
701	942	577
702	101	787
703	697	32
704	482	92
705	296	638
706	435	592
707	799	185
708	883	343
709	835	381
710	941	709
711	805	637
712	965	180
713	193	493
714	804	342
715	236	849
716	165	497
717	943	442
718	605	675
719	655	24
720	170	689
721	746	862
722	20	191
723	173	580
724	7	874
725	737	173
726	225	470
727	761	65
728	220	596
729	42	427
730	967	670
731	670	295
732	428	105
733	456	896
734	570	247
735	723	2
736	121	949
737	423	458
738	607	882
739	54	892
740	300	86
741	911	291
742	189	84
743	322	90
744	842	370
745	133	485
746	835	835
747	789	643
748	390	474
749	98	537
750	806	178
751	361	223
752	862	134
753	951	112
754	940	520
755	643	98
756	255	220
757	314	938
758	317	886
759	400	546
760	321	712
761	141	564
762	392	6
763	560	899
764	556	259
765	231	716
766	463	797
767	536	507
768	897	122
769	363	44
770	228	299
771	667	549
772	561	891
773	793	809
774	849	606
775	111	258
776	387	930
777	544	834
778	86	312
779	835	606
780	8	662
781	179	28
782	274	128
783	785	307
784	364	820
785	868	777
786	434	279
787	911	482
788	551	543
789	996	510
790	498	312
791	707	817
792	356	614
793	613	200
794	146	332
795	353	964
796	509	532
797	568	817
798	284	734
799	757	861
800	129	328
801	633	273
802	947	567
803	446	755
804	623	110
805	370	968
806	375	861
807	219	856
808	140	269
809	829	819
810	233	822
811	854	771
812	571	992
813	91	990
814	318	597
815	60	923
816	434	572
817	468	750
818	996	494
819	841	15
820	161	111
821	408	544
822	748	130
823	151	613
824	342	1000
825	852	130
826	797	769
827	982	458
828	285	437
829	941	325
830	380	105
831	973	382
832	218	590
833	613	824
834	384	505
835	370	153
836	248	940
837	605	554
838	921	303
839	673	624
840	232	808
841	169	204
842	660	920
843	227	849
844	264	372
845	299	596
846	377	509
847	579	995
848	228	350
849	435	301
850	396	472
851	226	257
852	639	454
853	840	911
854	611	920
855	356	834
856	626	329
857	951	966
858	792	660
859	591	822
860	134	297
861	448	457
862	473	371
863	123	666
864	805	896
865	671	741
866	676	145
867	947	481
868	921	447
869	407	206
870	733	545
871	186	126
872	690	14
873	500	647
874	782	952
875	813	463
876	425	508
877	508	774
878	948	131
879	248	462
880	542	244
881	292	469
882	614	815
883	418	629
884	353	83
885	90	905
886	202	419
887	474	675
888	259	222
889	84	292
890	766	831
891	255	45
892	597	558
893	668	173
894	397	558
895	96	611
896	695	628
897	393	929
898	636	274
899	72	281
900	312	626
901	417	199
902	912	330
903	983	883
904	854	679
905	574	511
906	587	395
907	524	775
908	205	142
909	297	492
910	883	364
911	94	940
912	757	87
913	849	860
914	986	730
915	939	888
916	354	306
917	333	310
918	708	762
919	75	605
920	401	103
921	65	368
922	827	260
923	362	786
924	866	233
925	798	647
926	587	820
927	533	521
928	607	226
929	219	176
930	751	274
931	641	359
932	948	723
933	447	588
934	248	352
935	712	297
936	872	644
937	523	691
938	323	608
939	803	784
940	145	741
941	845	348
942	605	134
943	972	427
944	269	522
945	385	491
946	769	783
947	398	811
948	114	688
949	5	470
950	374	773
951	827	715
952	250	416
953	627	456
954	404	72
955	573	844
956	539	6
957	37	312
958	186	950
959	95	832
960	616	254
961	498	780
962	444	321
963	146	837
964	26	628
965	900	42
966	218	824
967	168	474
968	938	776
969	78	369
970	777	729
971	162	949
972	991	576
973	398	43
974	372	755
975	4	4
976	988	269
977	986	102
978	819	831
979	773	600
980	865	378
981	513	84
982	951	956
983	943	820
984	688	534
985	305	726
986	662	256
987	229	271
988	332	706
989	972	449
990	938	317
991	871	685
992	36	53
993	630	611
994	86	369
995	263	951
996	608	586
997	878	649
998	57	960
999	833	886
1000	227	737
1001	131	868
DEMAND_SECTION
1	0
2	6
3	9
4	7
5	2
6	7
7	5
8	1
9	4
10	9
11	7
12	1
13	5
14	6
15	1
16	3
17	2
18	5
19	2
20	2
21	2
22	3
23	1
24	7
25	9
26	1
27	8
28	9
29	5
30	5
31	2
32	3
33	4
34	4
35	5
36	5
37	9
38	8
39	1
40	2
41	4
42	9
43	3
44	8
45	1
46	8
47	1
48	6
49	3
50	8
51	6
52	1
53	3
54	5
55	1
56	8
57	5
58	4
59	5
60	7
61	5
62	8
63	5
64	3
65	4
66	6
67	5
68	8
69	8
70	5
71	9
72	2
73	3
74	1
75	5
76	5
77	8
78	8
79	3
80	4
81	3
82	9
83	6
84	5
85	9
86	2
87	4
88	4
89	4
90	2
91	5
92	3
93	4
94	8
95	4
96	4
97	7
98	5
99	6
100	4
101	6
102	3
103	6
104	6
105	8
106	5
107	3
108	2
109	4
110	5
111	8
112	1
113	4
114	5
115	6
116	6
117	1
118	3
119	1
120	8
121	1
122	1
123	9
124	4
125	3
126	2
127	9
128	4
129	4
130	4
131	5
132	8
133	5
134	7
135	8
136	3
137	6
138	7
139	3
140	5
141	1
142	6
143	3
144	4
145	5
146	8
147	2
148	1
149	2
150	4
151	3
152	1
153	2
154	8
155	7
156	4
157	2
158	6
159	4
160	9
161	7
162	4
163	3
164	8
165	7
166	3
167	4
168	7
169	2
170	3
171	7
172	4
173	1
174	4
175	3
176	5
177	1
178	5
179	1
180	2
181	2
182	2
183	6
184	4
185	9
186	4
187	3
188	8
189	1
190	3
191	5
192	6
193	1
194	1
195	5
196	3
197	6
198	6
199	9
200	2
201	6
202	5
203	4
204	4
205	7
206	3
207	5
208	4
209	1
210	6
211	9
212	2
213	3
214	7
215	8
216	4
217	4
218	9
219	4
220	8
221	5
222	2
223	5
224	6
225	2
226	4
227	4
228	2
229	5
230	8
231	5
232	9
233	3
234	2
235	8
236	9
237	3
238	7
239	1
240	8
241	2
242	6
243	1
244	8
245	1
246	8
247	3
248	3
249	3
250	7
251	9
252	9
253	4
254	4
255	4
256	3
257	1
258	3
259	8
260	8
261	9
262	2
263	3
264	2
265	6
266	2
267	9
268	8
269	5
270	5
271	9
272	5
273	2
274	3
275	2
276	9
277	2
278	1
279	3
280	7
281	9
282	4
283	9
284	6
285	4
286	5
287	1
288	5
289	4
290	9
291	4
292	8
293	1
294	3
295	5
296	1
297	4
298	5
299	4
300	5
301	3
302	7
303	6
304	5
305	9
306	8
307	9
308	4
309	6
310	6
311	3
312	3
313	8
314	1
315	8
316	7
317	2
318	5
319	2
320	9
321	9
322	1
323	3
324	3
325	8
326	1
327	4
328	1
329	9
330	9
331	9
332	6
333	3
334	2
335	4
336	5
337	1
338	3
339	5
340	8
341	3
342	4
343	4
344	8
345	1
346	1
347	7
348	8
349	3
350	8
351	7
352	5
353	4
354	6
355	9
356	3
357	9
358	8
359	8
360	1
361	3
362	7
363	9
364	5
365	4
366	1
367	7
368	6
369	6
370	7
371	3
372	2
373	5
374	8
375	6
376	4
377	2
378	6
379	7
380	3
381	8
382	7
383	5
384	4
385	4
386	2
387	3
388	1
389	3
390	7
391	1
392	1
393	9
394	2
395	7
396	7
397	7
398	2
399	2
400	5
401	9
402	8
403	3
404	5
405	6
406	5
407	1
408	5
409	3
410	1
411	6
412	6
413	1
414	9
415	8
416	6
417	9
418	2
419	8
420	2
421	3
422	3
423	2
424	3
425	7
426	9
427	5
428	9
429	6
430	5
431	1
432	7
433	5
434	4
435	2
436	3
437	1
438	5
439	9
440	6
441	1
442	6
443	1
444	2
445	4
446	8
447	9
448	9
449	7
450	6
451	9
452	5
453	2
454	1
455	1
456	1
457	4
458	2
459	7
460	8
461	8
462	6
463	2
464	5
465	4
466	1
467	8
468	5
469	4
470	4
471	5
472	6
473	5
474	2
475	6
476	1
477	4
478	9
479	1
480	9
481	2
482	5
483	2
484	7
485	5
486	4
487	4
488	6
489	9
490	6
491	8
492	7
493	1
494	9
495	4
496	4
497	4
498	2
499	2
500	5
501	1
502	1
503	9
504	2
505	9
506	8
507	9
508	7
509	6
510	8
511	5
512	5
513	4
514	9
515	5
516	5
517	9
518	3
519	7
520	3
521	8
522	7
523	1
524	9
525	3
526	3
527	8
528	4
529	9
530	4
531	4
532	9
533	7
534	8
535	8
536	4
537	7
538	4
539	7
540	3
541	5
542	6
543	4
544	6
545	2
546	1
547	7
548	8
549	5
550	4
551	6
552	5
553	1
554	1
555	2
556	6
557	9
558	9
559	2
560	6
561	8
562	3
563	6
564	2
565	5
566	7
567	2
568	5
569	3
570	8
571	2
572	1
573	3
574	2
575	2
576	2
577	7
578	2
579	3
580	1
581	4
582	3
583	9
584	5
585	3
586	2
587	4
588	1
589	7
590	6
591	8
592	8
593	1
594	5
595	6
596	3
597	1
598	9
599	7
600	8
601	3
602	8
603	4
604	3
605	8
606	3
607	2
608	1
609	1
610	8
611	9
612	8
613	8
614	4
615	5
616	8
617	5
618	2
619	2
620	9
621	3
622	9
623	5
624	8
625	3
626	1
627	6
628	7
629	6
630	5
631	6
632	6
633	4
634	9
635	1
636	5
637	6
638	6
639	4
640	4
641	1
642	6
643	2
644	1
645	2
646	2
647	1
648	1
649	4
650	3
651	2
652	8
653	9
654	8
655	5
656	2
657	2
658	7
659	3
660	5
661	9
662	8
663	8
664	9
665	2
666	4
667	9
668	4
669	7
670	5
671	4
672	5
673	3
674	4
675	9
676	9
677	8
678	6
679	2
680	6
681	5
682	2
683	6
684	4
685	8
686	2
687	8
688	5
689	3
690	1
691	5
692	9
693	7
694	3
695	6
696	3
697	9
698	7
699	7
700	9
701	7
702	8
703	7
704	4
705	1
706	5
707	8
708	7
709	6
710	2
711	3
712	1
713	1
714	3
715	6
716	5
717	1
718	5
719	2
720	6
721	3
722	5
723	5
724	3
725	1
726	3
727	6
728	2
729	2
730	7
731	2
732	4
733	4
734	5
735	5
736	4
737	9
738	9
739	8
740	8
741	3
742	5
743	3
744	3
745	7
746	3
747	1
748	1
749	2
750	5
751	6
752	7
753	8
754	5
755	3
756	9
757	4
758	8
759	6
760	7
761	7
762	4
763	4
764	1
765	8
766	1
767	7
768	1
769	4
770	6
771	5
772	7
773	5
774	8
775	7
776	7
777	2
778	3
779	8
780	7
781	7
782	6
783	9
784	3
785	4
786	1
787	8
788	4
789	1
790	9
791	3
792	5
793	8
794	7
795	5
796	6
797	9
798	5
799	2
800	2
801	4
802	1
803	6
804	9
805	4
806	7
807	3
808	7
809	9
810	8
811	4
812	8
813	6
814	5
815	8
816	5
817	5
818	8
819	1
820	4
821	9
822	5
823	7
824	8
825	5
826	3
827	1
828	2
829	1
830	4
831	2
832	7
833	1
834	8
835	2
836	6
837	8
838	2
839	8
840	5
841	9
842	2
843	4
844	6
845	6
846	7
847	5
848	6
849	5
850	8
851	9
852	6
853	6
854	7
855	4
856	8
857	6
858	8
859	5
860	5
861	5
862	3
863	7
864	5
865	6
866	5
867	7
868	5
869	7
870	7
871	3
872	3
873	8
874	3
875	6
876	1
877	8
878	9
879	6
880	3
881	4
882	4
883	5
884	7
885	3
886	4
887	3
888	1
889	5
890	7
891	3
892	6
893	7
894	6
895	5
896	4
897	3
898	9
899	7
900	1
901	1
902	3
903	3
904	3
905	3
906	8
907	6
908	4
909	4
910	7
911	5
912	6
913	8
914	6
915	2
916	4
917	2
918	6
919	6
920	1
921	4
922	1
923	6
924	3
925	1
926	1
927	8
928	5
929	4
930	7
931	8
932	5
933	1
934	6
935	8
936	6
937	6
938	4
939	6
940	7
941	5
942	1
943	5
944	8
945	3
946	3
947	3
948	1
949	9
950	1
951	1
952	2
953	2
954	8
955	2
956	9
957	1
958	9
959	4
960	1
961	3
962	4
963	7
964	4
965	2
966	5
967	2
968	9
969	2
970	6
971	7
972	3
973	1
974	8
975	6
976	5
977	1
978	1
979	7
980	9
981	8
982	8
983	8
984	1
985	1
986	1
987	6
988	7
989	4
990	7
991	8
992	7
993	8
994	2
995	5
996	9
997	7
998	6
999	2
1000	2
1001	4
TIME_WINDOW_SECTION
1	0	3000
2	578	2563
3	273	2068
4	1175	1951
5	1233	2787
6	921	1876
7	683	1880
8	374	1462
9	1430	2663
10	0	1598
11	130	744
12	329	838
13	288	2013
14	843	2205
15	183	1991
16	750	2672
17	263	2188
18	1327	1771
19	348	2278
20	510	1941
21	421	789
22	1030	1851
23	1836	2607
24	602	1620
25	0	1415
26	1930	2242
27	329	1760
28	1624	1853
29	164	1942
30	1305	2055
31	2028	2599
32	1053	2250
33	0	1580
34	807	2136
35	1374	2352
36	900	2110
37	1396	3000
38	721	2051
39	389	1615
40	452	1887
41	1328	1974
42	0	1715
43	973	1420
44	1361	2066
45	470	2394
46	1495	2349
47	939	1909
48	1035	1509
49	622	2615
50	1060	1401
51	27	1555
52	1796	2229
53	57	1962
54	679	2340
55	1291	3000
56	1177	1761
57	1626	2501
58	1697	2879
59	1372	1845
60	1755	2175
61	315	1625
62	731	991
63	1105	1951
64	0	1815
65	637	1047
66	345	1931
67	336	669
68	1748	2636
69	298	1654
70	1152	2887
71	1197	2049
72	199	2101
73	1207	1459
74	1226	2378
75	631	2169
76	195	1453
77	484	992
78	1127	2589
79	1210	1546
80	260	2026
81	754	1203
82	0	911
83	593	2537
84	1282	2417
85	168	1554
86	1532	2425
87	0	774
88	1572	1871
89	1319	1842
90	484	756
91	911	1988
92	132	660
93	365	2244
94	1892	2327
95	1029	1968
96	1718	2595
97	481	1198
98	732	1153
99	1099	1376
100	941	1267
101	761	2211
102	1271	1959
103	715	1076
104	1502	2650
105	0	1676
106	688	2275
107	1599	2135
108	89	1705
109	1594	2908
110	1565	1859
111	0	1503
112	401	887
113	0	631
114	598	1687
115	261	1452
116	992	2485
117	1634	2576
118	1631	2325
119	0	973
120	773	1794
121	1140	1651
122	200	1335
123	1684	2306
124	815	2716
125	116	1111
126	944	1289
127	554	1851
128	1743	2030
129	463	1239
130	281	1524
131	60	2022
132	392	1704
133	0	1395
134	621	860
135	695	1753
136	686	2234
137	930	1452
138	232	1519
139	826	2456
140	829	1563
141	932	2689
142	20	1313
143	1251	2020
144	1186	3000
145	1778	2125
146	680	2484
147	712	2437
148	1698	2393
149	0	1011
150	187	1637
151	488	2219
152	893	1612
153	618	2220
154	748	2086
155	448	2378
156	121	2078
157	0	1210
158	661	2304
159	1159	1428
160	927	2529
161	1093	3000
162	0	1069
163	1027	1339
164	1287	2404
165	1257	1497
166	1334	1999
167	778	1403
168	987	2772
169	258	897
170	672	1990
171	247	1801
172	241	1832
173	1521	2252
174	1528	2452
175	961	2459
176	579	781
177	499	1341
178	413	2328
179	595	2411
180	458	1345
181	891	2068
182	952	1551
183	1645	2585
184	0	1516
185	487	2408
186	650	1992
187	1171	1427
188	1144	3000
189	1240	2120
190	438	1494
191	382	1305
192	1998	2255
193	969	2041
194	772	1238
195	1667	2261
196	924	2090
197	1244	2104
198	639	2003
199	119	1686
200	814	2281
201	868	1278
202	1525	3000
203	1149	2527
204	919	2537
205	1211	1625
206	1487	1722
207	948	1736
208	0	1583
209	1308	1947
210	839	2006
211	1083	2805
212	1649	2567
213	198	724
214	679	1270
215	330	1567
216	1350	1785
217	986	1678
218	800	2239
219	318	1105
220	456	905
221	0	1388
222	164	1985
223	141	1602
224	647	1449
225	644	2365
226	1602	2408
227	756	2281
228	2217	2852
229	1113	1593
230	436	1880
231	1754	1979
232	937	2857
233	1039	2588
234	454	1052
235	1582	2922
236	1196	2998
237	908	2181
238	409	739
239	218	1557
240	0	1666
241	1693	2085
242	1629	1945
243	536	1496
244	652	1934
245	649	1960
246	1309	2011
247	0	1132
248	1286	1549
249	931	1361
250	653	1617
251	0	1349
252	590	1377
253	719	1280
254	836	2193
255	566	1687
256	1212	2542
257	34	933
258	652	2184
259	220	1744
260	0	1073
261	1268	1686
262	1169	1867
263	0	1861
264	784	2004
265	783	2244
266	440	1082
267	1514	1870
268	1408	2231
269	1487	2769
270	154	1974
271	619	2478
272	215	2056
273	1289	1860
274	0	1649
275	1036	2720
276	1295	1628
277	646	1052
278	1309	2201
279	651	1635
280	289	2200
281	1128	2338
282	1205	2222
283	1051	1751
284	316	1786
285	1605	3000
286	1294	1990
287	1669	2428
288	326	2057
289	1385	2480
290	936	1318
291	877	1105
292	537	780
293	1178	1926
294	343	1263
295	971	1450
296	1049	2376
297	0	1280
298	898	1409
299	1680	2087
300	1013	2932
301	467	1409
302	990	1954
303	580	1823
304	1009	1360
305	1317	2898
306	1054	1583
307	484	2096
308	1926	2199
309	335	1773
310	1082	2095
311	575	1747
312	918	2377
313	1222	2185
314	704	1164
315	249	1312
316	245	1389
317	493	2357
318	330	2305
319	749	2266
320	734	2020
321	1270	1905
322	375	669
323	764	1290
324	94	1521
325	1048	1463
326	906	1239
327	1207	2370
328	1193	2272
329	653	1979
330	592	1738
331	487	764
332	916	2241
333	933	2494
334	214	1599
335	1786	2247
336	459	1022
337	834	2560
338	1885	2452
339	1710	2037
340	391	1431
341	923	2179
342	381	2085
343	582	1078
344	518	2031
345	1182	1999
346	921	1456
347	417	2254
348	876	1697
349	89	800
350	307	1218
351	492	2010
352	1083	1319
353	1813	2072
354	588	1851
355	2350	2837
356	578	1122
357	630	2441
358	0	1450
359	1399	1893
360	487	1525
361	464	1888
362	426	1715
363	852	1361
364	520	1354
365	0	1795
366	592	1670
367	1010	2501
368	1668	2610
369	507	1942
370	344	762
371	1654	2545
372	1157	2783
373	2006	2702
374	1203	1471
375	895	2546
376	1213	2605
377	2058	2610
378	173	926
379	831	1461
380	0	1823
381	416	2206
382	240	465
383	502	1145
384	683	1195
385	1227	2346
386	1072	2451
387	422	2246
388	1456	2688
389	2028	2344
390	830	1425
391	984	2883
392	534	2351
393	1078	2551
394	1227	1531
395	922	1306
396	1025	2819
397	90	1251
398	248	1981
399	564	1472
400	404	1191
401	0	1452
402	1031	2036
403	581	1929
404	1246	1633
405	666	2370
406	614	1384
407	1556	2074
408	886	2411
409	0	1664
410	1718	3000
411	915	1214
412	330	1424
413	469	1445
414	897	2633
415	801	2598
416	0	1249
417	606	1219
418	1057	2033
419	1315	2394
420	1543	1964
421	1297	2390
422	0	1518
423	669	1046
424	670	1402
425	890	1646
426	634	2098
427	493	1096
428	1084	2042
429	653	1450
430	1728	3000
431	623	2295
432	1345	2432
433	437	928
434	33	1123
435	177	2165
436	1257	2779
437	670	2009
438	736	1761
439	173	1963
440	550	2297
441	1108	2276
442	878	1163
443	1087	2037
444	885	1197
445	0	1301
446	741	2168
447	1064	1476
448	1121	1902
449	494	1158
450	272	2268
451	1125	1550
452	0	1851
453	1494	2206
454	1099	2828
455	1729	2628
456	406	821
457	1717	2213
458	532	873
459	1077	1638
460	890	2802
461	1319	2563
462	1103	2987
463	903	2355
464	1781	2520
465	1458	3000
466	848	1781
467	1638	2717
468	754	1304
469	950	1304
470	1636	2619
471	1475	1976
472	304	1869
473	641	2129
474	458	1412
475	1707	2626
476	1483	2030
477	920	1369
478	808	1995
479	666	1470
480	263	944
481	912	1448
482	728	1890
483	7	1616
484	763	1255
485	316	1903
486	0	1436
487	305	650
488	0	1882
489	213	679
490	1552	2857
491	67	1920
492	613	1396
493	519	1982
494	807	2715
495	0	1185
496	765	2262
497	257	1700
498	479	1767
499	572	2386
500	873	1430
501	328	2209
502	1137	2117
503	1903	2302
504	59	2049
505	1134	1666
506	287	2175
507	19	1537
508	0	1215
509	1050	1525
510	977	1577
511	295	1671
512	982	1517
513	1556	1988
514	1934	2371
515	1345	1618
516	940	1965
517	0	1161
518	225	1949
519	874	1800
520	0	1675
521	434	1149
522	435	1987
523	1205	2797
524	504	1338
525	479	1637
526	1380	2366
527	1021	1784
528	1361	1734
529	1281	2267
530	0	1907
531	1412	2024
532	1374	3000
533	380	1887
534	490	1365
535	509	1434
536	808	1651
537	584	1698
538	1925	2380
539	622	1187
540	1404	2291
541	226	1968
542	1290	3000
543	0	1376
544	0	1855
545	438	1651
546	296	1625
547	274	2253
548	824	1225
549	1417	1892
550	1879	2080
551	1115	3000
552	791	1905
553	1043	2326
554	401	1983
555	575	2070
556	911	1532
557	0	1360
558	0	1042
559	309	2168
560	929	1148
561	925	2269
562	430	2166
563	1418	1808
564	1681	2259
565	963	1267
566	1246	2354
567	178	1174
568	1278	1749
569	1595	2224
570	1564	2713
571	1443	3000
572	938	2010
573	629	1863
574	165	773
575	0	1944
576	1554	2358
577	589	2101
578	1103	2961
579	67	1436
580	1367	2584
581	410	1745
582	1763	2355
583	2019	2335
584	805	2297
585	503	2077
586	0	1913
587	1588	1810
588	159	2151
589	1191	2673
590	76	2016
591	326	2317
592	68	2019
593	791	1083
594	867	1086
595	150	944
596	956	1302
597	1920	2666
598	460	1232
599	1675	2715
600	1369	1908
601	1107	2145
602	1345	2442
603	1321	1632
604	1001	1381
605	1371	3000
606	1108	1845
607	836	1494
608	102	1244
609	0	1066
610	142	1763
611	1023	1390
612	1375	2996
613	1379	1646
614	929	2468
615	504	2437
616	1190	1672
617	1532	2119
618	1478	2578
619	793	1299
620	1162	1644
621	1561	1802
622	0	738
623	1127	2845
624	32	1941
625	917	2181
626	695	2643
627	408	1451
628	945	1829
629	783	1037
630	535	1051
631	1119	2949
632	193	1288
633	1322	1829
634	931	1687
635	913	1163
636	103	1025
637	2006	2550
638	290	1688
639	15	1663
640	1371	2787
641	1697	3000
642	813	2109
643	1617	2039
644	1418	2101
645	555	1261
646	0	1338
647	1281	2261
648	146	1549
649	734	1545
650	1162	1600
651	933	1516
652	1384	2140
653	1340	2039
654	452	2249
655	163	1565
656	0	1421
657	1160	2212
658	1208	2997
659	226	1710
660	1177	2618
661	1344	1697
662	359	1142
663	332	1247
664	99	1607
665	2065	2346
666	1617	2754
667	439	871
668	896	1372
669	670	2663
670	211	1201
671	1162	2241
672	175	1912
673	0	1775
674	1681	2435
675	531	2228
676	1692	2973
677	1050	1637
678	251	1617
679	839	1308
680	1224	2217
681	1351	1751
682	1305	2152
683	208	1796
684	245	1650
685	977	2225
686	779	1573
687	891	1452
688	0	1556
689	1346	2300
690	897	1859
691	621	1652
692	1697	2299
693	963	1366
694	1783	2489
695	1370	3000
696	1148	1374
697	199	941
698	913	2181
699	509	2087
700	302	617
701	974	1811
702	1124	2081
703	0	1265
704	1904	3000
705	1040	2812
706	510	1781
707	607	1301
708	1170	2416
709	1102	2355
710	534	1771
711	312	1403
712	268	784
713	1547	2565
714	1218	2250
715	1496	2168
716	1392	2443
717	1417	2415
718	0	1653
719	0	1659
720	308	2061
721	784	2123
722	1373	2968
723	1177	1466
724	734	2062
725	0	1369
726	751	1787
727	1097	2729
728	502	1168
729	649	1589
730	522	1930
731	1428	3000
732	0	1428
733	1139	2280
734	1925	2154
735	1496	1919
736	991	1224
737	421	1897
738	1002	1337
739	889	2632
740	502	1679
741	1210	2589
742	1482	3000
743	1240	2444
744	728	2160
745	279	2233
746	739	1888
747	651	1127
748	1238	3000
749	1170	1894
750	1799	3000
751	542	1518
752	634	1857
753	834	1721
754	491	815
755	1316	2374
756	1198	2673
757	1048	2102
758	620	1614
759	1215	1917
760	719	2312
761	1335	1674
762	737	2510
763	1267	1607
764	2259	2837
765	1613	1927
766	1013	2900
767	636	1385
768	0	1000
769	630	1380
770	209	1251
771	828	2554
772	1396	1680
773	241	1498
774	445	1749
775	1770	2574
776	528	2132
777	1484	2064
778	1268	2122
779	985	1584
780	423	1859
781	1067	1570
782	803	2743
783	766	2644
784	848	2084
785	418	2381
786	2248	2716
787	1125	1988
788	0	1475
789	505	1225
790	217	1137
791	863	1952
792	1488	2096
793	1551	3000
794	0	1666
795	1253	1553
796	1974	2530
797	524	1847
798	387	1444
799	595	2009
800	92	2058
801	530	1850
802	462	1090
803	513	2392
804	791	2150
805	1147	2232
806	604	2084
807	0	1977
808	1268	2428
809	0	1823
810	611	1621
811	790	1854
812	255	1978
813	1095	1674
814	476	1704
815	937	2271
816	1327	1992
817	0	1832
818	25	1293
819	936	2680
820	1622	2215
821	1601	2486
822	1876	2772
823	756	1347
824	508	2371
825	1342	2708
826	103	1547
827	894	2590
828	823	2127
829	1094	2376
830	568	1358
831	0	1529
832	873	1929
833	1613	1960
834	1183	1844
835	78	1394
836	1028	2047
837	1597	2542
838	849	2782
839	935	2752
840	1259	2199
841	484	2044
842	582	2054
843	1415	1767
844	990	2389
845	944	2155
846	0	1728
847	861	1721
848	1151	2903
849	725	1027
850	1303	2626
851	1300	1765
852	1508	2483
853	912	1183
854	785	1594
855	908	1508
856	1706	2902
857	1429	2142
858	995	2788
859	747	1770
860	1149	2436
861	312	813
862	1477	2903
863	449	2321
864	1417	2171
865	1435	2107
866	86	1103
867	1592	2343
868	787	993
869	1102	2111
870	153	1544
871	1021	1322
872	2029	2782
873	907	2843
874	965	2081
875	213	1618
876	710	1301
877	1157	1514
878	836	2472
879	1357	1923
880	1212	1959
881	1080	1823
882	964	2960
883	1413	2714
884	942	2907
885	1168	1411
886	1063	2131
887	982	2460
888	0	1217
889	731	1097
890	460	1281
891	347	1102
892	0	1697
893	637	1996
894	0	1232
895	215	1853
896	0	1696
897	378	1873
898	956	2551
899	578	2005
900	1086	2674
901	1291	2507
902	0	1465
903	1377	2340
904	0	1636
905	1220	1628
906	1335	2985
907	0	1664
908	705	1372
909	723	1217
910	1728	2671
911	734	1678
912	1209	1600
913	1451	2234
914	416	2379
915	353	1908
916	619	2352
917	1503	2538
918	1227	2199
919	253	2016
920	0	1474
921	1761	2506
922	1294	2843
923	960	1231
924	1547	2367
925	1355	2526
926	1285	2249
927	1151	2752
928	1887	2275
929	259	1218
930	1217	2279
931	0	1493
932	1484	1744
933	938	2576
934	847	1810
935	1056	2453
936	2037	2240
937	829	2613
938	584	1022
939	1654	1931
940	830	2768
941	158	1878
942	213	1210
943	322	912
944	934	1342
945	1328	2615
946	1254	2228
947	914	2280
948	1057	1330
949	734	2675
950	555	1020
951	438	1738
952	0	1574
953	379	1805
954	1491	3000
955	987	2939
956	582	1784
957	847	1427
958	1226	1740
959	288	1954
960	1474	1875
961	494	1090
962	264	2104
963	1101	1907
964	868	1453
965	838	1822
966	483	1914
967	137	1840
968	1407	2422
969	1298	2694
970	442	1590
971	917	1966
972	1341	2670
973	1781	3000
974	1578	2111
975	1239	2726
976	894	2248
977	100	875
978	563	2270
979	1346	2309
980	0	871
981	1121	2567
982	270	2160
983	1578	2252
984	12	1649
985	1710	1964
986	344	1240
987	1808	2641
988	944	1822
989	611	2542
990	1375	3000
991	0	1545
992	346	1361
993	1362	1956
994	1226	2942
995	501	1522
996	465	1972
997	1784	2016
998	400	2078
999	589	2536
1000	987	2898
1001	402	1570
BACKHAUL_SECTION
7	9	11	17	26	28	29	30	32	35	42	48	51	58	59	61	67	70	72	74	76	81	82	105	107	110	113	114	119	128	130	131	138	141	145	154	160	166	169	175	184	185	186	189	192	196	197	198	199	208	209	219	221	223	230	232	233	235	243	245	247	249	254	263	269	271	272	273	275	290	292	293	294	296	305	310	313	317	322	330	333	348	354	360	364	378	384	392	399	401	405	411	420	424	426	430	433	436	440	448	449	465	466	467	473	477	478	484	487	492	498	499	502	508	512	535	539	550	551	555	559	566	574	590	592	594	602	604	620	622	626	641	643	654	662	666	680	688	698	707	714	718	719	728	736	745	746	748	753	755	759	760	764	765	775	782	785	791	802	804	807	821	822	824	834	835	839	842	844	846	847	849	854	858	860	862	863	865	866	867	869	890	906	921	930	937	938	945	950	954	957	959	974	975	976	977	978	979	996	999	-1
DEPOT_SECTION
1
-1
EOF
