NAME : n1001-0010
COMMENT : "Generated by pyvrp_manuel (OVRPBTW)"
TYPE : OVRPBTW
DIMENSION : 1001
EDGE_WEIGHT_TYPE : EUC_2D
CAPACITY : 150
VEHICLES : 1000
OPEN_ROUTE : YES
SERVICE_TIME : 200
NODE_COORD_SECTION
1	168	110
2	120	611
3	651	926
4	576	836
5	816	634
6	132	108
7	625	340
8	278	128
9	827	497
10	472	750
11	352	729
12	370	190
13	965	255
14	591	627
15	178	511
16	531	597
17	876	246
18	382	890
19	64	143
20	805	773
21	225	516
22	695	583
23	197	876
24	603	874
25	555	943
26	166	741
27	979	452
28	249	633
29	387	484
30	64	39
31	938	356
32	994	998
33	52	898
34	607	300
35	490	928
36	541	1
37	922	28
38	660	941
39	773	365
40	696	601
41	741	687
42	781	65
43	370	960
44	997	382
45	953	875
46	90	149
47	469	332
48	151	891
49	721	998
50	351	9
51	862	923
52	188	193
53	158	829
54	797	292
55	806	458
56	515	490
57	604	650
58	566	550
59	693	544
60	63	914
61	154	293
62	509	315
63	446	546
64	803	342
65	321	453
66	543	527
67	302	806
68	353	960
69	959	941
70	699	123
71	349	937
72	608	852
73	978	399
74	612	123
75	874	399
76	535	348
77	112	619
78	815	222
79	998	246
80	185	682
81	44	614
82	771	243
83	789	629
84	149	94
85	623	838
86	469	348
87	361	713
88	532	530
89	817	448
90	884	555
91	530	271
92	11	569
93	44	505
94	786	814
95	942	932
96	329	174
97	369	346
98	938	558
99	788	921
100	190	196
101	864	895
102	114	458
103	220	21
104	350	720
105	378	419
106	207	198
107	945	255
108	886	717
109	462	794
110	310	10
111	106	226
112	233	220
113	439	509
114	949	941
115	989	707
116	127	857
117	409	471
118	449	560
119	967	707
120	792	165
121	925	309
122	418	667
123	375	824
124	797	524
125	496	81
126	514	855
127	303	5
128	725	444
129	665	431
130	126	910
131	376	392
132	872	701
133	258	896
134	293	266
135	423	436
136	321	812
137	771	128
138	574	240
139	791	171
140	544	478
141	452	577
142	474	353
143	192	922
144	999	469
145	325	458
146	880	891
147	310	538
148	822	272
149	644	644
150	931	279
151	455	622
152	262	384
153	131	213
154	939	449
155	303	577
156	860	111
157	697	688
158	790	567
159	532	950
160	346	739
161	887	114
162	349	356
163	258	824
164	835	124
165	561	641
166	671	162
167	417	599
168	517	639
169	827	86
170	396	960
171	602	354
172	78	394
173	586	365
174	621	342
175	584	376
176	475	22
177	577	842
178	632	411
179	84	827
180	163	325
181	952	937
182	76	122
183	553	82
184	657	353
185	871	959
186	1	624
187	638	854
188	428	9
189	66	775
190	392	534
191	575	224
192	133	884
193	325	732
194	743	782
195	968	367
196	432	251
197	781	70
198	613	330
199	744	853
200	369	190
201	209	886
202	250	765
203	843	76
204	569	956
205	621	722
206	385	225
207	599	416
208	598	598
209	502	152
210	713	573
211	307	919
212	275	367
213	542	289
214	977	109
215	141	969
216	388	833
217	222	292
218	484	450
219	606	438
220	615	279
221	684	385
222	161	96
223	744	15
224	872	938
225	189	161
226	301	389
227	660	899
228	656	895
229	295	444
230	793	737
231	336	73
232	942	7
233	584	357
234	603	396
235	186	694
236	551	454
237	837	81
238	989	857
239	166	705
240	121	127
241	903	771
242	769	382
243	140	844
244	288	757
245	766	523
246	299	393
247	305	630
248	571	284
249	192	372
250	543	357
251	640	10
252	434	649
253	211	579
254	558	26
255	251	440
256	393	825
257	384	408
258	134	92
259	682	388
260	910	87
261	391	484
262	631	856
263	261	846
264	844	494
265	10	49
266	453	582
267	460	628
268	922	135
269	877	308
270	89	657
271	434	264
272	229	879
273	645	736
274	133	493
275	619	492
276	142	898
277	23	530
278	285	417
279	603	479
280	546	330
281	391	427
282	764	623
283	687	111
284	734	624
285	18	11
286	436	435
287	207	179
288	165	680
289	285	366
290	494	125
291	167	537
292	460	683
293	313	184
294	472	38
295	903	580
296	484	947
297	586	243
298	813	313
299	961	303
300	26	187
301	711	937
302	336	960
303	868	482
304	625	856
305	968	14
306	867	92
307	865	304
308	618	476
309	725	124
310	941	374
311	886	27
312	887	918
313	874	742
314	782	441
315	671	233
316	590	719
317	483	495
318	749	962
319	360	464
320	985	681
321	759	302
322	35	883
323	179	609
324	80	445
325	84	888
326	217	497
327	889	792
328	761	641
329	826	188
330	596	970
331	651	775
332	41	402
333	268	218
334	76	947
335	892	908
336	628	964
337	26	303
338	890	489
339	845	603
340	327	822
341	995	509
342	977	212
343	160	812
344	525	783
345	987	279
346	679	782
347	283	600
348	322	202
349	600	8
350	311	626
351	890	115
352	208	422
353	678	437
354	129	203
355	584	674
356	372	975
357	269	665
358	403	383
359	941	670
360	270	177
361	225	469
362	329	399
363	356	220
364	409	321
365	688	4
366	213	525
367	379	501
368	188	363
369	73	234
370	341	613
371	475	139
372	598	737
373	953	563
374	973	603
375	13	842
376	201	235
377	187	802
378	866	199
379	445	779
380	429	811
381	607	744
382	879	625
383	649	103
384	310	298
385	72	163
386	693	345
387	570	612
388	488	929
389	27	665
390	577	942
391	580	625
392	432	243
393	134	742
394	750	388
395	244	570
396	782	870
397	633	223
398	375	182
399	914	911
400	692	295
401	734	320
402	427	824
403	816	950
404	89	312
405	512	614
406	746	16
407	402	817
408	33	831
409	267	165
410	753	966
411	194	867
412	755	954
413	196	694
414	684	261
415	871	135
416	923	879
417	505	378
418	374	277
419	201	377
420	387	817
421	181	911
422	740	454
423	264	581
424	974	584
425	416	389
426	210	340
427	957	280
428	894	478
429	344	955
430	119	951
431	677	22
432	991	782
433	417	45
434	173	131
435	846	868
436	696	138
437	368	45
438	559	735
439	330	274
440	448	215
441	43	95
442	25	195
443	508	645
444	238	153
445	39	837
446	535	200
447	827	776
448	530	307
449	522	791
450	649	980
451	0	38
452	100	820
453	775	23
454	271	163
455	437	927
456	748	521
457	338	443
458	399	231
459	914	528
460	230	473
461	772	661
462	877	677
463	179	155
464	785	497
465	245	613
466	448	622
467	832	88
468	438	413
469	442	970
470	589	580
471	825	959
472	129	339
473	810	147
474	996	720
475	19	773
476	31	575
477	624	755
478	180	329
479	866	128
480	434	864
481	508	709
482	510	855
483	691	674
484	517	134
485	810	234
486	973	749
487	510	307
488	265	956
489	513	438
490	63	524
491	447	81
492	511	562
493	481	577
494	279	924
495	312	891
496	9	987
497	116	353
498	126	521
499	796	344
500	284	317
501	827	211
502	452	759
503	571	15
504	852	937
505	80	207
506	246	243
507	975	391
508	429	177
509	764	530
510	166	182
511	443	187
512	108	867
513	66	176
514	648	398
515	118	196
516	107	744
517	411	903
518	350	915
519	489	604
520	284	445
521	652	579
522	157	167
523	827	677
524	927	1
525	522	166
526	729	879
527	558	996
528	226	192
529	267	315
530	181	930
531	948	660
532	522	317
533	580	508
534	29	136
535	584	621
536	539	526
537	346	723
538	742	788
539	508	381
540	755	881
541	992	108
542	225	685
543	300	680
544	12	338
545	466	969
546	95	692
547	347	276
548	12	320
549	721	151
550	988	302
551	320	622
552	540	759
553	900	545
554	253	349
555	639	800
556	5	645
557	746	672
558	782	632
559	279	346
560	613	29
561	156	884
562	358	213
563	776	454
564	56	830
565	308	385
566	275	415
567	373	481
568	332	10
569	794	717
570	682	245
571	205	472
572	948	509
573	659	717
574	522	968
575	448	736
576	576	813
577	55	811
578	677	607
579	244	405
580	266	570
581	870	893
582	327	840
583	737	500
584	943	275
585	780	609
586	27	903
587	641	349
588	875	301
589	675	459
590	688	140
591	194	98
592	320	111
593	379	790
594	793	599
595	652	565
596	987	990
597	842	587
598	820	957
599	845	501
600	924	456
601	217	127
602	629	664
603	471	64
604	799	324
605	769	859
606	974	992
607	519	307
608	241	464
609	293	998
610	438	420
611	357	881
612	651	706
613	516	18
614	476	218
615	797	591
616	805	657
617	642	832
618	54	211
619	620	842
620	672	696
621	439	727
622	896	399
623	982	770
624	670	621
625	996	217
626	364	886
627	536	288
628	514	827
629	231	619
630	225	151
631	55	542
632	494	125
633	464	847
634	90	372
635	620	236
636	722	526
637	308	257
638	536	350
639	546	471
640	431	204
641	516	260
642	302	335
643	294	746
644	223	582
645	395	43
646	151	928
647	1000	166
648	66	917
649	807	692
650	799	246
651	980	994
652	39	673
653	638	869
654	886	107
655	370	566
656	935	367
657	949	163
658	319	727
659	65	529
660	887	749
661	561	202
662	568	635
663	320	734
664	604	605
665	485	429
666	631	187
667	631	48
668	267	528
669	380	416
670	837	52
671	159	525
672	291	858
673	159	14
674	612	312
675	59	49
676	490	964
677	101	78
678	156	306
679	312	433
680	280	452
681	275	459
682	500	369
683	479	429
684	430	846
685	906	4
686	950	862
687	168	662
688	935	95
689	362	507
690	829	92
691	640	131
692	150	123
693	63	40
694	188	554
695	505	111
696	432	883
697	952	82
698	273	752
699	206	918
700	918	160
701	634	188
702	614	99
703	198	893
704	853	428
705	473	341
706	450	681
707	119	796
708	765	178
709	646	395
710	739	260
711	154	937
712	377	58
713	689	980
714	375	74
715	348	435
716	404	430
717	456	6
718	640	883
719	398	910
720	610	921
721	309	654
722	360	480
723	743	647
724	347	413
725	375	842
726	275	443
727	627	991
728	506	761
729	878	78
730	394	949
731	596	977
732	423	66
733	472	135
734	747	54
735	421	186
736	760	165
737	168	190
738	708	335
739	420	9
740	277	53
741	455	612
742	178	721
743	54	755
744	675	903
745	789	490
746	560	222
747	377	74
748	544	498
749	213	487
750	2	842
751	35	1000
752	873	632
753	642	827
754	596	112
755	198	658
756	775	285
757	814	521
758	251	846
759	730	798
760	385	480
761	342	743
762	629	66
763	294	626
764	858	562
765	499	25
766	420	68
767	88	960
768	181	863
769	491	346
770	158	794
771	7	118
772	43	467
773	317	630
774	719	917
775	707	837
776	413	34
777	137	170
778	376	46
779	355	759
780	45	51
781	522	799
782	49	220
783	232	520
784	765	313
785	950	264
786	792	758
787	597	192
788	275	217
789	542	870
790	958	647
791	105	807
792	17	90
793	410	578
794	788	502
795	948	944
796	69	12
797	280	642
798	424	673
799	905	509
800	992	63
801	91	80
802	424	680
803	381	558
804	841	79
805	450	891
806	1	624
807	501	175
808	765	655
809	64	259
810	228	97
811	102	991
812	851	23
813	800	696
814	217	592
815	275	265
816	575	853
817	877	897
818	701	385
819	794	762
820	60	692
821	819	656
822	388	751
823	228	86
824	55	626
825	604	626
826	138	555
827	882	141
828	237	767
829	748	783
830	447	526
831	227	2
832	535	119
833	723	650
834	187	33
835	854	736
836	699	125
837	765	693
838	444	607
839	666	1
840	253	496
841	762	604
842	234	938
843	166	25
844	610	505
845	437	930
846	641	915
847	826	260
848	892	205
849	782	141
850	592	383
851	921	563
852	633	179
853	555	303
854	438	196
855	194	907
856	778	878
857	856	200
858	858	216
859	7	976
860	203	681
861	752	40
862	27	338
863	274	504
864	3	495
865	712	578
866	42	728
867	155	588
868	339	12
869	864	885
870	476	804
871	528	407
872	69	560
873	309	24
874	167	794
875	918	60
876	601	270
877	302	57
878	75	455
879	206	470
880	100	331
881	744	664
882	691	485
883	187	334
884	389	145
885	608	149
886	968	445
887	169	959
888	55	554
889	958	143
890	317	130
891	909	965
892	640	133
893	286	57
894	985	907
895	485	199
896	716	985
897	726	792
898	887	229
899	138	713
900	761	465
901	524	891
902	122	826
903	69	857
904	97	755
905	172	461
906	242	113
907	540	459
908	487	182
909	530	664
910	269	427
911	836	980
912	152	83
913	441	819
914	699	57
915	575	914
916	110	447
917	629	586
918	106	940
919	406	663
920	229	798
921	697	606
922	86	705
923	647	856
924	411	934
925	110	330
926	18	217
927	444	215
928	115	852
929	730	415
930	166	771
931	530	405
932	610	460
933	91	890
934	46	822
935	938	781
936	960	152
937	56	990
938	774	667
939	106	801
940	799	757
941	180	562
942	836	541
943	860	882
944	454	221
945	724	958
946	259	156
947	177	444
948	390	891
949	446	393
950	361	999
951	687	311
952	442	667
953	720	415
954	345	136
955	981	693
956	275	394
957	320	721
958	36	971
959	826	827
960	720	785
961	420	446
962	321	817
963	277	729
964	315	525
965	677	921
966	708	305
967	600	248
968	31	762
969	128	175
970	81	142
971	915	861
972	616	198
973	361	408
974	792	731
975	227	613
976	778	913
977	706	914
978	573	337
979	48	54
980	915	959
981	31	196
982	780	186
983	585	549
984	698	100
985	428	815
986	79	998
987	596	410
988	787	471
989	971	943
990	236	476
991	71	80
992	525	929
993	508	70
994	323	212
995	872	744
996	105	900
997	218	371
998	508	19
999	826	597
1000	579	314
1001	604	333
DEMAND_SECTION
1	0
2	5
3	9
4	5
5	9
6	8
7	7
8	6
9	3
10	8
11	7
12	4
13	7
14	5
15	6
16	9
17	1
18	6
19	9
20	2
21	2
22	1
23	9
24	8
25	2
26	9
27	4
28	2
29	9
30	6
31	6
32	8
33	7
34	2
35	5
36	3
37	8
38	4
39	2
40	4
41	5
42	5
43	8
44	4
45	1
46	4
47	8
48	9
49	8
50	1
51	9
52	3
53	1
54	2
55	4
56	6
57	6
58	9
59	1
60	3
61	2
62	5
63	5
64	6
65	7
66	3
67	9
68	8
69	9
70	5
71	7
72	1
73	5
74	5
75	4
76	3
77	9
78	7
79	4
80	3
81	2
82	5
83	6
84	8
85	9
86	3
87	5
88	8
89	5
90	4
91	6
92	5
93	5
94	7
95	8
96	6
97	9
98	1
99	8
100	4
101	7
102	2
103	9
104	2
105	1
106	1
107	9
108	4
109	6
110	8
111	6
112	6
113	3
114	3
115	4
116	1
117	5
118	8
119	8
120	1
121	4
122	2
123	5
124	1
125	3
126	4
127	6
128	6
129	2
130	4
131	1
132	8
133	9
134	4
135	3
136	4
137	3
138	1
139	8
140	7
141	1
142	6
143	9
144	5
145	3
146	8
147	6
148	1
149	6
150	2
151	7
152	9
153	5
154	2
155	8
156	5
157	4
158	2
159	5
160	7
161	5
162	8
163	5
164	5
165	1
166	9
167	9
168	9
169	7
170	6
171	5
172	7
173	9
174	5
175	5
176	3
177	9
178	4
179	5
180	2
181	4
182	8
183	6
184	2
185	6
186	9
187	9
188	4
189	8
190	4
191	4
192	7
193	6
194	7
195	6
196	1
197	4
198	1
199	6
200	9
201	3
202	2
203	6
204	4
205	5
206	7
207	2
208	9
209	5
210	7
211	9
212	6
213	6
214	2
215	1
216	3
217	5
218	6
219	9
220	7
221	1
222	9
223	7
224	9
225	9
226	3
227	8
228	4
229	4
230	7
231	1
232	3
233	2
234	8
235	6
236	5
237	4
238	6
239	2
240	4
241	8
242	2
243	3
244	5
245	3
246	2
247	8
248	7
249	2
250	1
251	1
252	7
253	6
254	4
255	7
256	8
257	6
258	9
259	5
260	4
261	3
262	3
263	1
264	4
265	3
266	8
267	6
268	9
269	9
270	2
271	8
272	7
273	8
274	5
275	7
276	1
277	8
278	5
279	1
280	8
281	2
282	6
283	9
284	4
285	7
286	1
287	8
288	2
289	5
290	7
291	7
292	3
293	9
294	1
295	5
296	2
297	7
298	7
299	5
300	9
301	5
302	6
303	2
304	1
305	2
306	6
307	8
308	7
309	9
310	7
311	7
312	5
313	4
314	2
315	8
316	8
317	3
318	9
319	1
320	2
321	6
322	7
323	8
324	8
325	7
326	9
327	5
328	2
329	2
330	6
331	3
332	3
333	5
334	2
335	2
336	4
337	4
338	6
339	5
340	2
341	7
342	5
343	1
344	6
345	1
346	1
347	3
348	7
349	1
350	8
351	6
352	1
353	5
354	9
355	8
356	7
357	5
358	4
359	7
360	2
361	2
362	7
363	3
364	2
365	6
366	5
367	3
368	3
369	3
370	6
371	3
372	6
373	8
374	2
375	6
376	1
377	3
378	9
379	1
380	9
381	9
382	7
383	8
384	5
385	5
386	3
387	8
388	1
389	4
390	6
391	5
392	5
393	5
394	4
395	3
396	7
397	2
398	4
399	8
400	2
401	1
402	8
403	9
404	1
405	5
406	1
407	8
408	9
409	5
410	9
411	3
412	4
413	1
414	7
415	8
416	9
417	8
418	5
419	7
420	1
421	2
422	8
423	5
424	7
425	3
426	6
427	4
428	2
429	7
430	7
431	7
432	5
433	9
434	3
435	8
436	9
437	1
438	3
439	9
440	7
441	1
442	7
443	3
444	4
445	6
446	7
447	1
448	6
449	5
450	5
451	4
452	2
453	3
454	1
455	8
456	9
457	4
458	9
459	4
460	7
461	2
462	3
463	4
464	3
465	1
466	5
467	4
468	5
469	2
470	9
471	5
472	5
473	3
474	8
475	8
476	8
477	1
478	8
479	6
480	1
481	6
482	2
483	4
484	8
485	5
486	1
487	6
488	9
489	1
490	9
491	4
492	7
493	7
494	5
495	3
496	3
497	7
498	4
499	3
500	9
501	9
502	4
503	4
504	1
505	1
506	4
507	8
508	1
509	2
510	6
511	3
512	1
513	6
514	5
515	9
516	9
517	4
518	5
519	7
520	2
521	3
522	7
523	8
524	8
525	7
526	8
527	9
528	5
529	6
530	7
531	7
532	2
533	6
534	8
535	9
536	4
537	9
538	3
539	8
540	3
541	3
542	1
543	7
544	1
545	7
546	7
547	4
548	7
549	5
550	1
551	4
552	2
553	7
554	9
555	1
556	5
557	7
558	1
559	1
560	7
561	1
562	2
563	4
564	8
565	8
566	2
567	4
568	9
569	7
570	7
571	6
572	4
573	2
574	5
575	8
576	3
577	6
578	7
579	6
580	6
581	2
582	5
583	4
584	3
585	5
586	2
587	7
588	2
589	6
590	7
591	4
592	6
593	5
594	7
595	7
596	3
597	1
598	5
599	2
600	3
601	8
602	9
603	1
604	3
605	6
606	1
607	5
608	8
609	5
610	7
611	2
612	9
613	7
614	2
615	7
616	2
617	9
618	5
619	9
620	3
621	6
622	9
623	8
624	1
625	4
626	2
627	6
628	4
629	8
630	3
631	7
632	7
633	2
634	2
635	8
636	4
637	2
638	9
639	6
640	3
641	8
642	2
643	7
644	6
645	8
646	3
647	7
648	3
649	1
650	2
651	9
652	2
653	2
654	3
655	1
656	1
657	4
658	4
659	8
660	4
661	6
662	5
663	3
664	4
665	3
666	1
667	9
668	3
669	1
670	5
671	2
672	1
673	7
674	7
675	1
676	7
677	9
678	9
679	6
680	4
681	6
682	8
683	7
684	6
685	1
686	6
687	1
688	7
689	8
690	6
691	5
692	3
693	5
694	6
695	6
696	6
697	4
698	5
699	8
700	9
701	3
702	8
703	5
704	3
705	3
706	1
707	4
708	4
709	5
710	4
711	9
712	8
713	4
714	5
715	2
716	5
717	1
718	9
719	2
720	3
721	2
722	1
723	8
724	3
725	6
726	9
727	7
728	5
729	1
730	3
731	5
732	3
733	3
734	7
735	6
736	1
737	8
738	6
739	9
740	1
741	9
742	1
743	6
744	6
745	1
746	4
747	9
748	9
749	6
750	2
751	8
752	8
753	8
754	4
755	8
756	4
757	2
758	7
759	9
760	7
761	1
762	4
763	7
764	7
765	9
766	1
767	1
768	5
769	9
770	4
771	3
772	8
773	6
774	2
775	1
776	7
777	5
778	3
779	5
780	2
781	7
782	8
783	5
784	3
785	6
786	7
787	4
788	1
789	6
790	3
791	7
792	1
793	8
794	4
795	8
796	8
797	4
798	6
799	9
800	9
801	1
802	2
803	4
804	8
805	1
806	5
807	1
808	3
809	1
810	8
811	5
812	2
813	2
814	4
815	4
816	4
817	3
818	9
819	2
820	7
821	9
822	1
823	1
824	7
825	6
826	6
827	2
828	8
829	5
830	8
831	5
832	5
833	7
834	9
835	4
836	1
837	9
838	2
839	6
840	4
841	4
842	5
843	3
844	9
845	6
846	5
847	8
848	6
849	3
850	2
851	7
852	1
853	1
854	3
855	3
856	1
857	4
858	8
859	8
860	2
861	1
862	4
863	3
864	1
865	8
866	8
867	1
868	5
869	9
870	4
871	1
872	6
873	1
874	3
875	6
876	3
877	5
878	6
879	1
880	3
881	5
882	6
883	7
884	4
885	7
886	7
887	3
888	9
889	7
890	7
891	2
892	5
893	7
894	4
895	9
896	2
897	5
898	3
899	4
900	3
901	1
902	7
903	4
904	9
905	4
906	8
907	6
908	3
909	8
910	1
911	7
912	6
913	5
914	5
915	9
916	6
917	2
918	6
919	6
920	6
921	6
922	5
923	1
924	4
925	1
926	2
927	3
928	9
929	3
930	5
931	7
932	7
933	3
934	6
935	7
936	3
937	9
938	1
939	9
940	8
941	9
942	6
943	1
944	3
945	1
946	8
947	9
948	4
949	2
950	2
951	5
952	7
953	5
954	1
955	8
956	5
957	5
958	4
959	7
960	3
961	5
962	6
963	6
964	9
965	8
966	6
967	1
968	2
969	8
970	7
971	3
972	3
973	5
974	8
975	9
976	8
977	2
978	7
979	6
980	5
981	8
982	5
983	8
984	8
985	9
986	9
987	1
988	2
989	3
990	3
991	3
992	1
993	5
994	1
995	2
996	8
997	5
998	6
999	8
1000	7
1001	9
TIME_WINDOW_SECTION
1	0	3000
2	1828	2366
3	899	1642
4	1081	2552
5	1083	1437
6	471	870
7	725	1205
8	148	1149
9	852	2134
10	1087	2509
11	1529	2301
12	1955	2928
13	258	1914
14	598	1178
15	1101	2695
16	1615	2165
17	1177	2232
18	548	1242
19	2179	2669
20	682	1490
21	0	1303
22	725	2562
23	767	2253
24	714	2510
25	1079	1674
26	1084	2481
27	274	2098
28	451	1350
29	740	1018
30	2326	2802
31	664	1333
32	461	2331
33	648	2075
34	390	1452
35	1164	1805
36	418	2340
37	314	1764
38	844	2662
39	438	2403
40	985	2526
41	1317	1973
42	624	1588
43	176	2057
44	23	1844
45	440	1834
46	1743	3000
47	1314	1687
48	584	2443
49	410	1909
50	266	552
51	791	2162
52	336	2039
53	869	2132
54	1015	1491
55	468	1227
56	1611	2834
57	998	2140
58	1381	1685
59	859	2858
60	294	2149
61	1255	2818
62	571	2057
63	432	1225
64	103	1473
65	649	1005
66	1661	2599
67	901	2641
68	908	1453
69	1053	1342
70	33	1397
71	147	1666
72	823	1927
73	311	1793
74	393	781
75	662	2281
76	536	1658
77	0	1839
78	1178	2194
79	956	1405
80	632	2501
81	919	1558
82	586	2394
83	1284	2567
84	1148	2067
85	1207	1699
86	347	1365
87	11	1749
88	1206	1848
89	0	1591
90	801	1140
91	103	1463
92	1551	2567
93	0	1875
94	1085	1605
95	1157	1806
96	0	1175
97	157	677
98	1636	2101
99	683	1924
100	0	340
101	756	2415
102	1347	3000
103	0	935
104	921	1715
105	105	1267
106	50	715
107	468	2086
108	981	2708
109	1156	2603
110	0	1317
111	0	1217
112	645	2041
113	862	2343
114	830	2408
115	1163	2104
116	555	1174
117	1089	2495
118	733	1027
119	572	2448
120	1412	2083
121	933	1421
122	1065	2363
123	427	1634
124	1751	2261
125	1637	2537
126	512	1150
127	297	1412
128	437	1376
129	1484	1937
130	0	1972
131	591	2081
132	1670	1870
133	1032	1469
134	952	2219
135	1726	2354
136	1167	1784
137	1551	1916
138	1583	2314
139	1160	2564
140	0	1250
141	817	1442
142	1634	2582
143	477	2194
144	1506	2257
145	201	859
146	749	2245
147	724	1720
148	254	1935
149	1374	2367
150	199	1610
151	1432	2412
152	0	1527
153	36	1116
154	1010	2353
155	588	1652
156	532	1347
157	898	2548
158	696	1644
159	1133	2434
160	1006	1413
161	1687	2077
162	1565	3000
163	709	2465
164	669	1849
165	1578	1882
166	463	740
167	1445	2710
168	304	1714
169	1331	2452
170	1426	1977
171	687	2596
172	1550	2398
173	1485	2079
174	948	1313
175	1996	2233
176	1144	2221
177	611	1096
178	931	1630
179	893	1445
180	559	1686
181	774	1598
182	2100	2410
183	1829	2931
184	0	1355
185	1256	1564
186	1455	1787
187	230	1561
188	747	2321
189	387	1008
190	169	1553
191	59	1397
192	328	1373
193	456	1673
194	1097	2067
195	1293	1807
196	0	1817
197	708	1992
198	588	1973
199	1083	1864
200	1970	2985
201	1243	2636
202	726	1670
203	157	1223
204	1389	1655
205	1015	2075
206	436	2383
207	1144	2790
208	129	1403
209	74	1564
210	1744	2167
211	747	2310
212	833	1208
213	763	2743
214	1306	1620
215	1359	1650
216	1384	2119
217	937	1333
218	1340	2301
219	1188	2360
220	1167	1952
221	1602	2535
222	2231	3000
223	1227	1603
224	872	1770
225	618	1672
226	0	1788
227	772	2011
228	144	2109
229	1882	2409
230	1302	2461
231	0	866
232	989	1629
233	1048	1970
234	0	1597
235	0	1434
236	137	969
237	1198	1432
238	811	2337
239	1369	1633
240	1560	3000
241	1003	2075
242	1409	1626
243	347	2174
244	353	2304
245	1246	2635
246	1174	1566
247	1206	2382
248	179	805
249	2095	2323
250	147	1042
251	1133	2975
252	926	1819
253	1869	2657
254	752	2620
255	443	1024
256	289	1432
257	0	1185
258	260	2240
259	1567	2101
260	85	1836
261	1635	2670
262	903	2670
263	251	1966
264	306	2194
265	626	1061
266	1182	2442
267	947	1151
268	774	1890
269	723	2567
270	1897	2421
271	547	1980
272	0	1911
273	948	1188
274	1718	2709
275	0	1524
276	1520	1929
277	1049	2166
278	921	1343
279	1887	2567
280	1053	2489
281	1184	1815
282	913	2150
283	506	1936
284	240	2088
285	346	1317
286	2073	2289
287	1761	2836
288	1045	1738
289	0	1038
290	950	1196
291	1765	2233
292	221	1089
293	665	2433
294	874	1129
295	902	1698
296	992	2416
297	804	2682
298	435	1190
299	406	1755
300	823	2126
301	984	1840
302	1095	2543
303	1556	1826
304	923	1431
305	331	1947
306	106	1611
307	277	1857
308	688	2503
309	1842	2444
310	519	2364
311	1723	2028
312	986	1382
313	461	1830
314	1235	2598
315	375	1794
316	1085	2998
317	877	2419
318	421	2299
319	755	1732
320	393	1925
321	858	2249
322	0	1752
323	918	2917
324	1732	2802
325	1096	1477
326	0	1534
327	785	2538
328	1460	1716
329	1259	2554
330	966	2346
331	859	2606
332	731	2091
333	515	1411
334	1129	1986
335	1175	1810
336	474	1943
337	82	513
338	489	1588
339	847	1346
340	1086	2886
341	722	2537
342	580	2490
343	101	1775
344	388	2323
345	527	1318
346	24	1901
347	1036	1632
348	1821	2741
349	930	1980
350	146	1007
351	1337	2648
352	0	1274
353	515	2433
354	1168	1858
355	1424	2361
356	857	1434
357	480	1039
358	1419	2350
359	1056	1928
360	2090	2809
361	453	692
362	1179	1631
363	54	1468
364	654	1817
365	196	888
366	877	2845
367	368	1306
368	1039	2485
369	0	1461
370	156	1103
371	1185	2312
372	692	2070
373	1205	2036
374	1061	1826
375	821	1852
376	1042	2424
377	17	1510
378	1495	1989
379	1551	2088
380	227	2008
381	1428	2230
382	396	1451
383	270	1757
384	0	1477
385	128	898
386	618	1790
387	1416	2883
388	377	1617
389	0	1538
390	1613	1853
391	1381	2598
392	1985	2409
393	0	1748
394	1243	2502
395	263	2261
396	1489	2035
397	484	1709
398	1807	2756
399	1361	1580
400	533	1060
401	216	1767
402	1290	2304
403	1051	1972
404	693	1658
405	929	1872
406	384	1022
407	853	1675
408	1120	1734
409	507	1215
410	1133	1953
411	891	1248
412	774	1740
413	598	1378
414	835	1837
415	1083	2236
416	532	2352
417	25	1838
418	1898	2187
419	451	1769
420	1253	2243
421	752	2290
422	0	1698
423	1018	2625
424	648	2258
425	0	1892
426	0	1242
427	861	2309
428	481	1834
429	1020	2000
430	1383	1886
431	1670	2061
432	720	1929
433	0	1038
434	1291	2902
435	1610	1937
436	1670	2248
437	2233	2929
438	1830	2101
439	1531	2091
440	450	1901
441	854	1945
442	805	2451
443	1015	1416
444	608	2395
445	655	2209
446	1734	2601
447	823	1652
448	584	1101
449	1328	1946
450	1311	1757
451	1098	1460
452	1219	1531
453	858	1415
454	1715	2867
455	982	1395
456	1233	2372
457	243	1764
458	1051	2354
459	1464	2063
460	253	794
461	258	2099
462	1465	1850
463	2344	2661
464	1171	2110
465	937	2674
466	383	1059
467	1609	2583
468	342	1875
469	458	2246
470	1233	1562
471	878	2195
472	823	2266
473	1264	2188
474	692	1604
475	435	1312
476	444	1163
477	195	1518
478	180	1099
479	1061	1485
480	1045	2565
481	624	2036
482	923	1509
483	1053	1378
484	1968	2514
485	56	2048
486	630	1842
487	1469	3000
488	1540	2085
489	84	1489
490	1196	2567
491	1266	2807
492	1184	1991
493	1093	1884
494	1116	2016
495	1582	2107
496	875	1633
497	949	1783
498	838	1432
499	1794	2412
500	150	1695
501	1109	2801
502	1459	2268
503	2048	2293
504	259	1988
505	961	1641
506	1117	1725
507	745	1509
508	1177	1430
509	0	1901
510	339	2258
511	931	1982
512	746	2471
513	1189	2043
514	0	1422
515	2141	2759
516	1001	1555
517	773	2041
518	334	1509
519	1426	2372
520	622	1613
521	353	2032
522	1260	1839
523	1110	2707
524	1133	1797
525	431	2304
526	1526	1995
527	1038	2295
528	526	2054
529	666	952
530	1420	2285
531	342	1720
532	314	2083
533	454	1075
534	1548	2106
535	1569	2669
536	1513	2387
537	969	2932
538	927	1632
539	805	2708
540	657	2066
541	1115	2187
542	1053	1885
543	640	858
544	0	984
545	896	2205
546	1600	2320
547	495	1839
548	736	2350
549	1457	1663
550	102	1768
551	2126	2375
552	446	1316
553	388	1533
554	2048	2657
555	559	2558
556	1739	2706
557	1466	2087
558	1285	2191
559	516	1832
560	1506	2766
561	586	2464
562	57	1971
563	960	2844
564	769	2395
565	332	1144
566	1344	2791
567	1412	2870
568	365	1873
569	717	1335
570	1953	2579
571	1040	1566
572	790	2695
573	1645	2014
574	1412	1918
575	1246	2977
576	895	1752
577	1179	1845
578	1054	1287
579	1788	2276
580	705	1826
581	1027	1910
582	828	2816
583	180	2066
584	1249	2241
585	1176	1404
586	1113	2072
587	1462	2220
588	1172	1850
589	1177	2283
590	680	2426
591	1138	2503
592	1488	1744
593	538	1803
594	1331	2334
595	425	1048
596	1306	1843
597	1552	2060
598	1098	1505
599	1607	1867
600	840	2821
601	2362	2710
602	734	2513
603	206	777
604	650	1477
605	1595	2011
606	764	2263
607	455	1777
608	131	1253
609	304	2018
610	1614	2558
611	168	1505
612	1274	2422
613	133	1531
614	442	1745
615	208	1725
616	1302	1630
617	736	2487
618	934	1181
619	530	1651
620	1158	1724
621	676	2567
622	294	1443
623	1135	1707
624	597	2089
625	1123	2167
626	1181	1484
627	1461	3000
628	1088	2668
629	1397	1800
630	2384	2723
631	1205	1589
632	0	1312
633	701	1820
634	99	720
635	120	1785
636	619	2020
637	797	1326
638	651	2144
639	1573	2690
640	1147	3000
641	1361	1903
642	1326	3000
643	466	1854
644	936	1204
645	383	1075
646	1368	1637
647	966	1179
648	17	1659
649	1232	1442
650	723	1511
651	1128	1807
652	11	1727
653	917	1187
654	711	1815
655	1601	2830
656	932	2177
657	445	2404
658	190	1601
659	698	2507
660	1381	2124
661	561	2315
662	573	830
663	428	1219
664	0	1891
665	915	1582
666	1870	2347
667	607	1501
668	497	1242
669	0	1412
670	1487	1854
671	0	1186
672	1130	2387
673	1597	3000
674	1272	2780
675	636	1485
676	83	1774
677	193	1390
678	1128	2628
679	1138	1832
680	1367	2888
681	170	886
682	618	2096
683	1816	2359
684	925	2040
685	1055	1907
686	864	2093
687	1989	2270
688	94	2053
689	651	1095
690	1230	2220
691	1385	2204
692	0	865
693	29	1322
694	882	1471
695	0	1304
696	1304	2196
697	1051	1288
698	1178	2197
699	1563	1991
700	995	2507
701	1342	2796
702	1630	2453
703	1260	1701
704	698	1382
705	0	971
706	679	935
707	695	1431
708	946	2737
709	737	1044
710	1116	1474
711	1031	1761
712	1525	2539
713	850	2526
714	1120	2681
715	0	1399
716	792	1521
717	2255	2642
718	492	2029
719	1752	2004
720	941	1590
721	1	1545
722	662	1038
723	475	1434
724	1404	1700
725	1431	2526
726	493	1784
727	1092	2014
728	1220	2586
729	1053	3000
730	1141	1845
731	557	2398
732	27	813
733	1122	1472
734	1409	2543
735	0	1201
736	669	2203
737	1888	2949
738	1544	2134
739	1758	2090
740	12	1825
741	220	1103
742	1330	2391
743	1387	2037
744	1011	2547
745	1549	2484
746	1433	2238
747	67	1341
748	0	1403
749	1800	2500
750	786	2359
751	1108	1866
752	1506	2225
753	1004	1671
754	1106	2527
755	740	1814
756	1878	2111
757	872	2253
758	1031	1501
759	937	1565
760	1608	2139
761	80	1805
762	404	1995
763	1504	2140
764	61	1945
765	1213	3000
766	1029	1247
767	775	2225
768	848	2007
769	1171	1886
770	240	1921
771	34	614
772	1204	2319
773	684	916
774	1015	2321
775	95	1809
776	1954	2762
777	0	1073
778	570	2490
779	1962	2162
780	778	1801
781	1405	2262
782	1721	2059
783	477	985
784	0	1608
785	693	2681
786	444	1521
787	1912	2773
788	1563	2955
789	726	1175
790	659	2560
791	469	1710
792	32	1407
793	334	2099
794	1810	2304
795	195	2111
796	1088	2174
797	625	1138
798	1332	1972
799	876	2856
800	1618	2059
801	1049	1701
802	1177	1713
803	43	1905
804	994	2975
805	597	1809
806	468	1987
807	0	1539
808	497	2141
809	843	2039
810	1955	3000
811	1297	2099
812	552	2456
813	1109	1700
814	545	1793
815	0	1705
816	893	1877
817	924	2017
818	0	1388
819	614	1733
820	1769	2301
821	730	2097
822	0	1871
823	1004	2200
824	2063	2306
825	1272	2858
826	349	772
827	911	2313
828	75	1359
829	632	1839
830	639	2219
831	1179	2768
832	854	2684
833	891	1799
834	1138	2863
835	1198	1569
836	1808	2285
837	849	2602
838	0	1853
839	1139	1912
840	359	1086
841	384	2047
842	611	1460
843	1607	2322
844	393	2017
845	1442	1806
846	597	1352
847	0	1451
848	1016	1585
849	1378	2600
850	1122	2991
851	1556	2266
852	201	1977
853	1774	2548
854	1652	3000
855	895	2360
856	775	1409
857	481	1329
858	1250	1561
859	1437	2239
860	1056	3000
861	713	1760
862	889	2889
863	791	1757
864	498	1439
865	517	1980
866	575	1268
867	491	1448
868	0	1061
869	297	2128
870	587	1218
871	701	2245
872	1321	2074
873	498	2424
874	1371	2696
875	418	2415
876	1280	2401
877	272	718
878	8	1177
879	503	1371
880	123	2094
881	0	1770
882	1032	2077
883	1117	2658
884	631	1731
885	1275	2304
886	1271	2348
887	131	1680
888	1326	2253
889	460	2296
890	27	570
891	550	1903
892	483	690
893	1352	2940
894	804	2202
895	57	772
896	1169	1640
897	894	1481
898	743	1896
899	1188	2456
900	663	1334
901	353	1964
902	788	2038
903	528	2389
904	314	1787
905	1679	2049
906	2308	2687
907	1014	2291
908	1076	2360
909	1322	2853
910	1631	2056
911	965	1501
912	1887	3000
913	310	2041
914	0	1785
915	1424	2202
916	722	1789
917	949	2163
918	1633	1914
919	299	1584
920	275	1110
921	1414	1887
922	1254	1971
923	971	2009
924	502	2139
925	1640	3000
926	673	1564
927	1261	3000
928	1198	1631
929	1098	1938
930	1072	2243
931	2100	2472
932	1234	1912
933	1588	2175
934	757	1135
935	573	2034
936	698	2371
937	1062	1831
938	1158	2601
939	767	1065
940	452	1463
941	526	1480
942	521	2358
943	1309	2115
944	478	2118
945	1281	1991
946	0	684
947	0	882
948	1373	2320
949	0	1411
950	1216	2217
951	312	1635
952	0	1643
953	135	1583
954	1620	3000
955	1040	1563
956	430	2394
957	1492	2000
958	897	1563
959	569	2490
960	1623	2107
961	796	2387
962	1352	2574
963	634	1423
964	440	710
965	114	1829
966	683	2222
967	0	1815
968	261	1653
969	0	785
970	860	2187
971	790	1404
972	0	1140
973	0	1311
974	810	1031
975	372	2184
976	655	2270
977	1244	1483
978	604	1577
979	2175	2564
980	560	1705
981	0	1772
982	1435	2515
983	0	1678
984	1372	2495
985	777	1317
986	1605	2071
987	116	1745
988	445	1859
989	529	2136
990	1909	2889
991	1180	2814
992	750	1296
993	1857	2737
994	832	1823
995	1253	1477
996	780	1149
997	136	1578
998	506	2280
999	1194	1446
1000	1232	2399
1001	1169	1644
BACKHAUL_SECTION
7	9	11	17	26	28	29	30	32	35	42	48	51	58	59	61	67	70	72	74	76	81	82	105	107	110	113	114	119	128	130	131	138	141	145	154	160	166	169	175	184	185	186	189	192	196	197	198	199	208	209	219	221	223	230	232	233	235	243	245	247	249	254	263	269	271	272	273	275	290	292	293	294	296	305	310	313	317	322	330	333	348	354	360	364	378	384	392	399	401	405	411	420	424	426	430	433	436	440	448	449	465	466	467	473	477	478	484	487	492	498	499	502	508	512	535	539	550	551	555	559	566	574	590	592	594	602	604	620	622	626	641	643	654	662	666	680	688	698	707	714	718	719	728	736	745	746	748	753	755	759	760	764	765	775	782	785	791	802	804	807	821	822	824	834	835	839	842	844	846	847	849	854	858	860	862	863	865	866	867	869	890	906	921	930	937	938	945	950	954	957	959	974	975	976	977	978	979	996	999	-1
DEPOT_SECTION
1
-1
EOF
