NAME : n201-0013
COMMENT : "Generated by pyvrp_manuel (OVRPB)"
TYPE : OVRPB
DIMENSION : 201
EDGE_WEIGHT_TYPE : EUC_2D
CAPACITY : 80
VEHICLES : 200
OPEN_ROUTE : YES
NODE_COORD_SECTION
1	419	553
2	721	299
3	670	536
4	101	186
5	153	762
6	608	487
7	202	5
8	323	117
9	3	23
10	173	14
11	656	687
12	702	2
13	809	597
14	756	377
15	740	26
16	670	896
17	710	29
18	360	438
19	762	311
20	572	324
21	421	490
22	213	153
23	913	920
24	485	933
25	885	185
26	301	157
27	662	513
28	431	871
29	305	226
30	145	246
31	982	257
32	362	725
33	116	197
34	868	308
35	241	435
36	429	591
37	683	114
38	954	25
39	669	359
40	289	968
41	18	534
42	820	947
43	77	560
44	995	10
45	622	187
46	581	48
47	746	389
48	799	492
49	429	379
50	42	288
51	517	113
52	939	175
53	305	433
54	95	496
55	259	81
56	512	943
57	623	912
58	495	325
59	903	234
60	37	609
61	749	201
62	676	323
63	439	389
64	393	93
65	623	368
66	882	583
67	91	120
68	239	739
69	177	271
70	591	153
71	254	953
72	236	333
73	858	612
74	892	60
75	750	424
76	180	286
77	16	846
78	404	10
79	928	824
80	707	989
81	952	967
82	948	906
83	631	458
84	519	292
85	735	514
86	618	178
87	312	875
88	549	673
89	63	286
90	487	448
91	819	349
92	917	403
93	694	148
94	585	13
95	71	180
96	640	539
97	548	445
98	920	990
99	712	898
100	475	316
101	597	829
102	423	116
103	665	373
104	259	816
105	483	214
106	201	971
107	825	141
108	500	489
109	738	72
110	507	667
111	754	552
112	252	20
113	770	956
114	349	53
115	646	149
116	173	636
117	453	466
118	948	412
119	804	344
120	872	653
121	946	674
122	323	718
123	926	595
124	731	148
125	771	27
126	942	707
127	533	32
128	955	819
129	961	697
130	668	370
131	295	698
132	673	484
133	580	672
134	17	58
135	367	841
136	744	23
137	350	447
138	664	909
139	511	111
140	531	307
141	194	777
142	433	736
143	889	549
144	782	264
145	779	520
146	832	978
147	122	975
148	882	97
149	647	93
150	662	577
151	23	682
152	363	998
153	988	673
154	894	681
155	973	454
156	624	417
157	491	349
158	302	789
159	715	279
160	59	744
161	40	478
162	70	919
163	907	89
164	35	204
165	638	250
166	381	373
167	592	263
168	727	142
169	455	919
170	224	884
171	760	338
172	673	162
173	540	642
174	932	220
175	216	250
176	13	601
177	86	366
178	277	528
179	652	137
180	352	452
181	211	616
182	685	144
183	893	855
184	350	574
185	561	431
186	164	912
187	746	82
188	112	975
189	580	385
190	839	644
191	679	897
192	461	976
193	149	196
194	585	439
195	785	364
196	579	396
197	875	467
198	508	866
199	986	978
200	11	217
201	391	397
DEMAND_SECTION
1	0
2	2
3	3
4	7
5	4
6	3
7	6
8	4
9	6
10	2
11	2
12	6
13	9
14	4
15	3
16	3
17	5
18	8
19	9
20	9
21	6
22	6
23	4
24	8
25	7
26	1
27	9
28	6
29	6
30	4
31	9
32	8
33	5
34	8
35	2
36	4
37	6
38	9
39	6
40	9
41	8
42	4
43	6
44	7
45	6
46	4
47	3
48	4
49	2
50	7
51	4
52	8
53	8
54	6
55	3
56	2
57	8
58	6
59	1
60	4
61	8
62	2
63	1
64	9
65	2
66	8
67	8
68	7
69	1
70	6
71	6
72	7
73	6
74	4
75	4
76	9
77	4
78	4
79	4
80	7
81	5
82	3
83	6
84	2
85	9
86	9
87	6
88	9
89	4
90	1
91	7
92	4
93	2
94	8
95	9
96	4
97	8
98	7
99	8
100	7
101	7
102	8
103	9
104	6
105	7
106	4
107	8
108	3
109	8
110	9
111	3
112	4
113	2
114	9
115	2
116	1
117	1
118	6
119	2
120	6
121	1
122	4
123	9
124	1
125	9
126	5
127	7
128	1
129	2
130	8
131	3
132	7
133	4
134	5
135	5
136	6
137	1
138	1
139	9
140	7
141	7
142	5
143	9
144	1
145	8
146	6
147	7
148	4
149	1
150	5
151	3
152	2
153	8
154	2
155	1
156	3
157	8
158	9
159	9
160	1
161	7
162	6
163	5
164	8
165	5
166	1
167	7
168	5
169	7
170	5
171	1
172	3
173	9
174	8
175	9
176	7
177	5
178	5
179	9
180	5
181	6
182	4
183	5
184	3
185	3
186	8
187	6
188	3
189	2
190	5
191	5
192	2
193	9
194	3
195	6
196	9
197	3
198	5
199	7
200	2
201	3
BACKHAUL_SECTION
9	16	21	24	29	31	49	53	58	59	64	65	71	72	85	99	104	111	112	114	115	117	128	142	144	145	150	160	164	166	173	178	179	186	189	190	197	198	199	201	-1
DEPOT_SECTION
1
-1
EOF
