NAME : n501-0041
COMMENT : "Generated by pyvrp_manuel (OVRPLTW)"
TYPE : OVRPLTW
DIMENSION : 501
EDGE_WEIGHT_TYPE : EUC_2D
CAPACITY : 100
VEHICLES : 500
OPEN_ROUTE : YES
DISTANCE : 3000
SERVICE_TIME : 200
NODE_COORD_SECTION
1	697	103
2	543	732
3	547	198
4	707	651
5	634	174
6	741	950
7	422	469
8	662	855
9	224	668
10	312	755
11	450	351
12	336	802
13	279	784
14	666	38
15	337	513
16	49	711
17	371	458
18	549	353
19	771	902
20	727	909
21	828	120
22	595	412
23	729	948
24	724	530
25	835	853
26	203	437
27	659	338
28	40	618
29	680	595
30	632	679
31	899	374
32	687	318
33	832	546
34	591	409
35	860	680
36	642	697
37	451	567
38	249	100
39	171	723
40	613	811
41	265	194
42	902	854
43	520	560
44	555	169
45	110	678
46	92	554
47	602	122
48	402	589
49	1	193
50	444	393
51	911	179
52	940	870
53	285	969
54	748	513
55	992	775
56	956	303
57	999	444
58	911	397
59	897	137
60	491	339
61	814	241
62	244	362
63	995	443
64	556	82
65	32	268
66	28	957
67	538	464
68	723	663
69	740	323
70	663	351
71	178	751
72	968	400
73	443	435
74	648	621
75	358	82
76	369	322
77	917	145
78	971	208
79	508	464
80	989	589
81	75	374
82	124	173
83	728	965
84	654	425
85	910	109
86	272	662
87	682	571
88	558	851
89	830	398
90	629	357
91	764	837
92	998	732
93	200	73
94	55	420
95	248	771
96	709	208
97	790	667
98	271	814
99	607	237
100	338	961
101	167	26
102	102	125
103	130	610
104	354	575
105	602	123
106	400	301
107	488	938
108	840	20
109	454	174
110	497	862
111	275	466
112	559	144
113	383	326
114	692	426
115	888	377
116	381	905
117	614	174
118	388	788
119	149	689
120	614	613
121	774	651
122	610	221
123	486	94
124	771	34
125	293	849
126	675	198
127	954	271
128	314	593
129	334	118
130	110	886
131	161	448
132	513	580
133	554	373
134	370	404
135	672	727
136	399	454
137	815	952
138	525	428
139	617	570
140	684	627
141	112	266
142	422	871
143	146	999
144	258	264
145	248	378
146	206	374
147	196	146
148	8	131
149	250	335
150	580	959
151	419	78
152	739	434
153	884	806
154	481	181
155	82	68
156	233	617
157	92	939
158	36	899
159	353	814
160	766	575
161	400	106
162	943	333
163	656	801
164	218	3
165	336	317
166	788	418
167	659	192
168	355	982
169	743	903
170	968	803
171	669	430
172	665	394
173	279	979
174	744	475
175	19	250
176	935	41
177	138	980
178	370	776
179	931	768
180	281	491
181	7	879
182	199	961
183	679	400
184	301	936
185	430	772
186	332	263
187	122	783
188	616	994
189	673	175
190	14	359
191	526	817
192	115	846
193	374	504
194	696	349
195	685	788
196	477	396
197	350	524
198	970	536
199	570	189
200	574	745
201	543	351
202	40	758
203	537	155
204	12	94
205	84	653
206	725	127
207	164	918
208	737	396
209	965	97
210	593	988
211	841	424
212	467	413
213	8	273
214	167	198
215	652	547
216	128	524
217	276	243
218	705	988
219	380	869
220	390	70
221	50	97
222	681	199
223	105	78
224	666	530
225	535	491
226	168	310
227	333	538
228	749	454
229	583	25
230	883	1000
231	576	150
232	739	265
233	732	399
234	62	750
235	806	788
236	257	453
237	396	634
238	716	595
239	591	83
240	113	604
241	584	863
242	387	558
243	485	956
244	434	808
245	553	582
246	243	550
247	469	855
248	948	940
249	838	914
250	358	601
251	175	945
252	784	495
253	745	972
254	646	173
255	481	414
256	901	79
257	36	118
258	367	975
259	764	886
260	377	54
261	591	357
262	208	317
263	349	648
264	588	165
265	768	905
266	272	823
267	170	696
268	115	129
269	683	658
270	944	350
271	690	57
272	563	97
273	543	741
274	678	183
275	997	834
276	339	834
277	784	850
278	701	970
279	644	263
280	200	530
281	361	219
282	693	455
283	918	76
284	885	601
285	53	387
286	684	529
287	361	597
288	39	238
289	595	349
290	971	733
291	435	347
292	965	625
293	523	325
294	378	22
295	75	761
296	63	535
297	481	518
298	340	339
299	863	685
300	8	558
301	713	938
302	767	796
303	979	385
304	530	747
305	45	273
306	523	37
307	65	945
308	996	611
309	143	387
310	156	752
311	755	301
312	2	346
313	695	40
314	308	259
315	189	411
316	849	264
317	944	940
318	756	276
319	563	914
320	775	6
321	835	423
322	133	335
323	462	303
324	496	647
325	672	507
326	862	339
327	472	603
328	124	110
329	383	826
330	253	352
331	462	523
332	846	462
333	242	29
334	452	492
335	905	76
336	798	353
337	442	67
338	90	42
339	342	680
340	200	779
341	765	506
342	384	796
343	52	246
344	901	308
345	869	866
346	599	982
347	714	980
348	964	735
349	102	858
350	921	371
351	503	629
352	174	924
353	843	121
354	851	598
355	554	517
356	578	984
357	59	479
358	67	539
359	271	157
360	783	993
361	798	863
362	865	132
363	263	769
364	438	826
365	686	102
366	125	922
367	485	967
368	246	710
369	482	828
370	954	296
371	776	573
372	574	504
373	663	317
374	750	731
375	706	275
376	394	219
377	258	771
378	355	707
379	613	229
380	273	401
381	845	863
382	78	888
383	776	190
384	850	963
385	949	664
386	411	141
387	236	476
388	458	897
389	97	812
390	642	332
391	526	618
392	952	677
393	767	479
394	298	685
395	769	7
396	209	832
397	466	646
398	759	209
399	110	1000
400	751	365
401	881	703
402	692	912
403	625	345
404	332	116
405	973	312
406	864	559
407	617	626
408	988	315
409	155	778
410	79	244
411	944	433
412	683	865
413	187	578
414	518	100
415	695	573
416	584	947
417	761	267
418	318	237
419	734	401
420	942	223
421	769	539
422	809	347
423	874	69
424	506	551
425	658	176
426	374	138
427	628	433
428	995	207
429	946	284
430	993	117
431	902	836
432	927	131
433	973	741
434	233	228
435	52	734
436	136	302
437	309	101
438	8	158
439	400	212
440	319	709
441	243	196
442	717	762
443	892	160
444	64	794
445	389	981
446	750	520
447	298	613
448	459	647
449	263	346
450	926	863
451	384	782
452	611	902
453	913	374
454	103	437
455	757	186
456	616	406
457	242	840
458	658	450
459	356	470
460	891	404
461	324	161
462	457	681
463	325	653
464	535	501
465	508	679
466	113	23
467	993	933
468	141	729
469	23	64
470	14	108
471	235	361
472	617	395
473	254	216
474	997	58
475	583	495
476	440	43
477	628	351
478	791	406
479	417	413
480	998	974
481	162	363
482	73	309
483	142	957
484	751	350
485	132	697
486	563	73
487	859	552
488	260	979
489	569	485
490	148	664
491	514	791
492	561	986
493	322	135
494	915	696
495	601	440
496	184	304
497	827	245
498	675	815
499	529	38
500	141	333
501	772	463
DEMAND_SECTION
1	0
2	9
3	6
4	7
5	3
6	2
7	2
8	2
9	1
10	4
11	7
12	2
13	4
14	5
15	4
16	2
17	2
18	6
19	2
20	3
21	1
22	5
23	1
24	8
25	5
26	5
27	4
28	1
29	8
30	9
31	9
32	3
33	5
34	3
35	5
36	3
37	5
38	6
39	9
40	2
41	5
42	9
43	7
44	3
45	4
46	2
47	2
48	7
49	2
50	9
51	3
52	9
53	7
54	2
55	6
56	7
57	9
58	9
59	7
60	4
61	1
62	2
63	3
64	3
65	8
66	2
67	3
68	9
69	3
70	5
71	5
72	5
73	2
74	5
75	5
76	3
77	5
78	1
79	5
80	6
81	3
82	4
83	7
84	2
85	7
86	2
87	7
88	9
89	6
90	3
91	9
92	2
93	6
94	5
95	3
96	8
97	8
98	1
99	1
100	8
101	1
102	5
103	3
104	1
105	3
106	6
107	1
108	9
109	4
110	8
111	4
112	7
113	7
114	7
115	6
116	2
117	5
118	4
119	7
120	5
121	9
122	4
123	7
124	9
125	7
126	1
127	6
128	2
129	7
130	4
131	7
132	5
133	3
134	1
135	2
136	2
137	4
138	9
139	4
140	1
141	6
142	9
143	9
144	7
145	6
146	1
147	4
148	4
149	1
150	7
151	8
152	4
153	7
154	3
155	9
156	9
157	5
158	4
159	7
160	5
161	9
162	8
163	6
164	3
165	2
166	6
167	7
168	4
169	6
170	8
171	8
172	6
173	5
174	2
175	3
176	5
177	3
178	2
179	6
180	6
181	9
182	9
183	9
184	7
185	8
186	4
187	5
188	6
189	6
190	8
191	2
192	4
193	6
194	4
195	1
196	9
197	3
198	7
199	8
200	9
201	3
202	8
203	9
204	2
205	4
206	9
207	8
208	5
209	6
210	5
211	5
212	2
213	9
214	1
215	2
216	8
217	3
218	3
219	2
220	8
221	4
222	2
223	7
224	9
225	3
226	9
227	7
228	2
229	4
230	5
231	4
232	3
233	7
234	6
235	4
236	4
237	7
238	2
239	3
240	6
241	1
242	6
243	3
244	9
245	8
246	7
247	1
248	4
249	1
250	2
251	9
252	2
253	9
254	1
255	7
256	2
257	5
258	8
259	7
260	4
261	9
262	1
263	5
264	9
265	7
266	6
267	5
268	2
269	7
270	6
271	7
272	5
273	6
274	5
275	4
276	1
277	1
278	8
279	6
280	1
281	2
282	3
283	3
284	5
285	5
286	1
287	7
288	7
289	2
290	3
291	5
292	4
293	7
294	4
295	1
296	3
297	4
298	2
299	4
300	4
301	2
302	2
303	9
304	4
305	2
306	7
307	7
308	6
309	5
310	7
311	8
312	6
313	2
314	9
315	2
316	9
317	8
318	6
319	5
320	1
321	8
322	7
323	4
324	1
325	7
326	4
327	6
328	9
329	9
330	6
331	4
332	4
333	4
334	6
335	9
336	5
337	6
338	5
339	5
340	3
341	3
342	9
343	1
344	7
345	6
346	7
347	5
348	2
349	4
350	7
351	7
352	6
353	2
354	9
355	8
356	2
357	9
358	1
359	3
360	3
361	3
362	5
363	3
364	4
365	9
366	7
367	2
368	1
369	8
370	5
371	8
372	5
373	1
374	1
375	8
376	1
377	9
378	4
379	9
380	2
381	6
382	8
383	4
384	3
385	1
386	7
387	4
388	9
389	3
390	3
391	1
392	9
393	3
394	2
395	8
396	8
397	8
398	8
399	7
400	8
401	9
402	2
403	6
404	8
405	7
406	8
407	1
408	9
409	9
410	3
411	7
412	3
413	4
414	8
415	2
416	3
417	8
418	9
419	1
420	4
421	8
422	1
423	8
424	8
425	9
426	3
427	1
428	8
429	2
430	8
431	4
432	8
433	1
434	1
435	1
436	1
437	6
438	8
439	8
440	9
441	3
442	6
443	7
444	4
445	2
446	5
447	5
448	7
449	7
450	4
451	5
452	5
453	4
454	4
455	3
456	8
457	7
458	9
459	6
460	9
461	9
462	1
463	5
464	3
465	2
466	2
467	4
468	8
469	9
470	9
471	6
472	1
473	8
474	8
475	6
476	8
477	7
478	9
479	7
480	7
481	4
482	2
483	2
484	7
485	1
486	1
487	8
488	3
489	2
490	2
491	8
492	6
493	5
494	2
495	3
496	7
497	1
498	7
499	6
500	3
501	6
TIME_WINDOW_SECTION
1	0	3000
2	1537	2341
3	984	1298
4	1593	1892
5	732	1586
6	1322	2130
7	1079	2225
8	1035	3000
9	130	1488
10	1054	2213
11	0	1300
12	1175	1936
13	516	1490
14	1678	2817
15	1286	1729
16	723	1345
17	1451	2906
18	1285	2776
19	1472	2085
20	201	1916
21	1288	2743
22	174	1671
23	1072	2282
24	1761	2225
25	722	1473
26	187	1984
27	441	2406
28	553	2084
29	195	2039
30	312	1979
31	1352	2949
32	37	1060
33	491	2003
34	174	1743
35	1116	3000
36	220	1161
37	1316	2729
38	0	1373
39	1043	1793
40	723	1632
41	1232	2705
42	311	2005
43	425	815
44	1427	2880
45	1610	2144
46	1075	2578
47	0	499
48	1729	2704
49	462	1809
50	856	2070
51	1383	2221
52	847	1454
53	900	1505
54	1260	2329
55	455	1884
56	326	1322
57	1327	2583
58	838	2103
59	478	2444
60	0	1285
61	507	2126
62	1721	2329
63	1754	2097
64	394	1936
65	453	1999
66	705	2365
67	88	1611
68	166	1192
69	627	2111
70	957	2067
71	895	1496
72	1974	2571
73	1400	1888
74	1956	2414
75	1867	2417
76	0	1108
77	1812	2790
78	910	2354
79	583	1978
80	810	2481
81	501	2362
82	1810	2540
83	674	1696
84	1450	1976
85	695	2398
86	452	1167
87	817	2791
88	747	2697
89	135	1324
90	288	2080
91	1049	2355
92	1241	1704
93	1628	2473
94	183	1296
95	383	1777
96	1145	1817
97	729	2464
98	1193	2352
99	1525	2763
100	143	2029
101	485	1692
102	246	1505
103	826	1124
104	8	1774
105	885	2610
106	546	1438
107	824	2154
108	58	1049
109	1167	2321
110	1112	1527
111	774	1772
112	953	2722
113	1147	3000
114	876	2729
115	860	2560
116	500	2187
117	0	1802
118	1592	2184
119	1647	1960
120	1170	1682
121	338	2191
122	1061	3000
123	616	2397
124	1924	2925
125	930	1297
126	1344	2829
127	1778	2473
128	686	1185
129	1160	2425
130	1066	1931
131	560	1586
132	1486	1727
133	764	2011
134	1463	2197
135	1264	2456
136	1107	2446
137	1265	2119
138	264	1658
139	961	2854
140	1617	1931
141	890	2353
142	1485	2193
143	823	2028
144	646	1593
145	1452	2584
146	642	2018
147	1114	1317
148	1215	2167
149	1591	2074
150	1131	2672
151	1593	1978
152	239	1101
153	603	2097
154	1861	2558
155	63	1454
156	723	2366
157	569	2234
158	136	2121
159	779	1047
160	0	1070
161	349	1261
162	289	928
163	535	2457
164	590	1090
165	1732	2323
166	148	1112
167	221	1945
168	683	1621
169	434	2251
170	487	2066
171	1137	2202
172	1860	2935
173	1166	2089
174	1464	2711
175	1515	1780
176	2247	2813
177	908	2588
178	984	1912
179	863	1522
180	1106	2543
181	649	1788
182	1512	1883
183	1943	2501
184	988	1829
185	1119	2341
186	656	1404
187	928	1430
188	1401	1835
189	33	1468
190	496	2185
191	0	1621
192	1354	1609
193	338	2083
194	2083	2702
195	201	1719
196	1514	1892
197	1022	1963
198	1345	2237
199	1727	3000
200	1388	1837
201	907	2049
202	1267	2053
203	0	1155
204	878	1234
205	1038	1293
206	1574	2460
207	531	1621
208	39	1376
209	227	854
210	1213	1565
211	410	815
212	2196	2496
213	613	1030
214	309	898
215	453	1672
216	416	2314
217	2200	2493
218	1010	1595
219	48	1894
220	1046	2943
221	1040	1316
222	652	1049
223	539	1610
224	1377	3000
225	986	1637
226	1410	1793
227	602	2591
228	178	1298
229	0	657
230	1496	1775
231	657	1097
232	208	1261
233	618	914
234	1072	2604
235	1156	1527
236	298	2198
237	1186	2508
238	664	2555
239	1933	3000
240	240	1359
241	662	1556
242	82	1107
243	1220	2128
244	591	978
245	1886	2504
246	373	2046
247	629	1736
248	199	1867
249	547	1994
250	243	1452
251	1233	2064
252	517	938
253	749	2090
254	516	1990
255	1362	2119
256	1927	2469
257	706	2651
258	644	1706
259	936	2662
260	866	2847
261	1495	2774
262	1906	2392
263	1637	1860
264	1440	3000
265	1102	1425
266	226	1517
267	981	2492
268	1487	2711
269	116	1737
270	0	1504
271	812	2164
272	185	1743
273	1149	2913
274	2060	2947
275	253	1908
276	1484	2010
277	554	1414
278	283	1509
279	695	1605
280	1169	2164
281	1128	2224
282	1970	2904
283	1567	1812
284	1624	2394
285	131	2111
286	1647	2059
287	1357	2129
288	778	2580
289	1752	3000
290	1269	2932
291	409	732
292	105	1252
293	102	1438
294	408	663
295	326	2169
296	141	1836
297	1008	2735
298	0	1808
299	1348	1874
300	968	1985
301	1304	1588
302	571	2378
303	1555	3000
304	131	1841
305	0	1517
306	128	1157
307	1204	1458
308	626	2290
309	669	1886
310	1547	2060
311	0	1696
312	871	2713
313	0	1179
314	42	1210
315	1037	1474
316	1434	2232
317	1572	2245
318	1240	3000
319	432	2130
320	939	2508
321	1392	2111
322	1270	3000
323	1814	2233
324	1106	1906
325	0	1213
326	745	2727
327	247	2175
328	1184	3000
329	175	2106
330	1368	1865
331	1108	2538
332	910	1793
333	258	1489
334	1286	1578
335	1517	2770
336	1635	3000
337	0	1101
338	1252	1891
339	1257	1788
340	441	2378
341	2219	2534
342	866	1177
343	1514	2492
344	1322	2983
345	848	2185
346	806	2561
347	446	2437
348	225	1844
349	770	1221
350	1563	2942
351	0	1836
352	1019	2572
353	1915	2897
354	1892	2216
355	772	1775
356	652	2157
357	421	1487
358	512	2321
359	983	1243
360	642	2311
361	820	2280
362	88	1223
363	1006	1283
364	665	2651
365	594	1138
366	176	2036
367	217	2163
368	557	2143
369	1193	1615
370	0	1269
371	1056	1616
372	927	1417
373	274	720
374	994	1309
375	0	1388
376	775	2300
377	271	1940
378	684	2273
379	0	571
380	127	2076
381	428	1478
382	827	2688
383	0	325
384	619	2191
385	914	1856
386	1474	2812
387	1026	1388
388	1208	1538
389	1014	1914
390	1341	2212
391	1788	2542
392	1626	1878
393	0	1292
394	1035	1499
395	1321	2962
396	1026	2578
397	812	1403
398	184	865
399	1026	1776
400	427	1925
401	1312	2022
402	205	1579
403	195	2117
404	663	1709
405	0	923
406	964	2086
407	1143	2695
408	996	1401
409	68	1854
410	1309	1637
411	1616	2021
412	1560	1793
413	1171	1965
414	190	2013
415	1622	1849
416	1260	1675
417	1883	3000
418	206	918
419	0	991
420	1134	1440
421	1030	1588
422	1255	2395
423	650	2151
424	773	1172
425	1842	2474
426	777	1713
427	503	1867
428	717	2072
429	1431	3000
430	352	1116
431	752	1080
432	139	1984
433	386	1434
434	1782	2299
435	1247	2504
436	1339	2681
437	357	1964
438	798	1115
439	0	1428
440	852	1976
441	0	1535
442	1065	1830
443	1340	2981
444	1518	2058
445	1208	2379
446	1976	2724
447	1280	1762
448	1186	2019
449	364	1229
450	1613	1825
451	783	1892
452	722	2692
453	1688	2013
454	1173	2376
455	1165	1720
456	1970	2344
457	734	1500
458	991	1956
459	624	1682
460	0	1297
461	0	1689
462	818	1474
463	53	1582
464	170	1917
465	724	1276
466	0	1924
467	970	2705
468	962	1256
469	918	1485
470	0	1632
471	1534	2481
472	1422	3000
473	1218	2097
474	174	1947
475	971	2877
476	1848	2522
477	701	1690
478	1533	2831
479	1241	2775
480	1173	1956
481	761	2713
482	731	2137
483	1366	1829
484	175	1647
485	882	1168
486	1002	2164
487	236	886
488	560	2307
489	42	948
490	1094	1432
491	460	1670
492	484	1528
493	1710	2036
494	1275	2581
495	765	1239
496	1144	1736
497	1102	1658
498	519	1878
499	133	1973
500	1102	1612
501	1380	2036
DEPOT_SECTION
1
-1
EOF
