NAME : n501-0013
COMMENT : "Generated by pyvrp_manuel (OVRPLTW)"
TYPE : OVRPLTW
DIMENSION : 501
EDGE_WEIGHT_TYPE : EUC_2D
CAPACITY : 100
VEHICLES : 500
OPEN_ROUTE : YES
DISTANCE : 3000
SERVICE_TIME : 200
NODE_COORD_SECTION
1	980	927
2	188	805
3	442	25
4	255	694
5	443	535
6	167	307
7	760	123
8	501	325
9	245	25
10	429	573
11	287	303
12	818	404
13	857	913
14	168	843
15	703	54
16	254	327
17	428	57
18	248	615
19	599	711
20	564	836
21	396	179
22	461	88
23	150	671
24	144	261
25	189	312
26	183	594
27	261	945
28	676	991
29	904	437
30	999	928
31	902	750
32	246	206
33	570	267
34	717	738
35	732	756
36	234	132
37	917	88
38	99	873
39	872	791
40	719	238
41	964	249
42	868	24
43	647	886
44	639	20
45	861	867
46	49	224
47	865	134
48	427	601
49	990	185
50	9	91
51	491	382
52	918	705
53	775	315
54	860	833
55	964	903
56	445	265
57	426	384
58	691	641
59	127	64
60	995	875
61	103	757
62	379	876
63	755	222
64	346	233
65	385	681
66	896	422
67	932	215
68	613	565
69	356	155
70	45	179
71	480	803
72	58	364
73	165	37
74	584	132
75	530	930
76	875	2
77	498	657
78	614	938
79	121	273
80	20	125
81	245	87
82	58	86
83	110	849
84	150	238
85	127	80
86	823	486
87	891	41
88	392	916
89	630	596
90	818	785
91	810	829
92	809	929
93	77	94
94	707	429
95	684	973
96	126	671
97	921	935
98	534	152
99	892	36
100	539	890
101	333	514
102	507	424
103	373	862
104	670	800
105	896	108
106	931	789
107	80	889
108	84	609
109	936	721
110	129	685
111	8	628
112	676	705
113	315	410
114	266	72
115	947	889
116	472	858
117	652	907
118	421	12
119	302	370
120	765	453
121	412	389
122	258	849
123	118	873
124	748	752
125	389	741
126	846	971
127	590	171
128	59	480
129	114	874
130	4	980
131	512	981
132	607	394
133	156	883
134	1000	550
135	297	438
136	557	976
137	531	102
138	223	908
139	375	586
140	416	612
141	647	766
142	281	539
143	585	926
144	122	521
145	892	614
146	438	72
147	470	60
148	581	971
149	236	336
150	564	927
151	996	272
152	952	594
153	363	87
154	774	334
155	788	932
156	352	250
157	241	137
158	82	137
159	626	639
160	262	953
161	305	480
162	289	723
163	975	546
164	283	885
165	3	937
166	228	792
167	404	546
168	660	869
169	239	133
170	360	180
171	52	387
172	262	623
173	511	600
174	535	327
175	947	897
176	402	719
177	313	814
178	813	794
179	389	775
180	237	993
181	508	808
182	461	139
183	738	99
184	641	667
185	786	634
186	940	630
187	706	343
188	777	429
189	246	473
190	256	1
191	915	605
192	57	731
193	444	769
194	513	101
195	850	835
196	734	722
197	375	762
198	463	199
199	744	309
200	507	984
201	622	710
202	637	540
203	210	125
204	48	427
205	764	889
206	451	508
207	283	501
208	676	713
209	821	6
210	71	954
211	173	295
212	934	306
213	851	823
214	788	67
215	497	637
216	725	968
217	804	284
218	472	735
219	741	601
220	198	84
221	334	509
222	695	975
223	98	275
224	883	285
225	710	626
226	300	345
227	33	573
228	833	182
229	117	31
230	401	190
231	558	59
232	237	909
233	567	145
234	2	190
235	628	951
236	193	7
237	262	748
238	54	857
239	752	157
240	753	86
241	578	31
242	712	711
243	8	832
244	418	888
245	928	566
246	342	96
247	890	505
248	142	246
249	241	836
250	38	199
251	948	289
252	421	329
253	133	564
254	293	995
255	376	354
256	394	363
257	815	487
258	203	415
259	624	685
260	914	246
261	273	976
262	951	165
263	994	629
264	962	150
265	240	455
266	209	923
267	340	648
268	132	451
269	793	642
270	357	170
271	378	305
272	360	10
273	305	464
274	574	442
275	625	781
276	864	345
277	994	582
278	187	211
279	367	15
280	502	813
281	165	167
282	693	77
283	519	56
284	379	706
285	165	884
286	235	943
287	114	784
288	155	265
289	70	309
290	302	729
291	180	421
292	810	878
293	299	902
294	425	631
295	992	444
296	104	388
297	347	665
298	137	139
299	119	841
300	40	576
301	213	914
302	347	949
303	833	749
304	262	326
305	770	991
306	95	160
307	435	202
308	900	244
309	845	394
310	52	112
311	359	830
312	735	718
313	882	405
314	949	373
315	6	140
316	78	315
317	813	602
318	417	775
319	379	783
320	21	483
321	446	381
322	169	737
323	114	732
324	300	809
325	756	578
326	653	795
327	424	624
328	611	837
329	379	76
330	559	383
331	430	67
332	305	95
333	173	82
334	161	886
335	770	288
336	293	155
337	956	856
338	685	118
339	511	892
340	306	332
341	670	713
342	335	471
343	469	470
344	404	676
345	825	413
346	536	26
347	858	966
348	34	148
349	51	382
350	511	57
351	631	375
352	224	795
353	941	310
354	730	101
355	556	297
356	869	667
357	495	595
358	807	534
359	587	391
360	341	434
361	30	296
362	604	289
363	378	182
364	665	158
365	987	941
366	72	336
367	119	279
368	666	16
369	898	958
370	276	639
371	223	45
372	795	831
373	636	385
374	541	463
375	280	94
376	748	559
377	487	435
378	274	212
379	261	431
380	658	167
381	151	451
382	800	997
383	916	920
384	840	100
385	708	737
386	907	310
387	994	592
388	702	260
389	170	452
390	314	365
391	957	331
392	202	481
393	184	759
394	471	703
395	778	873
396	687	597
397	248	997
398	815	989
399	826	143
400	258	136
401	512	644
402	281	751
403	838	549
404	768	669
405	264	372
406	624	21
407	793	301
408	685	735
409	998	88
410	171	558
411	711	770
412	830	184
413	98	703
414	87	24
415	470	72
416	105	368
417	726	616
418	540	15
419	290	290
420	527	451
421	927	434
422	97	986
423	834	275
424	692	186
425	455	443
426	26	78
427	539	82
428	574	915
429	71	30
430	595	305
431	383	89
432	373	169
433	915	19
434	221	114
435	966	59
436	6	282
437	357	276
438	194	40
439	898	397
440	731	961
441	16	975
442	38	259
443	372	278
444	115	508
445	721	603
446	631	91
447	462	494
448	266	518
449	79	463
450	191	612
451	240	826
452	719	329
453	209	217
454	521	907
455	854	142
456	333	985
457	245	912
458	400	73
459	264	391
460	820	43
461	947	307
462	962	991
463	913	692
464	767	301
465	138	209
466	776	708
467	657	727
468	311	946
469	151	552
470	402	408
471	148	961
472	635	700
473	39	400
474	7	143
475	382	89
476	925	947
477	713	300
478	246	556
479	472	396
480	405	631
481	618	535
482	846	268
483	197	636
484	845	49
485	947	436
486	207	510
487	336	475
488	524	844
489	313	112
490	957	912
491	367	560
492	419	62
493	135	431
494	907	428
495	5	358
496	650	669
497	436	781
498	959	690
499	602	590
500	298	779
501	891	269
DEMAND_SECTION
1	0
2	2
3	3
4	2
5	6
6	9
7	6
8	8
9	4
10	6
11	1
12	8
13	4
14	3
15	5
16	6
17	1
18	1
19	4
20	2
21	2
22	3
23	9
24	9
25	5
26	5
27	2
28	7
29	2
30	6
31	6
32	5
33	3
34	6
35	2
36	8
37	6
38	1
39	3
40	5
41	1
42	8
43	2
44	4
45	3
46	2
47	6
48	5
49	7
50	3
51	1
52	1
53	2
54	1
55	5
56	7
57	6
58	7
59	8
60	6
61	6
62	9
63	9
64	5
65	3
66	5
67	3
68	4
69	8
70	4
71	6
72	8
73	9
74	9
75	3
76	1
77	7
78	7
79	9
80	2
81	9
82	1
83	8
84	2
85	4
86	7
87	6
88	5
89	2
90	4
91	2
92	8
93	6
94	9
95	4
96	3
97	7
98	7
99	7
100	1
101	7
102	2
103	5
104	5
105	9
106	4
107	2
108	4
109	7
110	7
111	3
112	7
113	6
114	3
115	8
116	9
117	2
118	4
119	7
120	2
121	1
122	6
123	1
124	8
125	1
126	1
127	9
128	9
129	2
130	4
131	7
132	4
133	4
134	9
135	8
136	6
137	6
138	7
139	7
140	9
141	1
142	1
143	1
144	2
145	9
146	7
147	1
148	8
149	9
150	1
151	3
152	6
153	2
154	3
155	3
156	3
157	9
158	8
159	4
160	3
161	8
162	1
163	5
164	3
165	1
166	8
167	1
168	7
169	2
170	9
171	5
172	4
173	1
174	7
175	3
176	2
177	2
178	4
179	1
180	6
181	5
182	6
183	5
184	7
185	4
186	1
187	2
188	5
189	6
190	9
191	7
192	5
193	5
194	7
195	6
196	2
197	8
198	4
199	4
200	4
201	2
202	6
203	2
204	3
205	9
206	6
207	1
208	3
209	9
210	2
211	9
212	4
213	4
214	9
215	1
216	5
217	1
218	9
219	2
220	7
221	6
222	1
223	6
224	8
225	6
226	2
227	2
228	7
229	1
230	3
231	5
232	3
233	6
234	3
235	9
236	6
237	8
238	7
239	8
240	9
241	6
242	8
243	4
244	1
245	6
246	1
247	4
248	9
249	5
250	9
251	9
252	5
253	5
254	1
255	1
256	3
257	2
258	9
259	6
260	3
261	7
262	1
263	8
264	5
265	1
266	6
267	4
268	8
269	3
270	4
271	5
272	1
273	6
274	1
275	8
276	2
277	6
278	6
279	6
280	1
281	1
282	1
283	3
284	6
285	2
286	9
287	6
288	5
289	7
290	4
291	3
292	7
293	9
294	3
295	2
296	2
297	7
298	5
299	8
300	3
301	2
302	4
303	3
304	2
305	7
306	4
307	8
308	7
309	8
310	1
311	8
312	8
313	9
314	9
315	2
316	8
317	8
318	5
319	9
320	3
321	5
322	8
323	4
324	4
325	3
326	5
327	7
328	8
329	5
330	4
331	2
332	2
333	6
334	1
335	5
336	3
337	9
338	2
339	1
340	2
341	5
342	4
343	6
344	6
345	1
346	1
347	8
348	8
349	1
350	3
351	1
352	6
353	6
354	6
355	7
356	6
357	2
358	4
359	4
360	1
361	1
362	7
363	2
364	7
365	5
366	6
367	6
368	2
369	4
370	1
371	6
372	9
373	9
374	5
375	4
376	2
377	8
378	9
379	9
380	8
381	8
382	4
383	5
384	6
385	7
386	7
387	6
388	3
389	8
390	3
391	8
392	3
393	1
394	9
395	1
396	8
397	1
398	9
399	1
400	9
401	9
402	7
403	4
404	7
405	6
406	4
407	9
408	5
409	8
410	6
411	7
412	3
413	4
414	1
415	5
416	6
417	8
418	1
419	6
420	7
421	4
422	8
423	5
424	2
425	7
426	2
427	7
428	4
429	5
430	8
431	2
432	5
433	4
434	5
435	4
436	7
437	5
438	1
439	6
440	7
441	6
442	2
443	3
444	3
445	7
446	2
447	6
448	1
449	7
450	4
451	3
452	2
453	2
454	9
455	4
456	1
457	9
458	1
459	5
460	7
461	1
462	7
463	8
464	7
465	3
466	7
467	3
468	6
469	5
470	2
471	2
472	3
473	2
474	3
475	6
476	7
477	2
478	5
479	3
480	9
481	3
482	2
483	6
484	2
485	7
486	8
487	2
488	2
489	4
490	2
491	7
492	2
493	3
494	5
495	6
496	6
497	5
498	8
499	9
500	5
501	7
TIME_WINDOW_SECTION
1	0	3000
2	934	2751
3	661	2420
4	767	2325
5	1094	1538
6	441	1733
7	873	1193
8	672	2012
9	1202	1540
10	897	1468
11	676	2338
12	167	1469
13	888	2444
14	1204	2264
15	500	1502
16	1525	1960
17	805	2407
18	946	1252
19	1334	1793
20	633	1601
21	751	2458
22	525	2054
23	1164	1569
24	563	1907
25	1469	1736
26	388	1827
27	899	1866
28	677	907
29	1541	2040
30	1175	1735
31	753	2196
32	784	1982
33	647	1919
34	1589	1884
35	2290	2685
36	902	1437
37	1317	2007
38	1055	1914
39	434	2099
40	399	1578
41	665	2587
42	557	2441
43	475	1882
44	592	2048
45	193	2081
46	762	1986
47	1195	1438
48	245	2176
49	922	1225
50	780	1900
51	1030	2912
52	758	2244
53	1482	2251
54	1867	3000
55	965	1941
56	1350	1977
57	28	1982
58	922	1236
59	409	2314
60	519	2239
61	1128	1836
62	267	1291
63	640	2463
64	549	2220
65	526	1296
66	956	1737
67	0	1645
68	44	1871
69	1462	2058
70	993	1753
71	218	2060
72	660	1630
73	805	1749
74	137	2055
75	724	1261
76	939	2522
77	630	2621
78	1157	2457
79	422	2213
80	1201	1517
81	1102	1990
82	884	1620
83	565	2253
84	789	1554
85	800	2292
86	0	1332
87	557	1906
88	1245	3000
89	0	1817
90	535	1085
91	1697	2128
92	1093	2997
93	756	2013
94	1204	2801
95	938	1893
96	790	2039
97	492	2141
98	996	1982
99	745	1495
100	786	1465
101	1071	2031
102	1107	2199
103	806	1865
104	0	1651
105	302	1868
106	2176	3000
107	384	1922
108	1199	1720
109	164	1881
110	187	1737
111	879	1214
112	30	899
113	304	2007
114	992	1416
115	772	1198
116	1205	1973
117	2047	2773
118	472	2221
119	1103	2690
120	99	1466
121	921	1131
122	701	1363
123	1088	2380
124	674	1915
125	647	1134
126	0	955
127	511	2015
128	1602	1877
129	1336	2447
130	1328	1883
131	1559	2623
132	1321	2302
133	718	1829
134	0	1785
135	1479	2100
136	957	2910
137	265	2061
138	454	1531
139	729	2709
140	108	1815
141	297	803
142	910	1280
143	0	1010
144	626	1689
145	634	1837
146	1019	1607
147	1408	1682
148	372	1233
149	536	1620
150	452	2227
151	526	1266
152	55	858
153	319	2087
154	1835	2055
155	664	1362
156	1344	1750
157	838	1620
158	652	1887
159	105	1659
160	1164	1751
161	1049	1864
162	843	1811
163	455	1778
164	862	1458
165	1138	2362
166	412	1460
167	407	1242
168	1218	2013
169	713	2472
170	942	2553
171	1010	1218
172	423	1644
173	814	1072
174	372	2096
175	0	1212
176	963	1925
177	1	1794
178	312	1789
179	440	2432
180	983	2365
181	0	1450
182	700	2128
183	690	2194
184	116	850
185	785	1435
186	1320	2314
187	1334	2881
188	649	2431
189	999	2209
190	1021	1838
191	1547	1946
192	933	2625
193	1224	1631
194	1078	2253
195	513	1417
196	2083	2672
197	983	2092
198	224	1835
199	1395	1904
200	273	1045
201	1565	2817
202	466	1875
203	814	1471
204	849	1804
205	1253	3000
206	515	1285
207	993	2161
208	0	1624
209	1102	1834
210	587	1278
211	822	2655
212	634	1776
213	651	1467
214	1073	1460
215	189	2070
216	244	709
217	1125	3000
218	1537	2424
219	0	1508
220	955	1921
221	1128	2112
222	1216	1898
223	1449	1936
224	708	2055
225	1415	2460
226	558	2448
227	722	1664
228	1715	2133
229	868	1860
230	1417	1951
231	1154	2223
232	1341	2072
233	1473	1970
234	580	2504
235	357	1854
236	1013	1811
237	892	1741
238	651	2306
239	932	2660
240	1154	2387
241	767	2358
242	810	1263
243	1489	1988
244	64	1482
245	89	1633
246	1146	1657
247	135	927
248	1041	2097
249	0	1754
250	474	2066
251	787	2603
252	1168	1552
253	633	2378
254	901	2583
255	328	2081
256	433	2155
257	746	1576
258	1158	2304
259	1222	2654
260	407	1526
261	1033	2649
262	954	1671
263	1430	1750
264	0	1664
265	1031	2185
266	1526	2361
267	609	1276
268	550	1427
269	2108	2769
270	1493	1857
271	1285	1914
272	418	2308
273	139	2012
274	624	1479
275	0	1132
276	317	1407
277	915	1811
278	1337	1899
279	505	2151
280	988	1571
281	1292	1528
282	876	2556
283	511	1917
284	1025	2198
285	1236	1902
286	1047	2552
287	292	1975
288	1569	1844
289	1517	1779
290	1142	2038
291	1300	2306
292	481	1795
293	605	1747
294	997	1312
295	680	2173
296	593	1563
297	1155	2020
298	812	1830
299	1168	1394
300	412	1952
301	698	1202
302	1039	2014
303	640	2243
304	534	1751
305	0	1608
306	972	1778
307	967	2623
308	666	1900
309	1129	1548
310	375	2302
311	436	1050
312	1018	2739
313	284	1035
314	481	2310
315	603	2259
316	607	1609
317	0	1846
318	1361	2862
319	958	1476
320	969	1239
321	166	1909
322	1371	2315
323	1195	1870
324	1264	2934
325	17	910
326	1429	3000
327	717	1268
328	1639	1867
329	667	1826
330	132	1696
331	1102	2073
332	622	1973
333	991	1837
334	985	2372
335	289	2083
336	502	1620
337	566	1529
338	927	1452
339	857	1488
340	464	1411
341	638	1386
342	846	2425
343	1250	2463
344	1415	1712
345	885	1863
346	1189	1696
347	0	1142
348	454	2397
349	1411	1939
350	809	1875
351	870	1971
352	1280	1844
353	1088	2213
354	1289	1777
355	118	1529
356	787	1060
357	137	1402
358	168	1572
359	441	1936
360	1314	2328
361	692	1992
362	575	1061
363	851	2699
364	1205	2114
365	1959	2870
366	1070	1901
367	917	2082
368	986	2659
369	444	2310
370	0	1773
371	1010	1729
372	118	342
373	1229	3000
374	1185	1854
375	698	2076
376	454	798
377	898	2301
378	687	1455
379	447	2394
380	152	1557
381	1143	1647
382	0	1561
383	727	2190
384	1755	2165
385	1017	1359
386	421	2126
387	55	1315
388	703	1974
389	804	2611
390	174	1898
391	554	2440
392	1174	2488
393	857	2025
394	780	1463
395	676	2508
396	1041	1455
397	1043	1571
398	545	1366
399	778	1409
400	398	2011
401	712	2246
402	452	1032
403	1565	1772
404	866	1871
405	876	2039
406	254	2160
407	1352	2840
408	2113	2687
409	1388	2279
410	1443	1811
411	747	2695
412	540	1008
413	1187	1779
414	1046	1803
415	1096	2390
416	388	1719
417	725	1205
418	1166	1688
419	1190	1945
420	0	1577
421	567	1716
422	1541	2264
423	466	1070
424	1411	2382
425	367	1473
426	795	2080
427	1615	1840
428	1494	2830
429	693	2060
430	1208	2167
431	801	2632
432	568	1457
433	859	1914
434	1075	1756
435	1394	1933
436	1321	1696
437	654	1901
438	1162	1769
439	284	2219
440	1799	2121
441	89	1993
442	967	1398
443	695	1754
444	1313	2055
445	1662	2597
446	248	1822
447	652	1598
448	813	1491
449	846	2481
450	861	1557
451	578	1769
452	0	1621
453	795	1430
454	1935	2462
455	902	1413
456	1246	2416
457	877	2176
458	171	1989
459	559	2257
460	544	2348
461	1187	2544
462	462	1691
463	854	1576
464	429	1419
465	1071	1807
466	1069	2208
467	715	1084
468	775	1160
469	1000	2775
470	493	2232
471	258	1792
472	0	1035
473	967	2459
474	1205	1520
475	735	1480
476	1833	3000
477	653	2077
478	719	1312
479	391	2362
480	1177	1854
481	806	1461
482	0	1847
483	823	2398
484	1177	2618
485	1384	2865
486	514	1594
487	1534	2038
488	611	1991
489	1443	2010
490	1625	2170
491	1233	2483
492	874	2189
493	711	1576
494	1422	2816
495	1098	1995
496	1223	2012
497	1102	1953
498	1237	1850
499	644	1319
500	896	2651
501	0	1783
DEPOT_SECTION
1
-1
EOF
