NAME : n501-0042
COMMENT : "Generated by pyvrp_manuel (OVRPLTW)"
TYPE : OVRPLTW
DIMENSION : 501
EDGE_WEIGHT_TYPE : EUC_2D
CAPACITY : 100
VEHICLES : 500
OPEN_ROUTE : YES
DISTANCE : 3000
SERVICE_TIME : 200
NODE_COORD_SECTION
1	954	16
2	548	679
3	405	399
4	10	632
5	499	416
6	175	786
7	904	959
8	581	698
9	103	762
10	45	667
11	117	891
12	558	221
13	923	417
14	836	393
15	447	712
16	905	205
17	389	487
18	665	273
19	40	116
20	456	923
21	354	872
22	777	882
23	744	232
24	721	387
25	380	523
26	958	658
27	160	633
28	502	718
29	146	776
30	632	905
31	393	317
32	36	594
33	969	165
34	854	520
35	56	5
36	36	978
37	201	93
38	802	633
39	676	672
40	636	730
41	284	980
42	785	662
43	546	338
44	233	92
45	375	377
46	942	462
47	544	462
48	156	970
49	624	571
50	943	462
51	546	875
52	62	366
53	823	89
54	208	339
55	928	525
56	932	955
57	313	257
58	763	200
59	106	355
60	992	260
61	123	893
62	245	777
63	66	259
64	123	963
65	92	236
66	252	901
67	104	599
68	810	220
69	984	879
70	540	936
71	383	316
72	14	14
73	743	70
74	183	438
75	932	514
76	80	256
77	28	372
78	326	168
79	590	789
80	332	68
81	227	378
82	323	588
83	462	407
84	955	405
85	487	508
86	674	412
87	17	77
88	304	280
89	166	438
90	672	957
91	768	41
92	585	180
93	655	435
94	551	150
95	548	533
96	614	892
97	166	605
98	717	668
99	909	104
100	613	874
101	504	513
102	676	165
103	42	381
104	690	252
105	951	557
106	953	274
107	17	610
108	430	589
109	841	690
110	17	380
111	470	7
112	554	283
113	746	738
114	200	888
115	631	743
116	747	381
117	129	295
118	557	629
119	581	147
120	527	740
121	952	499
122	13	361
123	791	118
124	1	39
125	791	404
126	640	546
127	328	974
128	724	465
129	36	333
130	656	42
131	661	959
132	300	263
133	983	159
134	157	601
135	871	922
136	385	265
137	882	332
138	371	689
139	568	480
140	300	589
141	270	964
142	52	984
143	555	406
144	40	843
145	626	810
146	667	544
147	549	628
148	381	597
149	231	396
150	245	181
151	355	867
152	150	105
153	133	261
154	507	336
155	951	653
156	296	311
157	109	718
158	863	678
159	862	621
160	342	563
161	821	210
162	118	814
163	872	141
164	762	451
165	916	29
166	524	490
167	672	810
168	824	131
169	637	327
170	140	337
171	376	863
172	557	906
173	770	588
174	786	443
175	341	589
176	853	442
177	861	55
178	382	548
179	484	406
180	274	753
181	200	433
182	891	507
183	323	812
184	762	457
185	797	114
186	515	273
187	324	955
188	108	378
189	107	719
190	3	709
191	564	957
192	88	332
193	646	707
194	643	662
195	506	229
196	45	289
197	763	792
198	82	433
199	248	5
200	443	9
201	764	264
202	150	931
203	918	952
204	47	802
205	821	605
206	610	263
207	815	962
208	300	408
209	601	35
210	31	304
211	946	755
212	921	117
213	597	356
214	678	332
215	470	335
216	946	973
217	958	325
218	772	104
219	968	590
220	645	265
221	561	184
222	451	881
223	450	298
224	874	360
225	29	267
226	119	613
227	734	917
228	660	78
229	679	393
230	288	576
231	713	549
232	919	219
233	773	202
234	523	356
235	714	721
236	353	388
237	180	58
238	41	859
239	435	684
240	787	996
241	547	953
242	788	197
243	823	995
244	368	364
245	702	67
246	874	960
247	888	708
248	808	491
249	570	847
250	917	175
251	94	174
252	480	509
253	768	552
254	348	87
255	25	535
256	757	247
257	310	714
258	785	297
259	887	269
260	457	572
261	126	390
262	506	647
263	613	888
264	863	223
265	53	912
266	586	232
267	915	628
268	665	520
269	447	201
270	568	133
271	923	237
272	754	754
273	64	705
274	398	993
275	522	18
276	745	727
277	613	305
278	739	593
279	870	631
280	239	258
281	611	808
282	984	934
283	141	883
284	586	521
285	605	242
286	101	242
287	503	66
288	981	713
289	901	409
290	482	856
291	357	115
292	822	938
293	955	556
294	248	614
295	918	264
296	814	216
297	135	377
298	497	363
299	398	961
300	631	195
301	637	685
302	830	948
303	620	990
304	55	628
305	706	998
306	445	808
307	572	366
308	350	517
309	486	321
310	440	15
311	993	623
312	376	322
313	685	910
314	258	193
315	269	864
316	450	936
317	263	313
318	662	507
319	669	411
320	260	131
321	541	218
322	170	719
323	672	401
324	651	267
325	833	777
326	154	371
327	860	18
328	614	641
329	954	908
330	309	80
331	515	402
332	169	656
333	347	399
334	361	310
335	204	393
336	195	758
337	615	491
338	118	717
339	913	144
340	414	23
341	463	367
342	188	193
343	172	545
344	194	885
345	491	600
346	809	424
347	749	247
348	76	94
349	960	452
350	506	630
351	821	770
352	131	226
353	422	394
354	347	202
355	646	499
356	706	885
357	845	650
358	473	271
359	740	355
360	508	937
361	547	917
362	719	486
363	244	624
364	62	381
365	113	685
366	490	907
367	336	280
368	365	325
369	260	948
370	777	844
371	754	725
372	908	885
373	842	423
374	914	458
375	261	706
376	733	36
377	244	868
378	511	360
379	395	45
380	553	953
381	75	911
382	646	450
383	886	128
384	820	278
385	873	726
386	392	238
387	565	180
388	948	355
389	63	636
390	831	651
391	612	417
392	193	548
393	205	306
394	996	73
395	278	489
396	679	991
397	793	400
398	896	861
399	777	812
400	288	604
401	505	495
402	452	86
403	659	667
404	639	806
405	312	597
406	663	457
407	36	427
408	669	40
409	665	770
410	373	539
411	534	601
412	914	816
413	545	847
414	202	141
415	417	667
416	951	829
417	402	893
418	579	723
419	577	648
420	280	970
421	793	499
422	176	282
423	304	430
424	187	393
425	7	406
426	613	968
427	274	338
428	276	934
429	944	289
430	252	801
431	162	296
432	453	205
433	607	570
434	916	260
435	222	853
436	810	43
437	191	138
438	348	445
439	445	993
440	74	854
441	874	953
442	146	479
443	28	399
444	932	524
445	50	171
446	572	884
447	39	561
448	977	758
449	15	63
450	469	48
451	625	685
452	744	820
453	92	482
454	369	989
455	448	238
456	474	893
457	56	563
458	423	199
459	305	120
460	232	957
461	845	120
462	747	196
463	638	108
464	383	246
465	670	674
466	330	266
467	118	796
468	601	520
469	973	144
470	927	949
471	653	312
472	744	878
473	409	472
474	381	578
475	912	939
476	589	930
477	852	234
478	912	649
479	528	252
480	160	622
481	227	368
482	307	687
483	432	78
484	946	783
485	31	146
486	807	238
487	75	385
488	746	898
489	942	328
490	287	320
491	900	857
492	272	206
493	447	339
494	69	635
495	699	587
496	367	870
497	25	765
498	224	137
499	624	860
500	688	324
501	466	946
DEMAND_SECTION
1	0
2	8
3	9
4	3
5	6
6	5
7	3
8	9
9	8
10	9
11	9
12	4
13	5
14	6
15	1
16	6
17	3
18	8
19	8
20	7
21	9
22	7
23	5
24	3
25	1
26	9
27	4
28	6
29	8
30	7
31	4
32	4
33	6
34	2
35	5
36	6
37	9
38	6
39	2
40	1
41	3
42	9
43	6
44	6
45	7
46	2
47	1
48	8
49	8
50	7
51	9
52	2
53	9
54	5
55	2
56	1
57	9
58	8
59	8
60	2
61	4
62	2
63	2
64	3
65	1
66	8
67	6
68	3
69	4
70	9
71	6
72	6
73	6
74	1
75	9
76	9
77	8
78	1
79	2
80	1
81	8
82	2
83	6
84	8
85	6
86	4
87	7
88	8
89	1
90	7
91	6
92	4
93	6
94	4
95	5
96	8
97	8
98	7
99	1
100	1
101	9
102	3
103	8
104	2
105	9
106	8
107	9
108	3
109	5
110	9
111	4
112	3
113	2
114	9
115	7
116	8
117	1
118	9
119	6
120	2
121	4
122	5
123	5
124	2
125	8
126	2
127	1
128	4
129	5
130	1
131	1
132	3
133	6
134	2
135	8
136	1
137	6
138	9
139	2
140	1
141	9
142	6
143	6
144	1
145	4
146	9
147	7
148	6
149	7
150	3
151	7
152	7
153	1
154	4
155	4
156	9
157	1
158	5
159	1
160	1
161	8
162	7
163	2
164	7
165	7
166	8
167	3
168	1
169	5
170	1
171	7
172	9
173	3
174	5
175	9
176	5
177	9
178	9
179	9
180	7
181	9
182	5
183	8
184	3
185	6
186	2
187	9
188	1
189	1
190	9
191	9
192	3
193	6
194	5
195	6
196	3
197	5
198	6
199	5
200	7
201	3
202	2
203	6
204	5
205	7
206	8
207	7
208	9
209	2
210	3
211	4
212	8
213	1
214	6
215	1
216	7
217	7
218	3
219	9
220	1
221	4
222	3
223	6
224	8
225	7
226	3
227	5
228	8
229	5
230	7
231	3
232	6
233	8
234	3
235	5
236	9
237	6
238	9
239	3
240	9
241	4
242	1
243	3
244	6
245	2
246	9
247	5
248	1
249	4
250	2
251	6
252	9
253	1
254	9
255	6
256	3
257	9
258	9
259	3
260	5
261	3
262	3
263	1
264	8
265	1
266	7
267	8
268	4
269	1
270	2
271	7
272	9
273	1
274	4
275	9
276	6
277	1
278	2
279	4
280	4
281	2
282	5
283	2
284	2
285	8
286	8
287	1
288	6
289	7
290	2
291	4
292	3
293	3
294	2
295	7
296	3
297	8
298	7
299	5
300	6
301	5
302	5
303	6
304	4
305	2
306	8
307	8
308	1
309	7
310	5
311	9
312	1
313	8
314	7
315	8
316	5
317	3
318	3
319	2
320	7
321	9
322	6
323	9
324	1
325	8
326	8
327	8
328	4
329	7
330	7
331	4
332	6
333	4
334	4
335	9
336	7
337	6
338	9
339	7
340	6
341	4
342	3
343	6
344	5
345	9
346	9
347	2
348	2
349	1
350	3
351	6
352	7
353	6
354	4
355	5
356	3
357	6
358	2
359	2
360	5
361	9
362	8
363	3
364	6
365	1
366	4
367	4
368	9
369	1
370	8
371	2
372	7
373	3
374	8
375	9
376	9
377	6
378	1
379	4
380	1
381	9
382	9
383	2
384	6
385	4
386	7
387	6
388	4
389	3
390	9
391	1
392	4
393	1
394	4
395	7
396	3
397	2
398	1
399	2
400	6
401	2
402	4
403	4
404	9
405	3
406	9
407	5
408	8
409	8
410	5
411	6
412	3
413	1
414	2
415	4
416	6
417	3
418	8
419	7
420	6
421	8
422	4
423	4
424	8
425	4
426	6
427	8
428	2
429	9
430	1
431	6
432	1
433	6
434	6
435	2
436	9
437	4
438	2
439	4
440	5
441	6
442	6
443	9
444	9
445	5
446	3
447	9
448	6
449	6
450	1
451	4
452	7
453	3
454	3
455	2
456	3
457	1
458	9
459	9
460	7
461	9
462	9
463	9
464	3
465	8
466	3
467	8
468	8
469	5
470	4
471	5
472	8
473	3
474	4
475	2
476	1
477	9
478	2
479	5
480	9
481	5
482	4
483	3
484	5
485	3
486	1
487	6
488	9
489	9
490	3
491	8
492	1
493	4
494	5
495	4
496	5
497	8
498	5
499	9
500	2
501	5
TIME_WINDOW_SECTION
1	0	3000
2	144	1685
3	215	1995
4	633	2217
5	0	1632
6	834	1555
7	1434	1677
8	113	2080
9	1148	1935
10	896	2333
11	691	1732
12	0	1481
13	1209	1592
14	0	1337
15	535	1969
16	904	2706
17	507	1194
18	1571	2244
19	886	2131
20	1155	2358
21	589	2500
22	1088	2467
23	1036	2568
24	0	1270
25	19	1814
26	808	2242
27	581	2251
28	1021	2477
29	610	2547
30	1057	2316
31	759	976
32	795	2545
33	1947	2656
34	715	1110
35	1018	1704
36	614	2105
37	1215	2191
38	1382	1992
39	1049	1582
40	0	1943
41	571	1913
42	0	1572
43	1451	1910
44	1753	2020
45	993	1315
46	1460	2894
47	1103	2937
48	1176	1540
49	323	1959
50	398	1797
51	1485	1699
52	654	1433
53	2119	2957
54	589	2195
55	1328	2316
56	979	2425
57	156	1383
58	1416	2883
59	1232	2511
60	0	1266
61	419	2238
62	610	2020
63	150	1854
64	1219	1534
65	1426	1652
66	576	2048
67	352	2203
68	709	1514
69	648	1099
70	588	2110
71	1317	2346
72	349	1946
73	247	752
74	1295	1944
75	1876	2338
76	621	2218
77	1203	1824
78	46	1478
79	619	1450
80	228	2033
81	859	2315
82	912	2297
83	306	1110
84	1273	2145
85	1206	1773
86	0	1871
87	1509	1988
88	579	1297
89	1139	2317
90	292	2013
91	2175	2452
92	459	1798
93	1473	2047
94	840	2542
95	801	1181
96	320	2195
97	670	2270
98	445	1273
99	932	2458
100	946	2740
101	1392	2803
102	1336	2430
103	677	1313
104	1862	2982
105	1364	2225
106	266	469
107	1030	2120
108	865	2828
109	688	1525
110	1543	1802
111	1825	2634
112	1955	2379
113	591	1912
114	1070	1483
115	765	2133
116	0	1506
117	1148	1690
118	765	1879
119	994	2028
120	984	1354
121	545	887
122	162	1868
123	747	1750
124	341	1800
125	0	1975
126	315	1886
127	504	2256
128	429	763
129	85	1944
130	145	489
131	759	2709
132	508	2348
133	1071	3000
134	874	2207
135	1358	1581
136	1714	2152
137	1096	2475
138	361	2295
139	716	1775
140	928	2082
141	1281	1925
142	956	1880
143	1088	1499
144	1111	1499
145	571	1589
146	297	2243
147	279	1916
148	1101	2333
149	1474	2361
150	1414	2201
151	851	2007
152	794	1097
153	1113	2157
154	911	2269
155	1235	1505
156	966	2631
157	873	1424
158	456	920
159	723	1909
160	971	2393
161	958	2913
162	1308	1530
163	1179	2587
164	0	1283
165	0	1023
166	709	951
167	1225	2626
168	1659	2720
169	1533	2586
170	418	2027
171	1256	1694
172	777	2409
173	866	1399
174	1549	1836
175	1397	2040
176	1529	1892
177	0	1419
178	1740	2064
179	1131	3000
180	296	2250
181	239	1722
182	1469	2879
183	803	1352
184	458	1470
185	324	2069
186	502	1409
187	484	1834
188	880	1622
189	789	1548
190	818	1555
191	1416	1921
192	448	1831
193	1027	2864
194	1183	2696
195	292	2210
196	733	1959
197	94	1966
198	1242	1831
199	1201	2704
200	1494	2817
201	415	1543
202	1278	1685
203	840	1769
204	681	2059
205	743	2202
206	1277	2716
207	751	1248
208	1514	2194
209	170	761
210	1130	1489
211	1488	2481
212	1973	2434
213	0	1841
214	945	2933
215	429	1919
216	1122	1592
217	1670	3000
218	1789	2718
219	570	2471
220	1002	2541
221	828	1656
222	985	2591
223	1329	2352
224	298	1379
225	971	2289
226	147	2087
227	803	1751
228	1282	3000
229	0	1354
230	1197	2151
231	1314	1688
232	935	1667
233	1011	1302
234	347	1094
235	1055	2246
236	1422	2239
237	755	2191
238	1152	1602
239	1058	1706
240	717	2257
241	592	1581
242	307	2110
243	322	2309
244	1139	2061
245	423	1913
246	347	1934
247	560	983
248	752	2432
249	874	1628
250	557	1347
251	984	1661
252	904	2454
253	188	1604
254	261	1068
255	182	1962
256	1449	2168
257	755	1854
258	923	2736
259	717	962
260	771	1441
261	1028	1434
262	1613	1872
263	886	2653
264	0	1435
265	907	1928
266	1878	2163
267	619	1369
268	0	1505
269	1511	2967
270	1764	2055
271	658	1589
272	257	2109
273	518	2414
274	500	1845
275	203	1642
276	624	2609
277	2115	2497
278	1261	2304
279	471	1906
280	1046	2282
281	668	1793
282	607	1316
283	844	2231
284	1367	2695
285	1290	2314
286	587	2056
287	568	1096
288	872	1853
289	153	1788
290	1233	1692
291	1032	2518
292	780	1691
293	911	1759
294	767	2437
295	562	1218
296	0	1151
297	404	1846
298	316	2124
299	869	2069
300	1738	2012
301	1094	2720
302	427	1461
303	1575	1901
304	1025	1988
305	861	2654
306	188	1750
307	118	1799
308	759	1887
309	738	1504
310	484	2205
311	1809	2477
312	446	1528
313	1711	1986
314	1437	1963
315	480	1756
316	1508	1721
317	549	1760
318	844	1973
319	1985	2320
320	559	1273
321	695	2241
322	755	2701
323	1758	2603
324	43	1940
325	478	2470
326	795	2090
327	1074	1609
328	434	1628
329	1432	1921
330	548	1551
331	371	1461
332	340	1710
333	302	1235
334	1435	1989
335	878	1244
336	597	2280
337	1574	2312
338	1182	1451
339	0	1523
340	476	2259
341	1128	2836
342	973	1835
343	958	1286
344	1168	1895
345	1503	1829
346	609	2276
347	588	2236
348	966	2333
349	184	1127
350	966	1176
351	302	1873
352	670	2090
353	1334	1847
354	675	1899
355	1033	2443
356	0	1818
357	1698	2340
358	459	686
359	47	821
360	869	2466
361	512	1829
362	230	1993
363	369	1878
364	838	1350
365	1141	2184
366	742	1425
367	740	2529
368	1507	2201
369	361	1969
370	277	1507
371	924	1794
372	371	1542
373	569	1800
374	1723	2259
375	478	2473
376	833	1776
377	605	2590
378	609	1146
379	1363	2141
380	930	1186
381	1116	1946
382	903	2667
383	1874	3000
384	2066	2725
385	1556	2378
386	1246	2369
387	0	1562
388	1671	2554
389	1386	1677
390	958	2846
391	1064	2983
392	452	1521
393	890	2586
394	1658	3000
395	223	1889
396	1119	1480
397	1335	3000
398	671	1454
399	890	1922
400	452	1510
401	975	1641
402	899	1357
403	1193	1771
404	774	1315
405	1308	1534
406	1033	2774
407	733	2462
408	321	2209
409	1300	1703
410	594	1164
411	1451	2413
412	1321	2240
413	517	2129
414	634	1028
415	360	1339
416	671	2539
417	640	2608
418	271	2017
419	1307	2459
420	604	2588
421	1420	2004
422	955	1377
423	1276	1678
424	744	2000
425	627	2053
426	64	1966
427	948	1389
428	1251	1937
429	2012	2471
430	741	2156
431	292	1508
432	360	2240
433	453	1211
434	789	2130
435	972	2189
436	1023	2857
437	700	2416
438	1239	1611
439	299	1954
440	769	1822
441	311	2053
442	250	1761
443	665	1435
444	341	1180
445	367	2092
446	427	2418
447	1110	1799
448	1704	2013
449	377	1631
450	1835	2181
451	1337	1880
452	745	2168
453	770	1219
454	681	2183
455	1111	1739
456	590	2457
457	363	2007
458	1562	2556
459	49	1571
460	880	2249
461	1278	3000
462	2019	3000
463	362	2131
464	770	2731
465	625	1114
466	662	1699
467	739	1609
468	1357	2556
469	195	884
470	640	1488
471	673	1907
472	889	2733
473	519	1726
474	770	1006
475	608	1474
476	1255	1516
477	913	2749
478	588	1472
479	1693	2118
480	1262	2314
481	711	1774
482	739	1464
483	549	2211
484	1166	2153
485	344	1946
486	996	2994
487	340	1751
488	159	2117
489	1698	2060
490	1076	2630
491	1367	2400
492	603	1275
493	235	1186
494	1082	1635
495	883	1980
496	299	1776
497	372	2340
498	392	2028
499	973	2300
500	1208	3000
501	1086	1356
DEPOT_SECTION
1
-1
EOF
