NAME : n501-0003
COMMENT : "Generated by pyvrp_manuel (OVRPLTW)"
TYPE : OVRPLTW
DIMENSION : 501
EDGE_WEIGHT_TYPE : EUC_2D
CAPACITY : 100
VEHICLES : 500
OPEN_ROUTE : YES
DISTANCE : 3000
SERVICE_TIME : 200
NODE_COORD_SECTION
1	916	211
2	393	554
3	124	565
4	986	82
5	995	739
6	259	25
7	838	682
8	6	325
9	684	250
10	775	129
11	509	411
12	916	867
13	855	797
14	438	631
15	296	894
16	392	685
17	612	506
18	451	508
19	428	27
20	821	633
21	983	488
22	933	662
23	357	63
24	701	693
25	597	7
26	780	964
27	451	575
28	870	597
29	53	713
30	280	350
31	46	470
32	911	516
33	557	437
34	833	378
35	78	958
36	810	256
37	948	170
38	420	290
39	163	655
40	325	731
41	775	291
42	38	721
43	560	448
44	20	96
45	52	511
46	569	498
47	877	635
48	689	323
49	938	404
50	446	416
51	386	258
52	720	91
53	691	558
54	968	618
55	911	874
56	332	976
57	57	370
58	139	127
59	287	315
60	41	368
61	733	842
62	185	841
63	356	323
64	771	224
65	356	356
66	349	691
67	138	241
68	570	814
69	75	344
70	586	805
71	879	300
72	555	51
73	495	587
74	297	87
75	171	549
76	643	126
77	534	108
78	671	188
79	213	624
80	121	237
81	689	508
82	572	791
83	980	128
84	172	34
85	273	339
86	628	949
87	513	895
88	90	350
89	997	15
90	835	573
91	808	70
92	171	60
93	180	705
94	811	720
95	65	133
96	369	878
97	144	796
98	659	3
99	109	201
100	948	804
101	8	972
102	344	840
103	225	891
104	708	98
105	220	290
106	490	573
107	233	301
108	762	310
109	253	853
110	138	694
111	489	684
112	735	579
113	109	170
114	437	582
115	702	562
116	312	488
117	705	386
118	485	303
119	386	390
120	933	626
121	454	483
122	462	125
123	358	407
124	920	628
125	623	335
126	659	484
127	116	251
128	709	782
129	763	898
130	329	93
131	564	267
132	628	340
133	383	340
134	856	594
135	609	544
136	926	166
137	278	23
138	85	660
139	347	242
140	12	455
141	678	564
142	714	463
143	369	704
144	63	229
145	681	169
146	783	917
147	24	592
148	80	603
149	805	462
150	503	544
151	396	431
152	992	721
153	486	529
154	353	930
155	664	527
156	892	636
157	52	723
158	417	257
159	392	465
160	302	883
161	926	811
162	138	164
163	284	367
164	490	881
165	206	464
166	461	707
167	450	480
168	14	887
169	645	538
170	839	976
171	669	729
172	270	875
173	557	746
174	133	885
175	179	642
176	810	36
177	386	374
178	171	180
179	752	621
180	957	273
181	285	29
182	642	966
183	686	290
184	347	227
185	666	796
186	184	134
187	475	377
188	803	818
189	157	872
190	188	738
191	866	468
192	16	218
193	112	513
194	690	840
195	592	804
196	944	224
197	746	646
198	548	305
199	336	948
200	34	800
201	25	418
202	764	913
203	688	190
204	867	244
205	357	974
206	934	59
207	138	501
208	974	586
209	880	5
210	730	765
211	817	784
212	846	256
213	473	279
214	977	899
215	168	109
216	554	148
217	930	932
218	856	324
219	563	833
220	594	889
221	693	610
222	545	377
223	507	24
224	298	37
225	731	813
226	775	399
227	18	422
228	671	392
229	131	945
230	497	655
231	184	646
232	286	936
233	62	775
234	364	777
235	364	390
236	933	353
237	535	706
238	706	104
239	154	680
240	577	351
241	81	201
242	221	228
243	101	600
244	400	56
245	783	240
246	771	633
247	593	985
248	577	71
249	183	825
250	54	579
251	426	150
252	81	654
253	708	832
254	336	733
255	699	116
256	863	948
257	950	335
258	453	998
259	975	773
260	740	243
261	531	976
262	850	88
263	576	641
264	162	898
265	788	697
266	471	689
267	798	832
268	923	382
269	979	327
270	180	933
271	49	802
272	981	894
273	891	837
274	233	987
275	15	715
276	663	423
277	669	850
278	103	247
279	802	498
280	262	985
281	420	558
282	382	305
283	262	723
284	274	272
285	896	631
286	626	165
287	204	387
288	707	829
289	772	922
290	454	345
291	283	537
292	955	920
293	709	921
294	645	840
295	533	724
296	478	714
297	36	967
298	181	626
299	186	0
300	188	204
301	993	992
302	773	756
303	826	604
304	163	880
305	475	489
306	253	699
307	31	65
308	130	801
309	830	712
310	52	412
311	230	158
312	7	145
313	593	320
314	447	889
315	226	300
316	628	473
317	704	211
318	5	242
319	295	286
320	965	826
321	504	445
322	876	510
323	581	120
324	711	524
325	365	896
326	764	112
327	883	787
328	169	381
329	293	500
330	884	83
331	80	284
332	974	125
333	2	559
334	608	57
335	980	342
336	17	416
337	713	393
338	195	378
339	893	164
340	132	511
341	95	262
342	25	69
343	435	982
344	672	319
345	7	455
346	245	16
347	806	4
348	994	145
349	150	490
350	118	258
351	70	44
352	843	538
353	96	343
354	430	333
355	841	468
356	33	123
357	195	200
358	439	495
359	953	940
360	730	370
361	637	913
362	386	431
363	208	604
364	712	654
365	418	914
366	765	689
367	362	33
368	312	989
369	205	327
370	751	632
371	564	273
372	713	760
373	913	499
374	431	420
375	429	548
376	288	680
377	616	186
378	817	363
379	924	363
380	805	980
381	254	364
382	485	676
383	386	707
384	891	924
385	139	113
386	546	333
387	604	775
388	408	216
389	193	545
390	110	118
391	976	432
392	100	945
393	102	210
394	697	402
395	739	42
396	567	155
397	869	652
398	803	897
399	917	367
400	883	204
401	24	770
402	635	902
403	455	489
404	385	897
405	897	91
406	17	52
407	800	724
408	58	931
409	632	356
410	74	961
411	122	444
412	726	451
413	583	960
414	422	682
415	704	781
416	11	540
417	840	412
418	385	683
419	238	592
420	822	731
421	957	240
422	717	670
423	525	42
424	562	779
425	311	852
426	467	883
427	929	276
428	195	635
429	90	834
430	70	254
431	516	941
432	264	348
433	774	289
434	779	747
435	23	162
436	759	838
437	579	578
438	425	893
439	333	85
440	995	541
441	877	357
442	493	870
443	394	503
444	460	202
445	863	539
446	142	121
447	159	643
448	503	825
449	767	48
450	786	814
451	631	258
452	51	50
453	764	646
454	749	271
455	364	957
456	84	691
457	484	685
458	413	264
459	576	339
460	379	723
461	759	300
462	155	380
463	15	647
464	17	150
465	852	883
466	737	1000
467	648	382
468	469	181
469	256	300
470	672	686
471	87	252
472	358	175
473	327	831
474	308	598
475	555	370
476	793	396
477	672	230
478	349	642
479	510	784
480	179	680
481	751	732
482	708	592
483	446	60
484	620	552
485	296	572
486	4	785
487	587	442
488	747	265
489	947	890
490	684	881
491	447	953
492	42	701
493	174	511
494	831	124
495	179	88
496	435	771
497	601	735
498	823	839
499	196	611
500	440	99
501	254	682
DEMAND_SECTION
1	0
2	3
3	5
4	3
5	5
6	6
7	3
8	2
9	6
10	9
11	9
12	1
13	8
14	2
15	9
16	8
17	4
18	6
19	1
20	6
21	3
22	9
23	8
24	8
25	9
26	5
27	4
28	7
29	2
30	8
31	5
32	6
33	8
34	8
35	3
36	7
37	4
38	4
39	1
40	7
41	4
42	9
43	5
44	3
45	3
46	7
47	8
48	6
49	7
50	9
51	5
52	4
53	7
54	4
55	2
56	6
57	2
58	5
59	6
60	3
61	2
62	5
63	6
64	4
65	8
66	7
67	1
68	5
69	7
70	5
71	5
72	5
73	6
74	4
75	1
76	2
77	5
78	7
79	6
80	3
81	6
82	4
83	2
84	6
85	4
86	4
87	1
88	6
89	1
90	5
91	6
92	4
93	8
94	8
95	5
96	6
97	3
98	2
99	1
100	6
101	1
102	5
103	3
104	3
105	2
106	8
107	4
108	3
109	5
110	6
111	9
112	4
113	5
114	6
115	1
116	2
117	3
118	8
119	2
120	8
121	1
122	3
123	2
124	9
125	2
126	1
127	1
128	7
129	1
130	6
131	1
132	2
133	8
134	4
135	2
136	5
137	3
138	1
139	6
140	7
141	1
142	9
143	6
144	8
145	3
146	6
147	6
148	4
149	1
150	4
151	5
152	5
153	1
154	9
155	8
156	6
157	2
158	2
159	4
160	7
161	9
162	3
163	4
164	9
165	9
166	7
167	4
168	3
169	2
170	3
171	9
172	5
173	4
174	4
175	9
176	3
177	2
178	4
179	3
180	5
181	6
182	2
183	8
184	2
185	8
186	8
187	8
188	3
189	4
190	6
191	9
192	6
193	2
194	6
195	4
196	6
197	3
198	1
199	7
200	4
201	5
202	4
203	9
204	6
205	5
206	2
207	6
208	3
209	2
210	7
211	8
212	4
213	4
214	3
215	8
216	8
217	2
218	8
219	7
220	3
221	6
222	6
223	9
224	3
225	9
226	9
227	4
228	3
229	6
230	8
231	6
232	2
233	8
234	7
235	8
236	5
237	8
238	3
239	9
240	8
241	9
242	8
243	2
244	4
245	6
246	7
247	3
248	1
249	8
250	9
251	2
252	9
253	4
254	1
255	9
256	1
257	6
258	9
259	9
260	3
261	5
262	2
263	2
264	8
265	4
266	1
267	3
268	4
269	2
270	8
271	3
272	4
273	4
274	6
275	7
276	6
277	1
278	3
279	4
280	9
281	1
282	2
283	8
284	4
285	8
286	3
287	5
288	9
289	6
290	4
291	9
292	5
293	8
294	8
295	4
296	8
297	1
298	6
299	2
300	6
301	6
302	1
303	7
304	2
305	7
306	5
307	7
308	6
309	5
310	7
311	5
312	9
313	6
314	2
315	7
316	4
317	5
318	6
319	9
320	5
321	3
322	8
323	2
324	2
325	8
326	2
327	7
328	4
329	8
330	4
331	7
332	3
333	5
334	4
335	3
336	8
337	5
338	8
339	7
340	9
341	3
342	6
343	3
344	4
345	4
346	4
347	1
348	5
349	3
350	8
351	6
352	5
353	9
354	5
355	2
356	8
357	2
358	1
359	3
360	8
361	6
362	9
363	6
364	3
365	8
366	1
367	3
368	9
369	3
370	2
371	5
372	6
373	7
374	5
375	2
376	4
377	3
378	7
379	7
380	4
381	7
382	9
383	8
384	1
385	2
386	7
387	3
388	8
389	4
390	7
391	8
392	9
393	9
394	1
395	3
396	5
397	8
398	5
399	8
400	1
401	3
402	5
403	1
404	8
405	8
406	6
407	8
408	1
409	2
410	1
411	4
412	2
413	2
414	9
415	1
416	1
417	2
418	3
419	6
420	8
421	7
422	3
423	3
424	5
425	4
426	1
427	9
428	6
429	7
430	2
431	7
432	2
433	8
434	1
435	4
436	2
437	9
438	2
439	5
440	1
441	3
442	5
443	2
444	2
445	4
446	7
447	9
448	3
449	6
450	8
451	8
452	6
453	4
454	3
455	5
456	2
457	5
458	1
459	9
460	2
461	8
462	2
463	4
464	1
465	2
466	3
467	9
468	1
469	1
470	8
471	6
472	9
473	5
474	1
475	3
476	6
477	5
478	5
479	1
480	5
481	8
482	6
483	4
484	2
485	8
486	8
487	7
488	5
489	7
490	2
491	7
492	1
493	7
494	9
495	4
496	9
497	9
498	9
499	5
500	7
501	5
TIME_WINDOW_SECTION
1	0	3000
2	1767	2302
3	854	2033
4	979	1199
5	1361	1995
6	481	1720
7	474	2075
8	1120	2524
9	1700	2772
10	1167	1431
11	1376	2683
12	57	1997
13	0	1584
14	989	2780
15	172	2155
16	1247	2613
17	487	1414
18	537	1590
19	554	792
20	1811	2366
21	1098	3000
22	650	1752
23	1244	2945
24	704	2302
25	1035	1969
26	1102	2547
27	1503	2707
28	1766	2952
29	1110	1478
30	538	1159
31	0	1901
32	1578	2465
33	702	2667
34	125	1603
35	721	1797
36	1981	3000
37	2117	3000
38	746	1608
39	1174	2048
40	1329	1791
41	1456	1766
42	787	1265
43	1258	2415
44	1486	2134
45	1349	1603
46	2108	2412
47	1729	2923
48	1358	3000
49	2350	2697
50	106	924
51	837	1433
52	89	1879
53	963	2482
54	1360	2982
55	369	1770
56	895	1581
57	733	1486
58	465	2434
59	720	1161
60	988	2178
61	1381	2720
62	1545	1884
63	992	2029
64	1211	2327
65	663	1964
66	620	1334
67	351	1363
68	603	1722
69	1274	2545
70	644	1272
71	865	1267
72	1615	3000
73	652	2156
74	1237	2502
75	602	2304
76	1614	2477
77	296	1234
78	0	1441
79	728	2625
80	1139	1626
81	344	2080
82	946	2458
83	1819	2811
84	913	1271
85	847	2491
86	1153	2791
87	0	1812
88	1034	1368
89	0	1282
90	484	2037
91	2360	2562
92	1004	2221
93	836	1329
94	437	2130
95	881	2438
96	421	1738
97	947	2329
98	1502	2502
99	1071	2846
100	1972	2186
101	297	2230
102	906	1730
103	1010	1985
104	261	1001
105	610	1460
106	0	1500
107	612	1512
108	1421	2300
109	383	1716
110	720	1702
111	1848	2077
112	865	1382
113	797	1625
114	1244	1868
115	1666	2932
116	1313	2739
117	328	723
118	534	2061
119	1354	2508
120	574	2449
121	226	1601
122	0	1449
123	395	1063
124	1778	2211
125	0	1488
126	699	1480
127	141	1833
128	1107	1580
129	465	1186
130	392	2282
131	310	804
132	773	2554
133	251	1284
134	1719	2956
135	468	943
136	806	2487
137	0	1522
138	933	2389
139	581	1831
140	1431	2056
141	968	1963
142	1550	3000
143	327	1556
144	1388	1734
145	2094	2385
146	0	1723
147	1482	1800
148	393	2169
149	0	1179
150	1702	2070
151	1175	2559
152	774	2118
153	760	2546
154	483	2414
155	1618	3000
156	1931	2347
157	469	2340
158	0	1752
159	647	2176
160	794	2255
161	66	1926
162	167	1955
163	120	1580
164	723	1997
165	29	1711
166	1043	2769
167	1460	1676
168	1435	1763
169	553	2423
170	478	1867
171	1377	3000
172	884	1660
173	1011	2057
174	1350	1817
175	485	2347
176	1647	2778
177	0	1455
178	419	1494
179	0	1237
180	1800	2669
181	899	1260
182	1360	2003
183	19	919
184	127	1976
185	1004	2051
186	597	1810
187	519	1551
188	1047	1623
189	480	1658
190	248	2025
191	297	2011
192	1438	1849
193	1676	1937
194	726	1780
195	975	2757
196	2012	2628
197	874	1265
198	858	2383
199	135	1765
200	1119	1333
201	204	1712
202	782	2277
203	0	797
204	546	1123
205	824	2398
206	0	1316
207	742	1184
208	1233	3000
209	73	1290
210	943	1145
211	564	1202
212	573	1189
213	139	1005
214	1130	2561
215	1407	2566
216	1559	3000
217	103	1691
218	1439	3000
219	1318	2544
220	1204	2634
221	1074	1566
222	931	2664
223	87	1220
224	1260	2945
225	852	2784
226	981	2751
227	234	1690
228	2008	2686
229	1334	1886
230	872	1989
231	1071	1910
232	1215	2191
233	1203	2006
234	982	1219
235	1596	1919
236	64	1839
237	0	1692
238	0	1849
239	369	2105
240	1019	1730
241	1245	2311
242	1297	1621
243	427	1482
244	153	1059
245	1045	2591
246	66	1087
247	1299	2012
248	1882	2425
249	334	2090
250	861	2420
251	412	2376
252	634	2496
253	991	2574
254	1308	1910
255	1159	2795
256	0	1668
257	1727	3000
258	530	1586
259	1522	2057
260	984	2578
261	1281	1739
262	848	2568
263	152	2112
264	802	2428
265	1905	2520
266	1135	1513
267	346	1691
268	2139	2862
269	2236	2701
270	993	1211
271	997	1267
272	640	1245
273	898	1123
274	336	2112
275	919	1395
276	0	705
277	788	1888
278	1227	2181
279	1602	2400
280	656	2262
281	536	1790
282	1027	1432
283	980	2303
284	1130	1842
285	0	1378
286	0	1058
287	550	1776
288	192	1990
289	551	1190
290	1594	1843
291	363	1400
292	593	2390
293	1230	2796
294	107	2098
295	1119	2552
296	0	1666
297	691	2333
298	811	2634
299	1047	1869
300	845	1482
301	999	1375
302	520	1359
303	2245	2512
304	801	1535
305	1160	1712
306	307	1854
307	1480	2169
308	1354	2060
309	1482	2683
310	1064	2061
311	1865	2144
312	1066	1669
313	427	2379
314	1173	1930
315	688	1724
316	1337	1938
317	517	1260
318	735	2404
319	647	2367
320	1109	2961
321	136	1276
322	1150	1771
323	514	1986
324	602	1918
325	1072	2220
326	230	632
327	333	1167
328	626	1153
329	369	1427
330	912	2619
331	377	2359
332	0	644
333	700	1261
334	1588	2895
335	366	623
336	1055	2351
337	880	2361
338	682	1189
339	0	1158
340	592	1836
341	1070	2822
342	1054	2694
343	891	1471
344	300	989
345	1356	1819
346	894	1194
347	1173	2034
348	729	1247
349	783	1178
350	1353	2267
351	515	1960
352	626	2236
353	1368	1912
354	1350	2168
355	1723	3000
356	1190	2594
357	1041	1359
358	1303	1589
359	879	1939
360	0	860
361	1022	1668
362	0	1532
363	1252	2331
364	905	2337
365	1147	2057
366	687	1968
367	583	2338
368	553	1478
369	343	1431
370	1365	1875
371	498	1428
372	1342	1542
373	1332	3000
374	686	1780
375	1691	2022
376	399	1587
377	511	1516
378	260	862
379	0	1281
380	1498	1959
381	1078	1889
382	961	1638
383	231	1395
384	479	1335
385	95	1629
386	812	2265
387	2	1475
388	395	2090
389	742	1630
390	1199	2325
391	0	877
392	1323	1587
393	187	1958
394	228	1158
395	224	683
396	1178	2843
397	254	1111
398	1132	2332
399	1690	3000
400	535	1381
401	696	2015
402	1899	2160
403	0	1351
404	791	2557
405	1130	3000
406	725	1292
407	30	1931
408	441	2156
409	1308	3000
410	1272	1966
411	702	1581
412	615	1208
413	1181	1930
414	49	1577
415	1088	2212
416	822	1788
417	1209	3000
418	570	2101
419	297	2121
420	948	2234
421	1995	2785
422	796	1663
423	903	2255
424	1128	2411
425	979	1538
426	535	1589
427	1961	3000
428	1386	2463
429	617	2109
430	1058	2163
431	1008	2780
432	878	2111
433	120	590
434	67	1156
435	196	1885
436	1941	2342
437	187	1468
438	1668	2078
439	851	1089
440	124	1406
441	1805	2022
442	1423	2240
443	550	2495
444	766	1211
445	992	1496
446	1293	1519
447	816	2059
448	1145	2643
449	1410	2434
450	1800	2274
451	0	1395
452	919	2398
453	1247	1926
454	1412	1841
455	529	2314
456	1417	1728
457	494	1342
458	0	1205
459	209	1672
460	724	2662
461	566	1030
462	1890	2145
463	709	2410
464	869	1338
465	566	1310
466	435	2067
467	1681	2988
468	821	1483
469	1389	2084
470	1383	2694
471	785	2192
472	1532	2599
473	766	1598
474	1809	2324
475	505	2283
476	1222	1968
477	799	1635
478	883	1269
479	1356	2753
480	1547	2299
481	1141	1485
482	937	1866
483	1064	2657
484	1761	2207
485	1165	1460
486	1171	2194
487	1026	1883
488	653	1225
489	753	2541
490	1575	2130
491	366	1951
492	1023	2107
493	1038	1952
494	2364	2612
495	424	1094
496	224	1726
497	790	1720
498	413	895
499	1356	1617
500	1319	1660
501	922	2882
DEPOT_SECTION
1
-1
EOF
