NAME : n501-0010
COMMENT : "Generated by pyvrp_manuel (OVRPLTW)"
TYPE : OVRPLTW
DIMENSION : 501
EDGE_WEIGHT_TYPE : EUC_2D
CAPACITY : 100
VEHICLES : 500
OPEN_ROUTE : YES
DISTANCE : 3000
SERVICE_TIME : 200
NODE_COORD_SECTION
1	467	766
2	518	233
3	977	762
4	486	899
5	16	264
6	577	815
7	857	187
8	882	427
9	495	867
10	252	669
11	497	217
12	734	889
13	801	35
14	406	852
15	382	120
16	485	681
17	185	42
18	177	893
19	970	865
20	888	447
21	629	191
22	239	635
23	309	417
24	283	729
25	678	189
26	987	5
27	174	318
28	736	237
29	517	547
30	538	843
31	912	846
32	295	490
33	178	763
34	708	452
35	96	149
36	275	598
37	499	264
38	565	444
39	674	162
40	179	251
41	69	879
42	391	573
43	370	260
44	828	904
45	302	331
46	56	404
47	274	186
48	672	278
49	303	245
50	310	744
51	249	383
52	589	825
53	236	91
54	710	502
55	258	720
56	845	617
57	151	955
58	64	135
59	300	747
60	440	156
61	220	993
62	182	199
63	237	274
64	363	718
65	255	451
66	986	646
67	122	820
68	238	645
69	286	437
70	720	522
71	468	837
72	492	797
73	385	592
74	634	355
75	281	832
76	190	602
77	339	804
78	880	168
79	570	316
80	983	432
81	184	13
82	667	923
83	818	492
84	821	681
85	618	938
86	72	905
87	606	819
88	778	141
89	803	564
90	509	94
91	976	246
92	81	791
93	518	969
94	23	419
95	558	615
96	29	939
97	315	60
98	414	615
99	497	916
100	237	122
101	313	869
102	615	742
103	294	38
104	345	16
105	793	779
106	399	14
107	183	68
108	638	324
109	993	45
110	525	794
111	73	944
112	354	898
113	452	194
114	591	298
115	801	483
116	24	102
117	581	210
118	454	140
119	83	215
120	909	737
121	160	882
122	207	133
123	157	613
124	69	55
125	362	701
126	878	393
127	398	987
128	509	245
129	982	361
130	52	786
131	950	414
132	566	637
133	537	724
134	86	565
135	433	336
136	93	421
137	702	434
138	909	907
139	157	696
140	707	569
141	218	819
142	838	571
143	776	330
144	302	124
145	287	119
146	127	827
147	82	877
148	748	529
149	288	450
150	984	607
151	176	701
152	559	130
153	974	477
154	59	494
155	979	550
156	547	330
157	402	777
158	997	813
159	277	494
160	333	605
161	551	196
162	443	334
163	603	874
164	713	548
165	617	29
166	111	231
167	689	917
168	320	50
169	598	666
170	746	802
171	645	470
172	958	299
173	75	672
174	544	50
175	714	274
176	688	914
177	971	558
178	240	920
179	470	241
180	142	117
181	945	774
182	328	942
183	457	359
184	16	911
185	513	265
186	516	827
187	789	789
188	385	66
189	239	261
190	548	849
191	172	730
192	626	627
193	428	727
194	316	409
195	695	654
196	212	152
197	541	815
198	158	829
199	962	705
200	559	166
201	210	917
202	666	961
203	326	653
204	88	180
205	302	228
206	905	79
207	803	347
208	420	392
209	369	200
210	353	847
211	504	303
212	49	100
213	445	781
214	908	674
215	115	394
216	193	140
217	179	954
218	115	571
219	230	415
220	658	970
221	241	946
222	53	625
223	962	667
224	514	340
225	640	731
226	438	338
227	10	186
228	523	709
229	531	995
230	308	410
231	97	293
232	643	932
233	186	100
234	360	449
235	2	603
236	79	311
237	332	613
238	704	138
239	968	235
240	263	961
241	952	348
242	376	619
243	10	289
244	851	541
245	444	794
246	122	815
247	148	264
248	21	639
249	349	110
250	656	790
251	412	621
252	524	652
253	473	711
254	834	32
255	387	425
256	993	662
257	853	545
258	910	482
259	534	532
260	494	128
261	811	430
262	677	338
263	508	418
264	878	78
265	449	763
266	302	767
267	560	21
268	663	988
269	534	272
270	595	734
271	967	799
272	871	830
273	896	439
274	224	579
275	841	449
276	248	56
277	349	46
278	28	38
279	191	827
280	173	436
281	206	814
282	869	289
283	705	573
284	113	936
285	439	478
286	166	850
287	112	766
288	461	885
289	377	697
290	58	28
291	204	917
292	417	379
293	881	126
294	669	675
295	22	754
296	63	376
297	243	908
298	652	714
299	763	110
300	1000	909
301	849	542
302	706	797
303	782	377
304	860	436
305	903	72
306	295	449
307	905	647
308	670	386
309	415	340
310	567	846
311	94	551
312	114	349
313	533	892
314	83	661
315	536	983
316	425	616
317	224	139
318	232	13
319	908	942
320	867	201
321	740	579
322	898	74
323	632	624
324	258	124
325	33	417
326	243	233
327	669	733
328	997	150
329	181	857
330	524	32
331	120	365
332	590	930
333	934	742
334	353	467
335	846	756
336	489	541
337	222	226
338	436	215
339	750	395
340	528	26
341	756	84
342	745	219
343	127	511
344	332	717
345	757	0
346	599	795
347	831	891
348	66	632
349	553	214
350	89	413
351	158	844
352	183	276
353	553	725
354	118	732
355	819	165
356	831	790
357	595	242
358	977	66
359	475	217
360	199	332
361	181	722
362	158	424
363	541	19
364	359	982
365	773	454
366	155	352
367	907	903
368	953	469
369	446	279
370	870	404
371	634	877
372	515	454
373	519	15
374	829	858
375	409	769
376	807	861
377	884	104
378	718	595
379	629	305
380	756	674
381	495	686
382	670	362
383	983	172
384	349	394
385	177	480
386	398	635
387	923	901
388	301	409
389	457	523
390	84	508
391	75	856
392	936	310
393	702	300
394	732	284
395	628	243
396	470	221
397	948	60
398	930	895
399	207	730
400	349	208
401	240	503
402	424	720
403	246	505
404	204	895
405	945	513
406	939	314
407	189	140
408	911	472
409	876	373
410	664	398
411	974	781
412	899	937
413	690	423
414	518	93
415	786	559
416	400	85
417	943	652
418	418	754
419	867	301
420	303	96
421	191	333
422	388	202
423	397	463
424	178	967
425	158	694
426	395	575
427	184	721
428	901	404
429	564	700
430	894	926
431	346	45
432	123	316
433	849	259
434	499	687
435	185	421
436	104	649
437	898	974
438	151	564
439	198	567
440	251	480
441	215	912
442	352	618
443	455	862
444	227	412
445	69	846
446	393	567
447	547	739
448	122	82
449	795	654
450	17	745
451	322	215
452	732	353
453	776	588
454	658	319
455	141	564
456	166	885
457	73	741
458	47	969
459	438	471
460	554	302
461	816	466
462	969	351
463	82	637
464	308	824
465	348	16
466	657	825
467	879	507
468	846	96
469	541	707
470	924	920
471	802	921
472	555	562
473	801	360
474	121	475
475	598	437
476	281	956
477	116	715
478	334	188
479	942	660
480	505	779
481	823	516
482	762	245
483	650	111
484	248	329
485	801	382
486	428	335
487	91	72
488	893	124
489	667	863
490	583	222
491	666	842
492	770	217
493	564	130
494	15	285
495	780	971
496	776	456
497	608	162
498	165	736
499	86	653
500	735	823
501	697	865
DEMAND_SECTION
1	0
2	1
3	8
4	8
5	4
6	1
7	7
8	8
9	6
10	4
11	1
12	7
13	3
14	7
15	7
16	9
17	8
18	7
19	8
20	1
21	5
22	3
23	6
24	8
25	9
26	5
27	1
28	1
29	1
30	3
31	8
32	5
33	8
34	9
35	5
36	2
37	8
38	6
39	4
40	8
41	7
42	2
43	7
44	6
45	1
46	6
47	8
48	8
49	6
50	5
51	8
52	4
53	4
54	5
55	3
56	4
57	1
58	5
59	5
60	8
61	1
62	5
63	7
64	2
65	4
66	4
67	2
68	7
69	7
70	5
71	8
72	3
73	7
74	2
75	6
76	3
77	1
78	2
79	9
80	1
81	3
82	4
83	7
84	9
85	1
86	5
87	8
88	4
89	4
90	7
91	8
92	7
93	1
94	2
95	2
96	2
97	4
98	5
99	1
100	1
101	8
102	7
103	1
104	2
105	3
106	1
107	5
108	7
109	1
110	8
111	9
112	2
113	7
114	7
115	4
116	8
117	4
118	8
119	3
120	6
121	2
122	6
123	3
124	6
125	7
126	4
127	8
128	4
129	2
130	3
131	6
132	8
133	5
134	1
135	4
136	1
137	1
138	2
139	1
140	8
141	9
142	3
143	2
144	1
145	3
146	8
147	6
148	4
149	9
150	1
151	5
152	4
153	7
154	1
155	8
156	9
157	9
158	6
159	5
160	6
161	7
162	2
163	8
164	5
165	9
166	3
167	7
168	2
169	1
170	4
171	8
172	7
173	5
174	7
175	9
176	7
177	9
178	9
179	6
180	4
181	9
182	5
183	7
184	1
185	9
186	9
187	4
188	4
189	5
190	3
191	5
192	6
193	5
194	7
195	1
196	7
197	7
198	9
199	9
200	3
201	9
202	4
203	9
204	8
205	4
206	3
207	9
208	7
209	6
210	1
211	3
212	4
213	6
214	3
215	8
216	1
217	6
218	3
219	1
220	7
221	2
222	2
223	8
224	3
225	2
226	1
227	2
228	2
229	5
230	1
231	2
232	3
233	8
234	5
235	8
236	6
237	2
238	8
239	2
240	8
241	8
242	1
243	1
244	8
245	8
246	5
247	5
248	1
249	5
250	1
251	4
252	6
253	8
254	9
255	9
256	4
257	3
258	5
259	9
260	7
261	2
262	1
263	5
264	5
265	1
266	8
267	9
268	8
269	6
270	6
271	8
272	7
273	7
274	7
275	6
276	8
277	5
278	1
279	6
280	6
281	8
282	9
283	3
284	3
285	4
286	6
287	5
288	6
289	1
290	6
291	5
292	6
293	7
294	3
295	4
296	6
297	1
298	5
299	5
300	5
301	9
302	3
303	4
304	6
305	7
306	7
307	5
308	4
309	5
310	3
311	4
312	1
313	5
314	2
315	7
316	4
317	3
318	9
319	1
320	8
321	6
322	3
323	7
324	1
325	6
326	1
327	9
328	5
329	5
330	2
331	3
332	9
333	5
334	5
335	7
336	9
337	8
338	5
339	6
340	1
341	1
342	3
343	2
344	6
345	4
346	7
347	9
348	6
349	5
350	6
351	3
352	8
353	8
354	4
355	8
356	2
357	7
358	1
359	1
360	8
361	9
362	7
363	2
364	1
365	1
366	3
367	2
368	8
369	7
370	1
371	8
372	6
373	8
374	5
375	5
376	9
377	1
378	9
379	3
380	2
381	4
382	3
383	7
384	5
385	3
386	1
387	8
388	5
389	8
390	6
391	3
392	5
393	8
394	5
395	8
396	4
397	2
398	5
399	8
400	6
401	8
402	2
403	6
404	1
405	9
406	7
407	6
408	7
409	7
410	1
411	3
412	5
413	7
414	8
415	7
416	5
417	2
418	2
419	1
420	7
421	7
422	7
423	6
424	3
425	8
426	1
427	2
428	9
429	5
430	9
431	7
432	9
433	3
434	1
435	1
436	3
437	9
438	8
439	8
440	7
441	2
442	1
443	6
444	8
445	7
446	7
447	4
448	2
449	5
450	7
451	5
452	4
453	6
454	5
455	7
456	7
457	9
458	3
459	5
460	4
461	8
462	9
463	7
464	2
465	3
466	1
467	6
468	9
469	5
470	7
471	3
472	4
473	2
474	1
475	1
476	5
477	5
478	3
479	1
480	3
481	2
482	7
483	5
484	3
485	6
486	8
487	3
488	5
489	8
490	6
491	8
492	1
493	6
494	4
495	9
496	6
497	9
498	8
499	2
500	6
501	7
TIME_WINDOW_SECTION
1	0	3000
2	1505	2958
3	32	1918
4	1102	1582
5	1133	2214
6	1104	2168
7	1174	1457
8	1075	1389
9	1238	2304
10	995	2811
11	1192	1645
12	980	1189
13	1686	2149
14	329	1125
15	827	2573
16	690	1605
17	1137	1718
18	150	966
19	1751	2557
20	520	1837
21	1376	2865
22	0	1179
23	1066	1967
24	1059	2029
25	0	1672
26	1283	1895
27	827	1812
28	1068	1507
29	1097	1628
30	544	1098
31	230	2138
32	430	1174
33	1249	2598
34	1115	2248
35	1370	1758
36	1126	2849
37	736	2695
38	1001	2382
39	957	2350
40	905	2814
41	322	1783
42	941	2043
43	1154	2943
44	1546	1954
45	896	2849
46	1384	2431
47	2039	2317
48	1302	2610
49	0	1635
50	28	483
51	862	2311
52	1504	3000
53	1054	2095
54	282	580
55	397	1436
56	1438	3000
57	240	2086
58	406	1878
59	2027	2432
60	1505	1966
61	217	1104
62	866	2501
63	413	895
64	1607	3000
65	641	935
66	216	2159
67	785	2606
68	1253	1504
69	1560	1938
70	939	1700
71	1751	2300
72	163	1310
73	887	1363
74	2127	2502
75	830	1362
76	180	1194
77	644	1941
78	1287	2271
79	509	2492
80	250	1722
81	244	2103
82	0	1058
83	1585	3000
84	1066	2779
85	605	2091
86	1496	2284
87	729	1598
88	995	2308
89	593	1858
90	0	1565
91	776	2385
92	0	1135
93	883	1203
94	277	1902
95	1004	2815
96	391	1933
97	458	1069
98	149	832
99	1629	1896
100	959	2411
101	979	2458
102	613	1648
103	555	1225
104	569	1631
105	1656	3000
106	1243	2653
107	193	1893
108	711	1930
109	1481	1891
110	0	998
111	1497	1889
112	235	1983
113	198	1226
114	1334	2851
115	1435	1789
116	970	1450
117	337	1492
118	594	1296
119	956	2738
120	105	1830
121	1207	2684
122	1220	1776
123	1376	2884
124	1148	2534
125	1651	2017
126	280	988
127	0	718
128	1281	2749
129	517	844
130	69	941
131	1059	2479
132	1943	2438
133	870	1662
134	1846	2339
135	414	857
136	2093	2435
137	2150	2411
138	55	1530
139	626	1682
140	1343	1829
141	0	844
142	0	1465
143	1102	2833
144	0	1497
145	468	2046
146	666	1295
147	698	1741
148	232	1163
149	929	1619
150	741	2560
151	0	1469
152	931	2651
153	884	2396
154	1602	2016
155	1907	2576
156	1527	1952
157	1350	2984
158	0	1444
159	887	2150
160	474	2243
161	0	1761
162	1541	2298
163	184	557
164	946	2718
165	769	2282
166	397	1103
167	220	2151
168	0	1827
169	1266	1769
170	2026	2420
171	353	1347
172	998	1478
173	0	945
174	1431	2354
175	1628	1861
176	1419	3000
177	1329	2341
178	806	2022
179	589	1769
180	1312	2774
181	614	844
182	1505	2396
183	1070	1870
184	114	2069
185	1130	1469
186	1444	2604
187	730	1582
188	933	1740
189	1222	1589
190	1741	2442
191	317	827
192	105	2038
193	312	1171
194	1049	2594
195	0	920
196	351	2214
197	1811	2535
198	181	1910
199	435	660
200	862	1978
201	97	1563
202	1619	2392
203	737	1647
204	1539	2190
205	406	1147
206	286	1579
207	211	1517
208	893	2791
209	1805	2200
210	0	1662
211	198	1007
212	474	1237
213	509	1296
214	0	1334
215	1392	1850
216	1205	2173
217	783	1747
218	1283	2689
219	747	2242
220	654	1427
221	206	1445
222	1152	1654
223	726	2605
224	46	1458
225	1067	2622
226	964	2963
227	395	2038
228	766	1407
229	872	2493
230	1428	3000
231	987	2828
232	314	2146
233	1430	1863
234	0	997
235	231	1592
236	487	1181
237	1773	2490
238	600	1062
239	1567	2159
240	47	1365
241	1490	2693
242	249	705
243	185	1687
244	755	2518
245	206	613
246	1489	2067
247	480	2479
248	71	1626
249	1040	1682
250	882	2691
251	927	1393
252	645	888
253	2380	2769
254	444	1738
255	58	755
256	817	2575
257	484	1311
258	774	2574
259	1111	1909
260	1028	2393
261	1170	1524
262	1600	2765
263	1123	2825
264	149	1972
265	413	1525
266	1396	1975
267	633	1480
268	830	2209
269	612	1623
270	1716	2362
271	436	1755
272	1541	3000
273	1189	2955
274	1350	2480
275	1267	1474
276	765	2056
277	1297	2088
278	207	1547
279	501	1185
280	276	840
281	504	1047
282	464	1338
283	1231	2769
284	35	961
285	693	1553
286	122	832
287	0	1270
288	1913	3000
289	1955	3000
290	1264	2513
291	493	993
292	643	2031
293	653	2347
294	773	2762
295	1818	2705
296	602	1565
297	1540	2067
298	1140	3000
299	590	876
300	1281	2778
301	2054	2345
302	0	904
303	957	1931
304	1238	2241
305	624	1434
306	896	2060
307	262	1409
308	1311	1856
309	139	1139
310	1476	2095
311	1473	2428
312	1139	2438
313	0	1460
314	1199	2130
315	1793	2671
316	0	1814
317	1462	1682
318	508	1673
319	1479	2346
320	465	1296
321	2079	2419
322	592	1465
323	1495	2358
324	1810	2174
325	114	2037
326	778	1562
327	503	1303
328	300	1838
329	106	1237
330	728	1130
331	421	2330
332	1000	2759
333	0	1879
334	1512	3000
335	785	1135
336	1883	2178
337	776	1979
338	442	690
339	1116	2930
340	1010	1745
341	1001	1202
342	289	2261
343	98	1384
344	1115	2376
345	489	1891
346	2116	2474
347	457	712
348	860	1142
349	1723	1996
350	388	1160
351	590	1679
352	574	1834
353	308	1470
354	1611	2075
355	1323	2728
356	1608	2462
357	496	2096
358	1746	1991
359	1281	1763
360	160	2121
361	0	1477
362	421	2247
363	1216	2158
364	652	2232
365	189	2153
366	0	1159
367	29	1323
368	657	2501
369	1320	3000
370	1492	1952
371	0	1319
372	548	1507
373	819	1679
374	1753	3000
375	332	1753
376	1294	2513
377	859	2621
378	166	1450
379	455	800
380	1340	3000
381	1095	1447
382	593	1376
383	593	2213
384	1007	1457
385	544	1392
386	1678	3000
387	1355	2012
388	1823	2087
389	1621	2179
390	1242	1929
391	258	598
392	1050	2938
393	225	1293
394	1733	2602
395	517	2506
396	961	1717
397	325	2255
398	1932	2532
399	1204	1993
400	1301	2619
401	987	2821
402	339	2245
403	406	956
404	0	1183
405	1165	1693
406	809	2784
407	1044	1549
408	139	964
409	1932	2328
410	1889	2271
411	915	1659
412	440	772
413	254	1177
414	997	2869
415	1901	2307
416	175	1207
417	95	1044
418	0	1115
419	1034	2217
420	1207	2217
421	795	2686
422	1349	1662
423	1754	2778
424	458	1277
425	0	1338
426	1095	1457
427	1936	2913
428	512	1678
429	92	697
430	643	1280
431	1610	2017
432	472	1969
433	0	1597
434	9	1677
435	0	1580
436	700	2462
437	43	1176
438	755	1938
439	596	1277
440	0	1646
441	1161	2238
442	1174	2959
443	725	1920
444	1935	2469
445	1839	2144
446	954	1964
447	0	1178
448	1012	1777
449	465	2368
450	542	1467
451	1283	2678
452	1810	2246
453	299	855
454	610	1315
455	370	1145
456	1927	2348
457	1056	2441
458	1225	2353
459	973	1560
460	677	2379
461	1519	2910
462	1374	1708
463	714	1351
464	2271	2558
465	721	2578
466	1396	1983
467	556	2087
468	414	1956
469	1034	1709
470	866	1589
471	1698	2038
472	2384	2754
473	0	1756
474	1587	1812
475	473	1164
476	1639	2730
477	721	2125
478	1783	2563
479	668	1743
480	1123	2656
481	79	1161
482	682	946
483	1069	2270
484	1029	2232
485	1316	2075
486	1501	1830
487	1216	1893
488	448	1146
489	1363	2230
490	0	1547
491	1137	2214
492	947	1566
493	1075	2172
494	598	2343
495	523	2149
496	557	2072
497	2018	2286
498	1365	1858
499	1517	2837
500	1954	2862
501	1061	1923
DEPOT_SECTION
1
-1
EOF
