NAME : n201-0003
COMMENT : "Generated by pyvrp_manuel (VRPTW)"
TYPE : VRPTW
DIMENSION : 201
EDGE_WEIGHT_TYPE : EUC_2D
CAPACITY : 80
VEHICLES : 200
SERVICE_TIME : 200
NODE_COORD_SECTION
1	178	228
2	44	613
3	205	891
4	429	156
5	317	996
6	69	259
7	194	729
8	876	292
9	734	666
10	357	744
11	980	606
12	583	77
13	312	261
14	293	613
15	544	15
16	235	698
17	923	571
18	823	314
19	592	374
20	68	841
21	196	831
22	102	415
23	691	904
24	45	250
25	927	911
26	550	716
27	926	869
28	389	973
29	160	272
30	662	753
31	911	670
32	611	512
33	158	458
34	560	759
35	947	987
36	652	899
37	881	400
38	371	231
39	249	666
40	949	222
41	478	74
42	525	43
43	998	167
44	121	106
45	69	737
46	802	560
47	542	72
48	959	754
49	744	236
50	642	640
51	772	346
52	604	998
53	911	296
54	588	287
55	349	414
56	505	530
57	749	602
58	495	272
59	939	913
60	547	971
61	468	59
62	890	785
63	204	325
64	178	494
65	443	310
66	175	711
67	299	321
68	980	721
69	307	131
70	618	380
71	871	603
72	817	378
73	856	600
74	998	544
75	498	233
76	423	771
77	514	986
78	2	483
79	503	226
80	207	664
81	632	117
82	108	923
83	203	251
84	360	223
85	14	231
86	252	53
87	526	389
88	715	692
89	650	100
90	722	398
91	272	865
92	935	124
93	936	547
94	323	424
95	296	619
96	632	871
97	500	249
98	424	129
99	751	287
100	554	431
101	823	465
102	673	254
103	165	827
104	259	59
105	774	893
106	978	788
107	544	939
108	939	377
109	660	475
110	31	900
111	736	815
112	826	893
113	447	3
114	971	758
115	463	783
116	577	211
117	37	769
118	915	876
119	347	191
120	615	14
121	560	760
122	860	322
123	520	153
124	210	578
125	372	415
126	769	112
127	833	945
128	744	920
129	118	872
130	705	682
131	874	962
132	45	109
133	743	138
134	892	375
135	615	119
136	817	644
137	762	283
138	853	607
139	515	671
140	113	230
141	834	749
142	664	13
143	51	486
144	610	338
145	995	569
146	174	545
147	739	177
148	49	678
149	731	332
150	72	832
151	483	105
152	512	100
153	375	520
154	589	725
155	689	781
156	562	240
157	632	829
158	348	871
159	563	587
160	651	261
161	610	953
162	572	358
163	792	576
164	864	539
165	379	257
166	442	517
167	360	479
168	626	392
169	272	448
170	373	817
171	949	162
172	579	89
173	219	575
174	739	188
175	489	345
176	532	263
177	224	690
178	902	815
179	464	717
180	2	776
181	770	145
182	991	390
183	892	210
184	576	179
185	207	755
186	542	972
187	618	450
188	230	261
189	469	33
190	499	968
191	467	329
192	217	121
193	818	369
194	30	323
195	353	138
196	928	883
197	57	63
198	573	688
199	277	582
200	491	214
201	148	603
DEMAND_SECTION
1	0
2	4
3	1
4	8
5	8
6	7
7	6
8	8
9	4
10	9
11	6
12	4
13	8
14	4
15	2
16	3
17	9
18	7
19	4
20	1
21	1
22	8
23	7
24	2
25	5
26	6
27	9
28	8
29	3
30	4
31	4
32	9
33	3
34	6
35	1
36	2
37	4
38	7
39	2
40	3
41	5
42	3
43	4
44	9
45	4
46	3
47	9
48	1
49	5
50	3
51	3
52	4
53	3
54	7
55	3
56	5
57	6
58	8
59	5
60	3
61	7
62	9
63	7
64	6
65	1
66	1
67	4
68	9
69	4
70	2
71	7
72	6
73	1
74	4
75	4
76	8
77	4
78	7
79	6
80	4
81	6
82	7
83	1
84	1
85	7
86	9
87	9
88	7
89	3
90	9
91	3
92	5
93	8
94	6
95	4
96	6
97	3
98	6
99	7
100	6
101	2
102	2
103	5
104	3
105	6
106	9
107	8
108	7
109	3
110	1
111	4
112	5
113	8
114	1
115	4
116	5
117	2
118	7
119	1
120	2
121	5
122	3
123	5
124	3
125	8
126	1
127	4
128	3
129	1
130	9
131	6
132	3
133	3
134	6
135	3
136	3
137	2
138	9
139	9
140	4
141	1
142	8
143	8
144	1
145	8
146	5
147	5
148	9
149	5
150	1
151	2
152	1
153	4
154	8
155	4
156	1
157	3
158	1
159	6
160	2
161	8
162	8
163	3
164	7
165	7
166	7
167	8
168	7
169	6
170	6
171	7
172	9
173	5
174	3
175	8
176	1
177	3
178	7
179	5
180	9
181	9
182	4
183	2
184	3
185	4
186	9
187	2
188	4
189	5
190	3
191	4
192	9
193	1
194	8
195	9
196	6
197	6
198	4
199	4
200	6
201	7
TIME_WINDOW_SECTION
1	0	3000
2	1556	2445
3	1468	2609
4	49	1986
5	1020	2724
6	1210	3000
7	1181	1982
8	1452	1827
9	798	2625
10	1183	2144
11	1074	2673
12	15	1655
13	240	1026
14	809	1955
15	1124	2751
16	1630	2579
17	808	1482
18	502	2284
19	1400	1850
20	367	1639
21	966	2832
22	0	1214
23	996	2077
24	259	1435
25	465	1647
26	1006	1462
27	1159	1410
28	1183	2210
29	0	1421
30	724	2723
31	692	2223
32	0	1628
33	875	1950
34	1436	2551
35	930	1848
36	1056	2206
37	701	2023
38	0	884
39	184	1961
40	700	2325
41	1122	3000
42	720	1992
43	1113	1760
44	580	1094
45	869	2030
46	1315	1538
47	1166	2551
48	1586	1811
49	119	1384
50	906	2585
51	917	1253
52	638	2092
53	263	1731
54	0	1732
55	431	1730
56	626	1935
57	567	951
58	705	2373
59	1271	1867
60	1464	1967
61	2058	2736
62	1436	1937
63	1788	3000
64	656	1584
65	1168	1461
66	625	1860
67	944	2681
68	872	2595
69	1246	1908
70	1153	2418
71	427	2162
72	463	915
73	0	1779
74	660	1678
75	1191	3000
76	1032	1765
77	1120	2389
78	514	1687
79	1360	1716
80	949	1598
81	315	2007
82	243	1174
83	157	1505
84	205	805
85	1222	2309
86	372	1028
87	945	2515
88	425	1411
89	158	2044
90	512	2214
91	964	2173
92	991	2508
93	323	1528
94	559	945
95	500	1385
96	734	2493
97	39	1881
98	60	1034
99	821	1090
100	370	1219
101	1559	1981
102	881	2777
103	337	2037
104	660	2512
105	720	2678
106	748	1858
107	1296	1712
108	1677	2244
109	1264	2527
110	1330	2030
111	1207	1728
112	369	1982
113	0	1203
114	703	1721
115	232	1575
116	1150	2158
117	1470	2367
118	1162	1414
119	826	2003
120	479	2432
121	1525	2105
122	0	1439
123	2250	2581
124	185	1849
125	784	1568
126	1406	2949
127	786	1167
128	1334	2285
129	760	2690
130	646	2307
131	873	1816
132	388	691
133	1874	2286
134	324	1477
135	256	1471
136	621	1178
137	1533	2683
138	873	2732
139	1534	2171
140	0	1335
141	664	1626
142	898	2581
143	163	1072
144	702	2574
145	46	1872
146	1252	2159
147	1113	2907
148	358	2046
149	1051	2116
150	1680	2458
151	1844	2756
152	1868	2475
153	1324	2959
154	588	1528
155	141	1866
156	865	1123
157	1275	2267
158	808	1548
159	309	786
160	511	2075
161	276	1614
162	214	1525
163	549	2148
164	1096	1779
165	164	1768
166	182	2025
167	29	742
168	910	1418
169	735	1642
170	465	1759
171	1135	1789
172	1530	2382
173	608	1733
174	225	1598
175	1181	3000
176	1182	2057
177	1702	2580
178	302	2233
179	843	2285
180	59	1298
181	1084	1979
182	981	1253
183	1453	2176
184	255	655
185	1408	2333
186	524	2444
187	421	2085
188	0	955
189	729	2300
190	337	2305
191	1856	2411
192	421	1442
193	599	2445
194	0	1269
195	0	1084
196	1157	1447
197	135	555
198	1726	1964
199	1128	2848
200	0	1500
201	508	2267
DEPOT_SECTION
1
-1
EOF
