NAME : n201-0030
COMMENT : "Generated by pyvrp_manuel (VRPTW)"
TYPE : VRPTW
DIMENSION : 201
EDGE_WEIGHT_TYPE : EUC_2D
CAPACITY : 80
VEHICLES : 200
SERVICE_TIME : 200
NODE_COORD_SECTION
1	113	312
2	44	324
3	810	362
4	75	732
5	532	697
6	652	936
7	459	957
8	799	703
9	39	806
10	457	436
11	618	842
12	770	109
13	762	564
14	847	176
15	105	792
16	8	449
17	350	205
18	32	915
19	699	694
20	134	150
21	884	593
22	856	775
23	213	208
24	930	4
25	950	262
26	187	851
27	341	651
28	118	449
29	923	238
30	312	851
31	228	401
32	760	242
33	683	373
34	825	615
35	334	363
36	785	788
37	237	325
38	492	724
39	665	440
40	838	960
41	560	419
42	649	251
43	48	710
44	232	410
45	627	107
46	519	977
47	589	149
48	999	277
49	898	873
50	811	79
51	245	10
52	565	892
53	182	836
54	333	130
55	62	807
56	464	695
57	708	384
58	81	503
59	973	247
60	474	710
61	707	124
62	335	975
63	397	185
64	912	420
65	334	757
66	224	231
67	794	735
68	335	866
69	328	763
70	764	593
71	535	667
72	332	237
73	161	624
74	169	618
75	14	125
76	93	944
77	665	795
78	826	585
79	760	641
80	456	3
81	907	831
82	209	421
83	208	731
84	442	827
85	388	361
86	632	12
87	327	684
88	917	325
89	883	481
90	986	726
91	422	898
92	38	568
93	797	702
94	971	698
95	57	238
96	48	733
97	490	651
98	521	329
99	143	369
100	34	825
101	471	465
102	556	892
103	664	817
104	549	768
105	568	98
106	521	752
107	972	163
108	154	302
109	933	682
110	145	355
111	229	630
112	641	555
113	281	736
114	365	180
115	813	970
116	527	251
117	231	768
118	306	47
119	732	795
120	784	477
121	252	200
122	925	22
123	729	205
124	674	585
125	701	482
126	495	465
127	983	598
128	680	344
129	942	448
130	447	771
131	156	966
132	192	926
133	661	237
134	464	370
135	674	912
136	198	962
137	977	927
138	957	726
139	8	172
140	243	527
141	712	598
142	912	676
143	850	814
144	144	650
145	767	873
146	87	287
147	97	471
148	338	296
149	750	221
150	337	617
151	470	322
152	447	696
153	839	312
154	138	898
155	757	141
156	785	429
157	929	414
158	781	429
159	685	21
160	9	76
161	233	842
162	428	670
163	490	876
164	625	939
165	534	141
166	565	316
167	474	760
168	608	679
169	677	280
170	570	861
171	233	999
172	71	179
173	88	129
174	677	784
175	590	883
176	264	702
177	503	515
178	105	125
179	857	233
180	320	47
181	121	618
182	980	344
183	688	198
184	983	515
185	287	822
186	482	381
187	53	415
188	501	742
189	421	818
190	210	576
191	185	285
192	683	88
193	678	161
194	538	513
195	416	524
196	540	439
197	116	461
198	2	642
199	40	426
200	664	776
201	384	556
DEMAND_SECTION
1	0
2	5
3	1
4	6
5	7
6	4
7	5
8	1
9	6
10	3
11	2
12	1
13	4
14	1
15	3
16	4
17	1
18	3
19	2
20	8
21	9
22	4
23	4
24	1
25	5
26	7
27	8
28	3
29	9
30	5
31	3
32	1
33	4
34	6
35	4
36	7
37	6
38	5
39	8
40	7
41	9
42	3
43	6
44	2
45	8
46	4
47	6
48	5
49	2
50	2
51	7
52	8
53	5
54	2
55	6
56	5
57	8
58	2
59	9
60	3
61	2
62	9
63	3
64	7
65	6
66	2
67	3
68	5
69	7
70	2
71	7
72	3
73	8
74	4
75	9
76	1
77	4
78	5
79	4
80	8
81	9
82	5
83	7
84	3
85	8
86	7
87	6
88	9
89	5
90	5
91	2
92	8
93	1
94	9
95	7
96	4
97	6
98	5
99	5
100	7
101	8
102	6
103	4
104	6
105	6
106	1
107	8
108	5
109	6
110	3
111	4
112	7
113	2
114	4
115	7
116	7
117	6
118	8
119	4
120	9
121	8
122	4
123	9
124	5
125	7
126	9
127	4
128	6
129	3
130	9
131	6
132	1
133	5
134	4
135	1
136	9
137	7
138	4
139	6
140	3
141	1
142	1
143	8
144	5
145	3
146	8
147	3
148	1
149	9
150	7
151	6
152	5
153	5
154	9
155	6
156	6
157	8
158	1
159	7
160	2
161	1
162	8
163	5
164	6
165	7
166	4
167	2
168	6
169	8
170	7
171	7
172	6
173	5
174	5
175	3
176	5
177	6
178	9
179	8
180	8
181	5
182	6
183	6
184	6
185	7
186	4
187	5
188	9
189	9
190	7
191	4
192	1
193	5
194	5
195	6
196	4
197	7
198	1
199	9
200	4
201	6
TIME_WINDOW_SECTION
1	0	3000
2	0	997
3	316	2290
4	1189	3000
5	665	1133
6	1422	1966
7	1614	2101
8	574	1071
9	561	2551
10	415	1854
11	739	1580
12	1246	2878
13	647	2610
14	1424	2244
15	542	1703
16	126	1369
17	970	1739
18	15	1417
19	453	2302
20	644	1117
21	991	2372
22	715	1141
23	488	1428
24	285	2127
25	292	2233
26	1184	2118
27	1744	2526
28	1045	2194
29	701	1360
30	742	1863
31	918	1238
32	1353	1576
33	489	1355
34	768	1949
35	1496	3000
36	1506	1875
37	1083	2735
38	1227	2195
39	802	2081
40	1037	2061
41	1832	2808
42	766	1450
43	915	2475
44	1235	1851
45	1982	2302
46	540	1068
47	0	1339
48	1086	1398
49	247	1841
50	741	2402
51	1544	2231
52	600	1312
53	1280	3000
54	559	1108
55	1052	2283
56	1383	3000
57	944	1960
58	963	2412
59	375	1971
60	1494	2748
61	426	1849
62	926	1620
63	0	741
64	455	1882
65	116	1223
66	1821	2696
67	1442	2383
68	82	1792
69	496	1254
70	963	2472
71	584	853
72	386	933
73	136	1238
74	1481	3000
75	1009	2413
76	1118	2388
77	846	2712
78	941	1580
79	955	2605
80	597	1259
81	0	1929
82	1750	2303
83	787	2698
84	0	1469
85	1127	2138
86	1681	2677
87	217	881
88	770	2330
89	1228	2757
90	478	1864
91	631	918
92	1187	2761
93	901	1783
94	600	1740
95	1159	3000
96	1085	1600
97	1004	1717
98	1966	2660
99	973	1959
100	815	2076
101	620	2152
102	0	1745
103	708	1055
104	1243	2569
105	121	1546
106	1928	2453
107	1647	1871
108	0	1340
109	375	1543
110	812	1395
111	819	2399
112	1321	2174
113	1081	2762
114	1840	2788
115	404	2212
116	1015	2190
117	882	2585
118	1304	1544
119	0	1707
120	490	2342
121	705	2116
122	893	1337
123	0	1610
124	741	1124
125	1056	2118
126	807	2790
127	391	1824
128	479	1242
129	1273	2095
130	222	1381
131	550	1252
132	1275	1778
133	631	1117
134	1337	2794
135	979	1381
136	1989	2286
137	884	1848
138	1237	2000
139	2066	3000
140	2281	2487
141	945	2634
142	683	1560
143	662	2129
144	306	1304
145	1027	1962
146	0	506
147	172	1448
148	630	1070
149	188	1687
150	1291	3000
151	1798	3000
152	1893	2191
153	1060	3000
154	1165	2864
155	765	2235
156	296	1544
157	307	1378
158	606	1971
159	551	773
160	1223	2593
161	662	1577
162	1025	1513
163	702	1405
164	1288	2331
165	734	1790
166	1300	1848
167	1972	2313
168	276	1903
169	716	1449
170	1404	2436
171	1376	2670
172	1202	1924
173	440	697
174	715	2206
175	512	2415
176	983	1951
177	0	1465
178	216	613
179	1237	2745
180	328	2235
181	1308	2364
182	1205	2349
183	268	2266
184	903	1296
185	693	1563
186	0	1510
187	1800	2149
188	322	1588
189	250	1315
190	0	915
191	1366	2381
192	1702	1934
193	766	2530
194	715	1875
195	1138	2798
196	132	1740
197	277	728
198	17	1071
199	0	1665
200	883	2742
201	1145	1828
DEPOT_SECTION
1
-1
EOF
