NAME : n201-0049
COMMENT : "Generated by pyvrp_manuel (VRPTW)"
TYPE : VRPTW
DIMENSION : 201
EDGE_WEIGHT_TYPE : EUC_2D
CAPACITY : 80
VEHICLES : 200
SERVICE_TIME : 200
NODE_COORD_SECTION
1	340	493
2	357	538
3	826	898
4	631	339
5	514	834
6	751	47
7	672	409
8	828	790
9	186	731
10	975	98
11	722	559
12	898	714
13	721	286
14	932	758
15	112	999
16	131	871
17	189	684
18	390	5
19	524	222
20	787	563
21	729	3
22	100	396
23	314	293
24	962	104
25	166	917
26	825	138
27	240	639
28	198	85
29	414	764
30	257	739
31	468	542
32	398	400
33	267	16
34	722	893
35	931	135
36	697	353
37	847	507
38	946	114
39	725	636
40	127	573
41	536	316
42	889	583
43	436	598
44	246	220
45	429	179
46	334	868
47	213	860
48	645	487
49	531	821
50	798	717
51	340	137
52	116	757
53	823	873
54	102	129
55	109	87
56	855	938
57	448	522
58	844	443
59	528	669
60	525	619
61	658	461
62	291	466
63	810	868
64	139	650
65	228	744
66	333	976
67	757	331
68	107	858
69	535	232
70	588	626
71	662	620
72	202	430
73	221	735
74	577	986
75	1	915
76	614	271
77	0	748
78	615	188
79	852	873
80	713	925
81	677	179
82	828	855
83	86	408
84	316	642
85	919	525
86	438	490
87	340	475
88	803	607
89	754	502
90	137	718
91	348	255
92	190	595
93	610	776
94	277	592
95	18	914
96	936	229
97	582	93
98	92	738
99	197	740
100	27	96
101	814	48
102	418	816
103	309	875
104	577	365
105	473	21
106	322	328
107	192	96
108	410	334
109	840	819
110	936	314
111	417	430
112	919	351
113	624	793
114	256	97
115	653	68
116	658	651
117	343	585
118	165	68
119	488	599
120	891	316
121	993	757
122	950	752
123	318	924
124	942	583
125	995	555
126	22	297
127	661	181
128	272	773
129	715	84
130	495	719
131	997	474
132	514	495
133	833	271
134	720	71
135	907	17
136	937	402
137	364	775
138	151	137
139	230	77
140	400	24
141	90	971
142	395	126
143	195	251
144	580	437
145	627	206
146	854	204
147	708	21
148	400	175
149	481	498
150	517	935
151	653	889
152	140	702
153	831	602
154	966	141
155	308	970
156	139	371
157	816	964
158	834	305
159	335	595
160	397	589
161	533	970
162	536	189
163	183	401
164	683	109
165	471	658
166	336	596
167	381	826
168	939	665
169	330	511
170	485	831
171	671	171
172	499	971
173	35	286
174	328	978
175	459	472
176	924	86
177	431	853
178	84	901
179	182	657
180	867	238
181	245	617
182	209	846
183	777	710
184	267	453
185	171	823
186	866	162
187	508	494
188	675	48
189	650	480
190	860	571
191	405	822
192	23	515
193	181	276
194	263	15
195	457	286
196	622	759
197	276	508
198	666	553
199	825	416
200	234	152
201	662	337
DEMAND_SECTION
1	0
2	7
3	4
4	9
5	2
6	5
7	6
8	5
9	7
10	8
11	3
12	9
13	5
14	9
15	6
16	7
17	3
18	3
19	3
20	5
21	7
22	3
23	1
24	7
25	9
26	1
27	2
28	8
29	9
30	5
31	8
32	2
33	7
34	4
35	6
36	2
37	7
38	9
39	5
40	7
41	3
42	2
43	3
44	3
45	8
46	6
47	2
48	1
49	5
50	1
51	7
52	4
53	2
54	3
55	8
56	8
57	1
58	4
59	6
60	5
61	9
62	8
63	5
64	1
65	3
66	7
67	3
68	3
69	8
70	3
71	6
72	4
73	3
74	4
75	9
76	9
77	9
78	1
79	5
80	8
81	6
82	8
83	6
84	9
85	6
86	2
87	9
88	3
89	3
90	7
91	3
92	5
93	7
94	1
95	5
96	1
97	6
98	6
99	4
100	7
101	9
102	4
103	2
104	6
105	1
106	1
107	4
108	3
109	1
110	9
111	5
112	3
113	5
114	3
115	2
116	6
117	8
118	2
119	6
120	2
121	6
122	8
123	5
124	3
125	6
126	7
127	5
128	5
129	4
130	5
131	4
132	9
133	5
134	8
135	5
136	9
137	8
138	7
139	5
140	3
141	5
142	4
143	8
144	6
145	6
146	9
147	3
148	6
149	1
150	4
151	7
152	2
153	6
154	5
155	5
156	2
157	9
158	2
159	6
160	3
161	2
162	4
163	9
164	8
165	2
166	5
167	1
168	8
169	8
170	2
171	4
172	9
173	2
174	7
175	9
176	9
177	5
178	3
179	5
180	2
181	4
182	1
183	7
184	9
185	8
186	1
187	6
188	1
189	4
190	4
191	9
192	1
193	1
194	7
195	5
196	5
197	5
198	5
199	5
200	7
201	2
TIME_WINDOW_SECTION
1	0	3000
2	856	1604
3	640	1160
4	426	1747
5	0	1424
6	119	1722
7	654	1495
8	971	1784
9	1478	3000
10	1190	2200
11	717	2001
12	594	1206
13	1479	1801
14	1912	2158
15	1159	1430
16	2036	2566
17	1459	2681
18	58	1774
19	568	2226
20	48	1573
21	546	921
22	1401	2457
23	1350	3000
24	283	1353
25	740	1158
26	773	1769
27	1928	2930
28	1156	2792
29	1883	2207
30	1589	2954
31	1134	2100
32	705	2437
33	1718	2401
34	480	767
35	727	2570
36	1889	2458
37	1984	2274
38	1485	2217
39	492	1100
40	1102	2636
41	1715	3000
42	1267	3000
43	0	717
44	69	837
45	1990	2566
46	1778	2966
47	387	808
48	1709	2707
49	1945	2288
50	305	2301
51	364	1471
52	0	1345
53	156	1937
54	1224	3000
55	1415	2284
56	750	1867
57	499	803
58	417	859
59	599	1903
60	1332	1697
61	1360	3000
62	1157	2525
63	163	1838
64	0	1601
65	1745	2694
66	0	1266
67	899	2820
68	874	1939
69	1841	2931
70	1081	2400
71	278	2023
72	665	2042
73	330	1132
74	1505	2345
75	1339	1819
76	2219	2578
77	115	1092
78	445	681
79	1312	2608
80	967	1426
81	461	836
82	739	2480
83	1544	1880
84	1885	3000
85	175	1111
86	16	1144
87	1230	1874
88	641	1284
89	1668	2609
90	482	1518
91	907	1518
92	0	1827
93	425	1297
94	906	2418
95	163	2162
96	928	1483
97	358	622
98	1837	2364
99	890	1659
100	910	2833
101	312	2293
102	1991	2388
103	504	1616
104	1093	2955
105	1013	2642
106	1760	2626
107	424	1186
108	722	1429
109	665	1475
110	934	2203
111	193	961
112	945	1726
113	964	2761
114	293	1634
115	116	1104
116	722	1210
117	1950	3000
118	1660	2301
119	2157	2506
120	1056	1890
121	800	2249
122	1176	2058
123	0	1407
124	927	1864
125	346	1201
126	232	2086
127	1777	2155
128	766	1542
129	264	1076
130	1746	2288
131	602	989
132	1747	2665
133	706	2651
134	1031	1331
135	1416	1740
136	1464	2869
137	1475	3000
138	44	1575
139	471	922
140	195	1714
141	499	2157
142	1401	3000
143	0	1934
144	300	800
145	21	1434
146	372	1147
147	1456	1703
148	894	2223
149	1501	3000
150	670	2013
151	577	2330
152	1308	1576
153	795	1799
154	625	1301
155	1442	2304
156	0	862
157	900	2225
158	874	2563
159	340	2178
160	605	1436
161	501	1032
162	1379	2237
163	1380	3000
164	855	1090
165	337	1278
166	0	922
167	219	1274
168	911	2028
169	1525	2860
170	0	1339
171	1094	3000
172	695	2232
173	1214	2360
174	1188	1506
175	1183	2536
176	748	1516
177	1342	2167
178	766	1877
179	159	1846
180	543	2491
181	1900	2602
182	1328	1742
183	1027	1925
184	2055	2876
185	1982	2377
186	576	1305
187	976	1494
188	1498	2815
189	335	1080
190	290	1572
191	561	1097
192	1134	1546
193	1321	2919
194	1872	2293
195	987	1439
196	163	1078
197	1274	3000
198	1118	2735
199	480	1213
200	658	2128
201	545	807
DEPOT_SECTION
1
-1
EOF
