NAME : n201-0047
COMMENT : "Generated by pyvrp_manuel (VRPTW)"
TYPE : VRPTW
DIMENSION : 201
EDGE_WEIGHT_TYPE : EUC_2D
CAPACITY : 80
VEHICLES : 200
SERVICE_TIME : 200
NODE_COORD_SECTION
1	439	753
2	701	299
3	142	32
4	50	889
5	177	548
6	600	616
7	202	115
8	335	650
9	582	629
10	693	891
11	72	791
12	375	676
13	917	292
14	244	131
15	566	249
16	956	205
17	346	13
18	193	10
19	290	893
20	457	36
21	604	340
22	953	38
23	503	841
24	998	885
25	190	378
26	19	761
27	403	953
28	636	231
29	144	725
30	445	841
31	191	34
32	949	704
33	849	144
34	576	246
35	942	730
36	375	53
37	367	713
38	648	222
39	160	119
40	813	436
41	412	404
42	716	517
43	711	940
44	570	865
45	775	79
46	757	551
47	480	686
48	342	412
49	253	646
50	123	730
51	490	718
52	856	663
53	638	740
54	849	713
55	523	114
56	110	538
57	752	939
58	664	756
59	24	513
60	159	882
61	63	917
62	367	287
63	332	585
64	239	66
65	106	708
66	83	51
67	873	18
68	357	808
69	494	888
70	765	244
71	138	650
72	144	681
73	357	392
74	402	67
75	435	692
76	557	702
77	969	605
78	343	511
79	173	250
80	102	80
81	244	959
82	499	571
83	960	207
84	767	225
85	586	258
86	489	628
87	635	39
88	200	468
89	57	853
90	972	33
91	326	696
92	6	25
93	403	456
94	549	360
95	575	239
96	173	288
97	339	894
98	173	997
99	674	393
100	904	442
101	776	292
102	903	247
103	209	502
104	497	79
105	244	828
106	553	136
107	335	417
108	977	360
109	788	138
110	368	659
111	947	115
112	660	888
113	188	103
114	416	252
115	37	314
116	524	189
117	752	941
118	504	799
119	969	620
120	745	681
121	464	184
122	449	940
123	550	920
124	351	440
125	44	206
126	301	451
127	182	812
128	198	301
129	410	555
130	882	291
131	612	874
132	388	433
133	947	829
134	865	602
135	575	135
136	18	534
137	941	413
138	77	269
139	203	674
140	581	35
141	17	17
142	504	435
143	245	899
144	531	169
145	822	348
146	582	562
147	575	468
148	574	820
149	46	362
150	666	943
151	723	46
152	658	391
153	46	573
154	98	400
155	524	111
156	271	319
157	258	547
158	787	261
159	321	468
160	55	12
161	316	621
162	996	420
163	442	926
164	950	65
165	181	284
166	518	867
167	568	18
168	17	879
169	99	639
170	563	447
171	754	802
172	53	970
173	347	518
174	727	13
175	75	275
176	811	960
177	26	304
178	216	62
179	280	973
180	579	755
181	596	472
182	823	164
183	270	981
184	681	345
185	728	459
186	783	634
187	864	71
188	788	287
189	244	520
190	121	514
191	395	231
192	349	423
193	83	275
194	681	937
195	824	113
196	702	243
197	897	388
198	468	781
199	227	87
200	998	960
201	744	265
DEMAND_SECTION
1	0
2	1
3	6
4	5
5	9
6	3
7	9
8	3
9	3
10	9
11	4
12	9
13	4
14	2
15	1
16	4
17	1
18	1
19	4
20	4
21	7
22	9
23	7
24	3
25	1
26	8
27	1
28	8
29	7
30	5
31	4
32	9
33	3
34	4
35	9
36	4
37	8
38	9
39	7
40	2
41	4
42	6
43	2
44	8
45	6
46	6
47	5
48	8
49	8
50	2
51	6
52	7
53	4
54	4
55	2
56	8
57	9
58	7
59	9
60	8
61	2
62	2
63	7
64	1
65	2
66	6
67	9
68	3
69	8
70	6
71	6
72	4
73	2
74	7
75	5
76	6
77	7
78	3
79	7
80	1
81	5
82	5
83	2
84	8
85	1
86	2
87	9
88	3
89	3
90	8
91	7
92	5
93	3
94	8
95	5
96	6
97	1
98	3
99	9
100	5
101	6
102	9
103	4
104	5
105	1
106	4
107	4
108	6
109	2
110	8
111	3
112	8
113	2
114	1
115	7
116	6
117	5
118	6
119	5
120	7
121	6
122	6
123	5
124	5
125	7
126	2
127	5
128	8
129	4
130	2
131	7
132	4
133	6
134	3
135	5
136	9
137	5
138	5
139	5
140	1
141	8
142	3
143	8
144	8
145	5
146	6
147	3
148	3
149	5
150	3
151	3
152	2
153	9
154	2
155	8
156	5
157	3
158	1
159	4
160	6
161	4
162	8
163	3
164	4
165	9
166	6
167	9
168	8
169	5
170	3
171	3
172	2
173	5
174	7
175	7
176	4
177	7
178	1
179	3
180	1
181	3
182	6
183	2
184	1
185	2
186	9
187	8
188	1
189	5
190	5
191	3
192	6
193	1
194	9
195	6
196	6
197	3
198	2
199	1
200	1
201	9
TIME_WINDOW_SECTION
1	0	3000
2	1103	1874
3	1294	1677
4	1534	1778
5	1647	2711
6	854	2277
7	861	1359
8	1116	1772
9	1512	2564
10	0	1670
11	564	1590
12	2216	2907
13	0	1685
14	1292	1531
15	42	1711
16	477	1365
17	313	2162
18	638	1627
19	2283	2837
20	1368	2692
21	275	1844
22	1554	2179
23	1269	2229
24	788	1483
25	16	1926
26	127	1941
27	1209	2872
28	755	1820
29	978	1537
30	1036	2251
31	1476	2405
32	63	1466
33	402	2358
34	449	1990
35	170	2001
36	284	2180
37	1483	1753
38	0	1177
39	783	1962
40	890	1895
41	918	1937
42	99	1282
43	675	1398
44	511	1248
45	638	1404
46	65	1640
47	0	234
48	984	1800
49	1313	2810
50	268	1636
51	125	1107
52	461	2173
53	962	2173
54	541	2453
55	1111	1334
56	630	979
57	574	2553
58	2051	2376
59	1799	2677
60	461	1524
61	1521	2328
62	126	1165
63	1463	3000
64	714	1419
65	0	1282
66	1118	2196
67	1574	2040
68	2163	2934
69	160	411
70	1066	3000
71	0	1540
72	815	2219
73	0	1178
74	754	1119
75	154	2076
76	280	1022
77	1416	2247
78	1522	1726
79	471	2350
80	327	1289
81	1928	3000
82	0	554
83	1284	2286
84	1169	2981
85	140	1565
86	958	1305
87	1383	1732
88	98	1104
89	655	1775
90	80	2046
91	0	1222
92	208	2091
93	1550	3000
94	1628	2826
95	976	2435
96	718	2185
97	1722	3000
98	0	1136
99	112	1093
100	427	925
101	662	2484
102	564	1381
103	1155	2154
104	40	1633
105	1436	3000
106	819	1371
107	0	940
108	1142	2808
109	564	1185
110	331	1082
111	422	1883
112	0	964
113	1520	2086
114	1015	1523
115	1918	2331
116	962	2956
117	258	1163
118	0	1316
119	1406	2261
120	864	2779
121	166	1143
122	485	1597
123	0	990
124	1336	2639
125	580	1995
126	476	2410
127	17	1818
128	438	1688
129	204	758
130	830	1933
131	1501	3000
132	0	1752
133	1169	2674
134	693	896
135	586	1421
136	868	1076
137	874	2581
138	1739	2476
139	1284	1883
140	896	2228
141	1101	2448
142	1261	2792
143	396	2198
144	1882	2437
145	1205	2661
146	334	1544
147	195	889
148	1803	2572
149	892	1524
150	1243	2250
151	372	1460
152	55	807
153	1387	2751
154	1255	2281
155	116	1527
156	1877	2511
157	0	1305
158	866	2453
159	990	2332
160	1358	2382
161	1023	2759
162	1124	2586
163	2240	2497
164	0	1974
165	1523	2666
166	1240	2275
167	588	1742
168	1118	2272
169	70	1419
170	373	718
171	429	1811
172	784	2250
173	1734	2230
174	1504	2134
175	413	1397
176	1773	2973
177	1411	2081
178	1570	2373
179	727	984
180	1664	3000
181	231	1961
182	290	2261
183	0	1217
184	1440	2420
185	750	1243
186	1084	1466
187	89	1825
188	1075	1488
189	62	640
190	1258	3000
191	1608	2402
192	241	873
193	1470	1807
194	1298	2361
195	374	1141
196	1015	2203
197	1238	1783
198	940	1560
199	429	1082
200	529	746
201	1376	3000
DEPOT_SECTION
1
-1
EOF
