NAME : n201-0041
COMMENT : "Generated by pyvrp_manuel (VRPTW)"
TYPE : VRPTW
DIMENSION : 201
EDGE_WEIGHT_TYPE : EUC_2D
CAPACITY : 80
VEHICLES : 200
SERVICE_TIME : 200
NODE_COORD_SECTION
1	987	670
2	660	800
3	52	297
4	167	593
5	365	226
6	749	31
7	813	758
8	42	917
9	176	41
10	89	203
11	142	342
12	243	640
13	52	322
14	903	332
15	323	879
16	495	864
17	271	975
18	756	797
19	347	223
20	979	558
21	540	47
22	845	610
23	150	201
24	677	422
25	707	570
26	674	113
27	607	684
28	270	6
29	293	214
30	887	889
31	247	81
32	911	247
33	645	124
34	4	637
35	739	395
36	462	648
37	392	490
38	184	346
39	557	618
40	696	680
41	696	637
42	168	476
43	939	158
44	542	671
45	540	660
46	18	132
47	573	164
48	147	472
49	220	106
50	165	714
51	208	677
52	891	615
53	504	288
54	325	547
55	882	919
56	117	430
57	408	982
58	356	780
59	598	370
60	978	952
61	192	368
62	619	756
63	901	894
64	877	43
65	954	120
66	123	247
67	443	523
68	267	262
69	571	628
70	100	180
71	518	276
72	435	408
73	680	759
74	896	163
75	3	48
76	913	557
77	65	994
78	586	913
79	704	17
80	123	172
81	280	504
82	634	671
83	822	523
84	186	485
85	570	115
86	710	429
87	268	861
88	243	94
89	682	292
90	858	67
91	88	82
92	685	753
93	574	814
94	50	113
95	268	380
96	874	801
97	833	537
98	335	941
99	258	140
100	208	568
101	847	572
102	747	350
103	619	593
104	964	526
105	230	816
106	273	247
107	362	173
108	58	112
109	726	262
110	674	794
111	658	529
112	688	144
113	501	540
114	210	526
115	891	976
116	34	589
117	462	866
118	199	351
119	271	624
120	669	862
121	929	757
122	887	74
123	181	885
124	947	51
125	321	542
126	465	89
127	775	41
128	486	282
129	735	362
130	3	969
131	184	422
132	360	548
133	157	689
134	710	550
135	123	970
136	277	51
137	509	171
138	513	550
139	685	687
140	428	257
141	720	200
142	108	573
143	129	680
144	121	217
145	458	683
146	923	218
147	4	406
148	753	232
149	497	955
150	17	587
151	81	801
152	893	511
153	509	370
154	294	805
155	37	406
156	478	932
157	248	442
158	770	550
159	24	429
160	14	593
161	240	823
162	470	66
163	52	725
164	826	734
165	584	1
166	605	664
167	685	122
168	395	356
169	505	6
170	935	531
171	685	978
172	466	469
173	890	957
174	982	672
175	272	576
176	788	36
177	646	872
178	924	185
179	243	783
180	350	720
181	909	803
182	941	913
183	870	388
184	645	555
185	563	539
186	955	665
187	60	195
188	651	801
189	707	697
190	91	104
191	81	526
192	83	410
193	540	230
194	18	970
195	649	132
196	884	202
197	331	298
198	467	645
199	264	103
200	988	435
201	243	961
DEMAND_SECTION
1	0
2	1
3	3
4	8
5	4
6	2
7	3
8	7
9	1
10	2
11	5
12	3
13	6
14	2
15	9
16	9
17	7
18	8
19	6
20	4
21	9
22	9
23	1
24	9
25	3
26	2
27	4
28	6
29	4
30	1
31	9
32	9
33	2
34	8
35	1
36	1
37	3
38	7
39	7
40	3
41	6
42	9
43	8
44	1
45	6
46	8
47	5
48	3
49	1
50	7
51	6
52	9
53	2
54	9
55	9
56	5
57	6
58	4
59	8
60	1
61	7
62	4
63	4
64	8
65	6
66	2
67	7
68	1
69	4
70	4
71	4
72	5
73	4
74	3
75	8
76	6
77	6
78	8
79	2
80	8
81	3
82	8
83	4
84	3
85	7
86	7
87	3
88	4
89	2
90	8
91	8
92	1
93	6
94	2
95	6
96	1
97	6
98	5
99	6
100	2
101	9
102	7
103	5
104	8
105	1
106	3
107	6
108	9
109	1
110	2
111	6
112	6
113	7
114	7
115	3
116	9
117	9
118	9
119	5
120	6
121	4
122	4
123	4
124	7
125	8
126	9
127	7
128	5
129	9
130	3
131	9
132	9
133	1
134	6
135	4
136	3
137	9
138	3
139	5
140	9
141	7
142	4
143	8
144	1
145	8
146	3
147	7
148	4
149	9
150	2
151	5
152	1
153	7
154	1
155	9
156	9
157	9
158	7
159	3
160	8
161	2
162	1
163	3
164	5
165	2
166	8
167	9
168	5
169	1
170	6
171	2
172	4
173	3
174	6
175	1
176	8
177	9
178	5
179	5
180	1
181	5
182	1
183	2
184	6
185	7
186	1
187	9
188	6
189	7
190	6
191	9
192	9
193	3
194	3
195	6
196	4
197	9
198	6
199	8
200	2
201	5
TIME_WINDOW_SECTION
1	0	3000
2	126	943
3	1038	2042
4	650	1619
5	664	1018
6	0	1625
7	1448	2474
8	970	2320
9	944	2058
10	1260	1969
11	669	2558
12	1300	2198
13	1455	2103
14	1130	3000
15	25	1803
16	1761	2129
17	1302	1525
18	0	1863
19	714	1668
20	2106	2536
21	1046	2266
22	0	908
23	420	1870
24	1047	2016
25	771	1734
26	2023	2237
27	583	1478
28	1637	1986
29	205	1506
30	187	1364
31	553	2209
32	417	1711
33	244	2070
34	1256	2149
35	898	2074
36	323	1242
37	463	1192
38	705	1395
39	1644	2343
40	485	792
41	1509	3000
42	915	2277
43	946	2421
44	0	1074
45	826	2091
46	947	2142
47	1075	1669
48	383	1415
49	552	1912
50	345	2238
51	660	978
52	0	1488
53	1015	2210
54	1199	2176
55	0	1138
56	862	1923
57	117	1292
58	1208	1667
59	32	1918
60	0	1371
61	556	1759
62	921	2570
63	375	1756
64	1250	2691
65	892	2676
66	981	1845
67	363	2348
68	882	2019
69	1596	1880
70	1143	2412
71	832	2146
72	1326	2437
73	281	481
74	929	2772
75	554	2104
76	1562	2349
77	1053	1455
78	1197	2235
79	641	2597
80	1060	1302
81	970	1785
82	765	2608
83	0	1585
84	230	2172
85	235	1616
86	475	1473
87	836	2042
88	1414	1903
89	838	1834
90	0	1795
91	454	1699
92	437	1044
93	1073	1512
94	658	1645
95	777	1663
96	851	2168
97	1155	1795
98	252	1333
99	915	2109
100	435	1923
101	1469	1842
102	88	1235
103	216	1225
104	2138	2703
105	519	1192
106	978	2934
107	565	1842
108	861	2459
109	1274	2610
110	249	913
111	514	2402
112	557	1450
113	194	1808
114	533	2038
115	0	1271
116	1359	1762
117	1309	3000
118	987	2687
119	1600	2235
120	1521	2498
121	153	449
122	1032	1630
123	727	2004
124	1073	2411
125	180	1889
126	1496	2195
127	1504	2605
128	177	1138
129	1357	3000
130	985	1805
131	493	2232
132	1237	1868
133	714	1100
134	1248	1543
135	970	1681
136	564	1778
137	31	1793
138	2053	2344
139	720	2695
140	1683	2019
141	215	1257
142	1356	1667
143	1557	1783
144	618	1401
145	238	1033
146	1602	2007
147	207	1934
148	786	1732
149	337	1691
150	1367	1676
151	628	1304
152	1418	1662
153	0	1565
154	693	1354
155	1073	1989
156	419	2415
157	770	2127
158	927	1742
159	522	2019
160	1083	2246
161	1521	2519
162	918	1582
163	246	2081
164	1657	2561
165	873	2252
166	855	1123
167	661	1863
168	1182	2998
169	607	1335
170	677	911
171	1424	2020
172	1795	2293
173	101	1020
174	746	1326
175	857	2573
176	519	1037
177	142	1326
178	1427	2086
179	236	1344
180	683	1330
181	80	1553
182	939	2707
183	0	1506
184	790	1114
185	1632	2085
186	201	962
187	1362	1659
188	404	1429
189	746	2553
190	496	1961
191	386	1685
192	1119	1616
193	1468	1771
194	766	1395
195	864	1977
196	0	1436
197	257	1807
198	243	1613
199	854	2176
200	319	606
201	1067	1325
DEPOT_SECTION
1
-1
EOF
