NAME : n201-0032
COMMENT : "Generated by pyvrp_manuel (VRPTW)"
TYPE : VRPTW
DIMENSION : 201
EDGE_WEIGHT_TYPE : EUC_2D
CAPACITY : 80
VEHICLES : 200
SERVICE_TIME : 200
NODE_COORD_SECTION
1	701	628
2	60	884
3	378	485
4	647	970
5	142	41
6	956	47
7	834	722
8	177	481
9	436	665
10	817	987
11	294	736
12	545	300
13	570	662
14	2	291
15	866	324
16	560	836
17	404	836
18	8	956
19	320	356
20	922	641
21	733	127
22	552	346
23	725	511
24	34	997
25	335	850
26	393	988
27	721	341
28	647	56
29	3	173
30	985	167
31	449	126
32	926	705
33	386	716
34	818	331
35	36	707
36	497	763
37	749	501
38	909	221
39	983	893
40	252	65
41	297	307
42	727	470
43	710	297
44	604	79
45	491	921
46	585	152
47	111	465
48	104	412
49	985	872
50	962	607
51	113	597
52	728	489
53	90	370
54	498	767
55	2	237
56	379	779
57	334	341
58	41	956
59	781	693
60	788	471
61	475	221
62	19	527
63	775	763
64	956	135
65	351	624
66	6	948
67	533	375
68	520	655
69	115	154
70	435	965
71	387	583
72	998	663
73	344	848
74	944	345
75	27	597
76	292	998
77	990	988
78	871	377
79	856	338
80	918	194
81	67	478
82	975	761
83	975	940
84	587	242
85	898	331
86	524	178
87	129	689
88	574	514
89	302	194
90	13	584
91	151	724
92	93	19
93	586	141
94	400	891
95	365	793
96	410	152
97	274	300
98	58	392
99	884	828
100	327	773
101	950	404
102	348	671
103	903	473
104	644	345
105	504	783
106	947	586
107	279	91
108	38	402
109	431	70
110	261	701
111	126	836
112	759	201
113	288	98
114	810	613
115	252	670
116	554	970
117	478	27
118	806	799
119	709	50
120	595	686
121	414	707
122	90	46
123	84	44
124	293	670
125	595	957
126	805	823
127	92	756
128	437	281
129	263	255
130	409	971
131	679	16
132	979	277
133	759	238
134	703	777
135	130	614
136	207	834
137	205	700
138	57	681
139	490	556
140	342	658
141	489	690
142	733	201
143	308	975
144	463	583
145	753	526
146	632	958
147	283	73
148	439	45
149	260	689
150	413	91
151	520	442
152	821	971
153	10	793
154	829	85
155	455	663
156	32	187
157	571	909
158	844	614
159	468	528
160	879	49
161	545	944
162	685	336
163	741	1
164	1000	273
165	986	923
166	979	494
167	895	111
168	418	556
169	216	86
170	432	868
171	346	700
172	985	613
173	9	98
174	662	300
175	103	566
176	114	140
177	318	68
178	297	355
179	159	486
180	749	923
181	883	357
182	647	602
183	520	948
184	348	654
185	954	408
186	679	22
187	666	889
188	410	757
189	359	122
190	934	633
191	818	489
192	298	31
193	2	43
194	971	189
195	677	612
196	128	935
197	539	63
198	464	25
199	765	241
200	194	83
201	147	275
DEMAND_SECTION
1	0
2	6
3	4
4	6
5	8
6	2
7	7
8	8
9	2
10	8
11	9
12	8
13	6
14	3
15	8
16	4
17	6
18	8
19	7
20	7
21	6
22	7
23	7
24	4
25	2
26	1
27	4
28	5
29	4
30	2
31	1
32	9
33	6
34	2
35	6
36	4
37	9
38	4
39	3
40	9
41	8
42	3
43	4
44	9
45	3
46	5
47	3
48	7
49	4
50	5
51	6
52	3
53	7
54	6
55	9
56	3
57	2
58	8
59	4
60	2
61	3
62	4
63	5
64	2
65	6
66	8
67	8
68	3
69	1
70	8
71	6
72	5
73	9
74	3
75	8
76	2
77	1
78	4
79	6
80	5
81	7
82	9
83	5
84	5
85	5
86	2
87	4
88	2
89	8
90	9
91	6
92	4
93	6
94	5
95	3
96	2
97	9
98	3
99	7
100	9
101	6
102	5
103	4
104	4
105	4
106	4
107	1
108	3
109	3
110	8
111	6
112	1
113	6
114	7
115	8
116	3
117	5
118	4
119	3
120	8
121	5
122	4
123	8
124	4
125	1
126	4
127	9
128	7
129	2
130	2
131	9
132	8
133	9
134	2
135	4
136	8
137	3
138	6
139	7
140	7
141	6
142	4
143	9
144	2
145	2
146	6
147	9
148	2
149	4
150	3
151	8
152	2
153	2
154	9
155	5
156	1
157	5
158	9
159	2
160	4
161	6
162	7
163	1
164	6
165	3
166	1
167	4
168	3
169	6
170	8
171	4
172	5
173	4
174	2
175	1
176	5
177	9
178	6
179	6
180	9
181	2
182	8
183	9
184	1
185	8
186	5
187	4
188	4
189	2
190	7
191	6
192	9
193	8
194	6
195	5
196	1
197	3
198	3
199	9
200	6
201	7
TIME_WINDOW_SECTION
1	0	3000
2	895	1865
3	0	1571
4	1079	2786
5	874	2254
6	436	2358
7	156	742
8	0	1489
9	1393	3000
10	296	671
11	1048	2945
12	210	1310
13	538	1437
14	0	1822
15	1042	1441
16	1171	2156
17	1042	2929
18	200	1582
19	0	1424
20	220	830
21	1953	2203
22	839	2800
23	414	1616
24	953	2475
25	491	787
26	695	1593
27	534	2303
28	337	2205
29	630	2342
30	1504	2215
31	1108	1612
32	1408	1636
33	586	2328
34	219	536
35	692	2034
36	0	969
37	1721	2490
38	1552	1828
39	343	1815
40	701	1776
41	1593	2157
42	1345	2248
43	1106	2491
44	841	1199
45	0	1549
46	479	1952
47	1118	2316
48	1497	2367
49	623	1934
50	229	1772
51	1348	2487
52	88	1133
53	108	1554
54	1412	2513
55	1345	2186
56	1612	2375
57	0	1214
58	282	2150
59	2527	2759
60	526	760
61	1071	2729
62	1206	2071
63	979	1393
64	509	2484
65	63	2051
66	1218	2326
67	742	2633
68	0	712
69	1504	2038
70	1767	2372
71	1886	2876
72	1440	2987
73	143	881
74	679	1413
75	373	1224
76	882	2370
77	113	1645
78	86	2027
79	784	1684
80	1557	2949
81	962	2501
82	793	1467
83	184	2101
84	1590	2565
85	1118	1723
86	354	1474
87	1357	2762
88	0	1200
89	42	1291
90	240	2087
91	1243	3000
92	379	2362
93	255	1291
94	0	1004
95	489	1796
96	1119	2189
97	382	898
98	973	1300
99	789	2019
100	1107	2311
101	1735	2034
102	1589	2563
103	794	2548
104	555	1035
105	744	2108
106	946	2081
107	539	2040
108	1142	2429
109	997	1548
110	442	1703
111	650	1167
112	656	1465
113	1487	1944
114	1802	3000
115	450	2050
116	1750	2730
117	372	1417
118	488	841
119	143	1113
120	773	1086
121	896	2373
122	1371	2429
123	1012	2501
124	634	839
125	1764	2017
126	1210	2508
127	1057	2265
128	119	1423
129	1105	1469
130	0	1067
131	701	2560
132	993	2587
133	1937	2548
134	2185	2936
135	1448	1890
136	1173	2520
137	906	1236
138	464	854
139	1619	2278
140	646	2554
141	1081	2426
142	2199	2407
143	641	1802
144	1630	1928
145	523	2327
146	0	1314
147	1411	2791
148	802	2471
149	2118	2517
150	1897	2440
151	1087	2742
152	1042	2316
153	1853	2204
154	762	1424
155	1909	2242
156	598	2312
157	1459	2291
158	1633	2272
159	980	1232
160	1979	2232
161	1028	2666
162	0	1357
163	84	1311
164	753	1794
165	1203	1470
166	586	1144
167	1528	1839
168	444	900
169	0	1949
170	861	1582
171	215	1395
172	931	1704
173	1014	2707
174	1216	2655
175	532	2392
176	1005	1284
177	819	2664
178	1906	2331
179	1387	2824
180	741	2108
181	0	1318
182	157	1924
183	1419	3000
184	1348	2776
185	810	1571
186	286	1089
187	1673	3000
188	1913	2707
189	1180	2253
190	0	1410
191	870	2064
192	1709	2329
193	936	2039
194	483	867
195	146	1589
196	374	2184
197	190	1819
198	1226	1516
199	1387	1901
200	448	2226
201	494	834
DEPOT_SECTION
1
-1
EOF
