NAME : n201-0042
COMMENT : "Generated by pyvrp_manuel (VRPTW)"
TYPE : VRPTW
DIMENSION : 201
EDGE_WEIGHT_TYPE : EUC_2D
CAPACITY : 80
VEHICLES : 200
SERVICE_TIME : 200
NODE_COORD_SECTION
1	768	309
2	348	280
3	884	936
4	759	564
5	598	751
6	760	394
7	804	251
8	799	61
9	936	151
10	176	356
11	264	933
12	149	105
13	702	625
14	495	830
15	657	557
16	957	446
17	763	132
18	336	289
19	351	377
20	818	555
21	853	410
22	608	575
23	942	180
24	139	373
25	948	123
26	216	740
27	962	920
28	722	291
29	86	330
30	426	67
31	676	620
32	856	485
33	914	605
34	726	267
35	634	679
36	585	913
37	458	985
38	621	250
39	52	84
40	728	827
41	379	639
42	808	199
43	12	766
44	533	619
45	437	418
46	77	172
47	530	73
48	476	628
49	497	945
50	695	232
51	429	342
52	110	432
53	167	961
54	94	940
55	57	877
56	461	707
57	487	898
58	715	259
59	797	228
60	31	346
61	972	270
62	963	176
63	208	391
64	258	232
65	691	851
66	286	932
67	897	190
68	858	803
69	950	731
70	335	623
71	937	737
72	635	614
73	172	418
74	993	620
75	289	734
76	628	682
77	873	667
78	85	574
79	100	529
80	381	149
81	375	940
82	142	234
83	746	18
84	329	835
85	38	63
86	279	39
87	62	650
88	929	897
89	789	623
90	630	277
91	289	758
92	979	984
93	611	955
94	556	243
95	348	872
96	860	547
97	318	639
98	536	6
99	235	30
100	504	826
101	697	494
102	57	973
103	933	287
104	758	211
105	230	474
106	238	808
107	407	751
108	825	587
109	845	508
110	602	37
111	807	769
112	552	993
113	13	439
114	297	379
115	698	588
116	764	26
117	28	675
118	988	346
119	970	994
120	289	671
121	155	503
122	421	931
123	416	958
124	522	251
125	540	468
126	145	142
127	787	225
128	153	316
129	529	731
130	855	485
131	925	991
132	129	480
133	625	76
134	74	625
135	277	973
136	697	340
137	239	194
138	44	239
139	635	739
140	83	456
141	439	748
142	115	968
143	421	352
144	717	453
145	176	484
146	410	899
147	324	117
148	30	463
149	8	844
150	551	655
151	520	393
152	942	805
153	903	111
154	624	9
155	371	401
156	156	956
157	266	438
158	319	921
159	958	1
160	333	216
161	603	771
162	329	94
163	232	370
164	107	412
165	88	537
166	938	826
167	581	682
168	861	314
169	24	291
170	452	564
171	865	751
172	557	87
173	19	91
174	764	809
175	706	83
176	638	565
177	704	970
178	798	34
179	529	40
180	926	192
181	760	670
182	143	414
183	918	245
184	930	90
185	253	199
186	388	541
187	899	266
188	491	904
189	206	728
190	800	900
191	700	609
192	778	917
193	418	141
194	68	803
195	313	883
196	647	262
197	162	211
198	948	954
199	715	254
200	821	879
201	797	969
DEMAND_SECTION
1	0
2	6
3	6
4	6
5	2
6	1
7	6
8	3
9	9
10	7
11	3
12	9
13	7
14	9
15	7
16	9
17	3
18	8
19	3
20	8
21	3
22	2
23	9
24	9
25	5
26	9
27	4
28	8
29	9
30	4
31	1
32	3
33	7
34	4
35	5
36	4
37	4
38	2
39	7
40	8
41	7
42	3
43	4
44	5
45	4
46	3
47	3
48	8
49	2
50	8
51	9
52	5
53	8
54	3
55	2
56	8
57	2
58	8
59	7
60	5
61	9
62	9
63	8
64	6
65	2
66	9
67	1
68	9
69	9
70	2
71	2
72	9
73	6
74	8
75	1
76	7
77	2
78	6
79	2
80	5
81	9
82	2
83	3
84	6
85	7
86	1
87	2
88	7
89	5
90	2
91	3
92	3
93	9
94	1
95	8
96	2
97	9
98	2
99	6
100	4
101	2
102	9
103	9
104	8
105	6
106	9
107	8
108	5
109	6
110	1
111	7
112	3
113	4
114	2
115	4
116	1
117	9
118	9
119	1
120	4
121	9
122	9
123	4
124	5
125	8
126	5
127	3
128	2
129	3
130	4
131	6
132	9
133	7
134	2
135	5
136	1
137	9
138	6
139	9
140	5
141	4
142	8
143	9
144	4
145	7
146	3
147	1
148	2
149	2
150	9
151	9
152	1
153	8
154	9
155	5
156	8
157	2
158	8
159	2
160	5
161	9
162	8
163	3
164	4
165	3
166	1
167	3
168	1
169	6
170	2
171	5
172	2
173	6
174	9
175	6
176	9
177	6
178	5
179	8
180	8
181	4
182	6
183	5
184	3
185	4
186	6
187	6
188	7
189	5
190	1
191	4
192	3
193	7
194	1
195	7
196	8
197	4
198	5
199	3
200	3
201	7
TIME_WINDOW_SECTION
1	0	3000
2	190	1754
3	1205	2322
4	1718	2490
5	1493	1916
6	1021	2887
7	1896	3000
8	1120	1467
9	1691	2133
10	641	2380
11	751	1673
12	423	1180
13	596	1814
14	1401	2997
15	2196	2487
16	1047	1671
17	1244	2762
18	1186	2415
19	609	1421
20	730	1295
21	1494	2954
22	985	1421
23	0	1092
24	1072	1957
25	977	1491
26	1542	2045
27	1501	1981
28	0	1640
29	1411	2607
30	1041	1975
31	1060	2793
32	0	903
33	1130	1800
34	1309	1824
35	672	1737
36	929	2058
37	1615	2242
38	1171	2193
39	1726	2134
40	18	1804
41	0	1916
42	689	2138
43	413	1829
44	1487	3000
45	1214	1686
46	105	1931
47	1488	3000
48	1249	2420
49	917	1527
50	1004	2332
51	1716	2530
52	0	1675
53	282	1689
54	532	1928
55	184	1863
56	934	2524
57	1428	2089
58	301	987
59	2283	3000
60	1093	2136
61	1814	2155
62	612	1422
63	1058	2611
64	140	1508
65	0	1545
66	197	2095
67	0	1555
68	1103	2125
69	1774	2204
70	1504	2274
71	986	2986
72	787	2321
73	695	2543
74	1141	2892
75	0	1753
76	1542	2088
77	281	1767
78	1688	2298
79	147	1962
80	1278	2421
81	628	1486
82	479	1136
83	0	1293
84	538	2292
85	1233	2467
86	237	883
87	456	1986
88	668	1298
89	7	1190
90	1603	2102
91	147	1818
92	280	2242
93	1855	2205
94	0	1408
95	490	1616
96	448	1612
97	1230	2496
98	333	1968
99	1288	1571
100	1016	1743
101	1455	2125
102	1037	1475
103	900	1877
104	666	1791
105	1732	2255
106	567	1355
107	1317	2099
108	171	447
109	1551	2102
110	846	1255
111	18	1924
112	1818	2203
113	1216	2429
114	1270	2461
115	745	1896
116	718	1295
117	1063	1377
118	385	951
119	1916	2220
120	1200	1816
121	1154	1778
122	643	1608
123	759	1679
124	1231	2708
125	0	1820
126	681	2413
127	0	762
128	0	1484
129	1048	1682
130	0	1864
131	538	2442
132	272	1066
133	451	989
134	138	1493
135	219	1715
136	387	1136
137	151	1686
138	769	1690
139	526	966
140	522	2323
141	0	1589
142	1014	2576
143	91	1325
144	1016	2707
145	828	1111
146	0	1711
147	116	1889
148	1115	2269
149	1530	2174
150	486	1503
151	2223	2623
152	882	1487
153	578	2364
154	1883	2198
155	1429	1739
156	571	1859
157	956	2324
158	630	1154
159	444	972
160	2171	2373
161	568	1884
162	0	1324
163	599	2526
164	74	1471
165	1173	2139
166	1358	2289
167	864	1541
168	443	1579
169	844	2814
170	556	1379
171	1257	2139
172	1019	1252
173	669	1693
174	1155	2777
175	0	1436
176	500	967
177	799	1694
178	922	2339
179	421	1955
180	471	867
181	1187	2897
182	230	2134
183	901	1917
184	1776	2064
185	1574	1883
186	17	952
187	500	1314
188	1433	1663
189	815	1767
190	520	788
191	43	1605
192	117	2029
193	530	1861
194	1178	1436
195	1593	2093
196	1069	1948
197	1549	2494
198	744	2427
199	1433	2145
200	53	1227
201	801	1969
DEPOT_SECTION
1
-1
EOF
