NAME : n201-0007
COMMENT : "Generated by pyvrp_manuel (VRPTW)"
TYPE : VRPTW
DIMENSION : 201
EDGE_WEIGHT_TYPE : EUC_2D
CAPACITY : 80
VEHICLES : 200
SERVICE_TIME : 200
NODE_COORD_SECTION
1	826	932
2	354	997
3	636	395
4	56	201
5	745	515
6	916	441
7	436	993
8	688	250
9	594	141
10	274	350
11	925	563
12	255	487
13	872	376
14	153	211
15	71	151
16	10	493
17	122	108
18	330	147
19	221	733
20	70	395
21	824	787
22	231	781
23	833	621
24	745	378
25	414	678
26	428	679
27	826	658
28	590	263
29	344	553
30	437	807
31	764	975
32	672	178
33	937	537
34	45	846
35	182	833
36	575	168
37	826	421
38	126	810
39	197	643
40	772	702
41	638	737
42	107	256
43	755	875
44	593	561
45	104	403
46	248	988
47	995	591
48	899	539
49	356	139
50	923	643
51	419	178
52	860	720
53	215	969
54	130	430
55	533	922
56	591	859
57	173	756
58	910	208
59	369	662
60	600	594
61	424	373
62	824	384
63	651	207
64	135	91
65	951	280
66	213	586
67	928	568
68	685	639
69	905	693
70	103	504
71	925	38
72	349	29
73	56	692
74	935	955
75	320	885
76	129	65
77	884	720
78	563	98
79	480	912
80	285	829
81	262	61
82	947	39
83	269	431
84	890	501
85	389	794
86	400	853
87	951	708
88	553	878
89	23	3
90	628	171
91	70	364
92	179	588
93	217	501
94	763	238
95	913	307
96	892	212
97	162	719
98	975	235
99	48	244
100	790	101
101	354	67
102	470	853
103	511	481
104	428	963
105	593	535
106	592	548
107	874	885
108	634	763
109	95	89
110	506	657
111	597	752
112	953	30
113	2	526
114	180	679
115	619	527
116	556	536
117	37	741
118	675	976
119	596	539
120	528	422
121	670	575
122	982	252
123	216	928
124	762	564
125	926	486
126	663	604
127	513	809
128	224	334
129	876	789
130	688	728
131	821	488
132	996	627
133	392	734
134	674	124
135	520	616
136	859	91
137	135	119
138	780	478
139	33	172
140	926	748
141	873	5
142	300	634
143	730	922
144	33	771
145	584	998
146	71	527
147	20	361
148	763	832
149	40	544
150	915	401
151	415	565
152	468	478
153	950	324
154	46	912
155	314	279
156	327	807
157	528	780
158	174	303
159	155	868
160	44	32
161	794	213
162	923	100
163	486	722
164	807	305
165	375	681
166	246	212
167	770	624
168	56	479
169	689	18
170	267	53
171	6	281
172	944	499
173	470	595
174	599	491
175	708	350
176	997	537
177	319	461
178	799	164
179	958	444
180	459	292
181	792	667
182	681	322
183	193	317
184	641	132
185	627	133
186	388	520
187	255	42
188	770	398
189	586	954
190	429	156
191	308	940
192	824	103
193	241	279
194	751	914
195	769	635
196	535	248
197	793	24
198	113	911
199	377	260
200	719	680
201	475	444
DEMAND_SECTION
1	0
2	4
3	4
4	4
5	9
6	5
7	5
8	5
9	9
10	6
11	1
12	3
13	1
14	5
15	4
16	7
17	1
18	7
19	2
20	3
21	2
22	6
23	8
24	5
25	8
26	8
27	9
28	8
29	7
30	2
31	5
32	7
33	3
34	1
35	4
36	6
37	2
38	6
39	6
40	7
41	5
42	4
43	2
44	6
45	1
46	6
47	9
48	8
49	2
50	5
51	5
52	6
53	1
54	9
55	4
56	9
57	1
58	3
59	1
60	1
61	1
62	8
63	4
64	8
65	3
66	2
67	7
68	5
69	4
70	5
71	3
72	3
73	5
74	5
75	2
76	9
77	2
78	5
79	9
80	6
81	8
82	6
83	8
84	3
85	7
86	5
87	8
88	5
89	2
90	6
91	4
92	1
93	2
94	3
95	7
96	6
97	5
98	8
99	7
100	1
101	1
102	5
103	7
104	5
105	1
106	3
107	5
108	3
109	3
110	9
111	1
112	7
113	8
114	1
115	9
116	6
117	1
118	6
119	2
120	1
121	9
122	2
123	7
124	5
125	4
126	9
127	9
128	5
129	3
130	2
131	9
132	2
133	5
134	4
135	9
136	4
137	7
138	4
139	2
140	1
141	9
142	9
143	8
144	8
145	7
146	1
147	5
148	8
149	6
150	8
151	4
152	6
153	9
154	6
155	3
156	9
157	4
158	2
159	8
160	3
161	1
162	5
163	1
164	4
165	9
166	1
167	5
168	3
169	6
170	3
171	3
172	8
173	2
174	3
175	9
176	6
177	1
178	8
179	9
180	3
181	5
182	7
183	9
184	4
185	2
186	8
187	7
188	1
189	2
190	9
191	8
192	4
193	7
194	6
195	8
196	4
197	6
198	6
199	1
200	1
201	3
TIME_WINDOW_SECTION
1	0	3000
2	747	1530
3	1929	2234
4	904	2457
5	1376	3000
6	716	1216
7	1383	1862
8	701	1402
9	790	1740
10	984	2063
11	785	1805
12	1191	2631
13	297	1224
14	1127	1598
15	414	1995
16	826	1764
17	1022	1635
18	806	2455
19	410	1523
20	781	2762
21	0	1247
22	374	1890
23	632	1187
24	500	1335
25	1133	2345
26	214	760
27	1459	3000
28	547	2286
29	1193	1533
30	391	1440
31	0	1450
32	364	1940
33	1007	2181
34	850	2368
35	512	1650
36	893	2041
37	284	1888
38	972	1712
39	793	2379
40	1777	2854
41	1972	2510
42	906	2068
43	780	2486
44	1134	1533
45	802	2492
46	1017	2716
47	2086	2318
48	1795	2600
49	1489	2145
50	510	1181
51	641	2251
52	648	2050
53	1866	2228
54	339	1599
55	1383	2503
56	698	2493
57	1106	1846
58	386	1513
59	1398	2801
60	0	1157
61	752	2167
62	373	1796
63	92	1793
64	1140	1515
65	650	2398
66	1044	1792
67	533	1049
68	1545	2681
69	123	789
70	464	1698
71	700	1371
72	496	1706
73	354	1836
74	0	1473
75	1147	2038
76	779	1693
77	2092	2978
78	677	2588
79	1012	1623
80	0	1329
81	440	2212
82	641	2609
83	515	1940
84	70	1691
85	1933	2224
86	186	2139
87	1297	1593
88	150	2017
89	555	2354
90	668	2446
91	1158	1477
92	195	2180
93	644	1434
94	1244	1560
95	1775	2317
96	1048	1732
97	427	1226
98	249	1708
99	831	1466
100	412	1789
101	1171	1539
102	523	900
103	694	2443
104	1604	2908
105	1526	2233
106	951	1358
107	599	1125
108	0	1181
109	1326	1955
110	459	1677
111	0	809
112	1310	1858
113	1397	1863
114	78	1433
115	1005	1715
116	1518	2690
117	706	1526
118	436	2148
119	146	1651
120	0	1541
121	1567	3000
122	372	1862
123	28	1818
124	970	2370
125	1655	2124
126	0	1498
127	883	2431
128	537	2490
129	1249	2998
130	1572	3000
131	1195	2922
132	364	1658
133	1199	1593
134	781	1891
135	1614	2964
136	903	2142
137	1435	1885
138	1474	2919
139	1432	1914
140	608	885
141	983	2336
142	1377	2916
143	1143	2472
144	0	1767
145	917	2079
146	799	1524
147	1315	1915
148	552	2105
149	1071	1677
150	743	1638
151	1740	2245
152	785	1563
153	921	1382
154	672	1362
155	883	1514
156	657	918
157	708	1741
158	1256	1488
159	446	1653
160	1240	1695
161	1440	1857
162	215	2075
163	1761	3000
164	1176	2156
165	31	1363
166	515	1599
167	1372	2449
168	837	2091
169	613	1893
170	352	2340
171	849	2343
172	1567	3000
173	113	1235
174	0	1276
175	821	1986
176	624	1791
177	647	1840
178	1546	2514
179	889	2629
180	1105	1979
181	800	1590
182	662	1945
183	1138	1894
184	1472	1835
185	626	2564
186	1179	2232
187	1225	2160
188	1089	2523
189	1247	2285
190	1074	2716
191	0	1609
192	364	1986
193	673	1660
194	0	618
195	1687	2783
196	1536	2570
197	1466	2229
198	370	2269
199	613	1781
200	1148	2556
201	611	1061
DEPOT_SECTION
1
-1
EOF
