NAME : n201-0009
COMMENT : "Generated by pyvrp_manuel (VRPTW)"
TYPE : VRPTW
DIMENSION : 201
EDGE_WEIGHT_TYPE : EUC_2D
CAPACITY : 80
VEHICLES : 200
SERVICE_TIME : 200
NODE_COORD_SECTION
1	110	391
2	688	685
3	980	455
4	303	515
5	345	666
6	2	582
7	423	373
8	786	113
9	381	881
10	582	174
11	797	83
12	825	296
13	674	876
14	944	657
15	721	377
16	376	44
17	735	603
18	651	181
19	5	763
20	261	337
21	649	695
22	20	374
23	931	591
24	208	897
25	34	551
26	613	550
27	957	593
28	179	426
29	293	916
30	565	47
31	508	505
32	530	619
33	769	102
34	654	249
35	827	226
36	143	212
37	788	405
38	936	83
39	662	322
40	573	818
41	756	33
42	428	709
43	5	133
44	5	568
45	608	292
46	702	575
47	713	938
48	166	112
49	975	240
50	852	331
51	392	277
52	653	468
53	899	10
54	488	574
55	662	888
56	673	67
57	569	288
58	807	282
59	440	628
60	828	260
61	872	148
62	381	186
63	606	95
64	495	154
65	822	47
66	281	76
67	185	536
68	738	750
69	105	411
70	395	711
71	449	434
72	187	152
73	476	735
74	252	607
75	745	318
76	952	954
77	799	713
78	103	767
79	442	885
80	89	482
81	954	599
82	663	498
83	263	747
84	895	774
85	164	164
86	984	437
87	708	642
88	184	930
89	589	260
90	972	665
91	621	157
92	938	247
93	325	15
94	639	217
95	56	851
96	44	396
97	312	536
98	573	942
99	652	338
100	203	367
101	776	18
102	690	467
103	266	829
104	753	517
105	253	196
106	365	190
107	413	668
108	445	565
109	318	363
110	792	439
111	625	155
112	210	882
113	485	986
114	331	766
115	717	70
116	217	922
117	333	38
118	871	975
119	825	819
120	348	921
121	279	700
122	20	940
123	130	35
124	707	932
125	94	985
126	586	753
127	602	2
128	932	902
129	763	506
130	702	527
131	657	440
132	970	334
133	421	647
134	943	221
135	283	60
136	878	967
137	600	84
138	111	894
139	534	610
140	205	86
141	247	20
142	849	680
143	87	997
144	385	751
145	607	677
146	454	444
147	269	655
148	552	856
149	124	697
150	659	514
151	217	248
152	876	844
153	701	25
154	168	666
155	986	24
156	622	28
157	20	122
158	254	196
159	210	542
160	393	795
161	614	301
162	161	880
163	493	605
164	735	400
165	245	517
166	213	748
167	684	254
168	340	605
169	571	575
170	251	599
171	287	605
172	521	525
173	296	97
174	146	614
175	718	382
176	846	307
177	767	599
178	945	874
179	353	514
180	122	790
181	385	104
182	294	51
183	360	332
184	14	637
185	134	605
186	260	547
187	265	410
188	539	713
189	665	885
190	959	26
191	378	724
192	306	353
193	175	594
194	353	426
195	762	855
196	163	84
197	706	155
198	447	581
199	4	895
200	650	548
201	541	85
DEMAND_SECTION
1	0
2	2
3	2
4	5
5	7
6	2
7	9
8	8
9	1
10	6
11	7
12	4
13	7
14	5
15	2
16	6
17	3
18	1
19	2
20	3
21	7
22	5
23	4
24	4
25	3
26	6
27	5
28	2
29	7
30	5
31	8
32	1
33	1
34	4
35	7
36	9
37	6
38	7
39	4
40	7
41	1
42	9
43	4
44	8
45	6
46	1
47	1
48	4
49	8
50	8
51	4
52	7
53	4
54	2
55	6
56	7
57	4
58	4
59	2
60	8
61	7
62	4
63	3
64	6
65	4
66	2
67	6
68	7
69	5
70	1
71	2
72	7
73	9
74	8
75	3
76	9
77	3
78	7
79	6
80	3
81	3
82	2
83	4
84	7
85	9
86	3
87	2
88	2
89	7
90	1
91	1
92	5
93	7
94	7
95	6
96	3
97	4
98	5
99	6
100	1
101	5
102	2
103	7
104	6
105	6
106	6
107	6
108	6
109	2
110	7
111	7
112	3
113	3
114	1
115	9
116	7
117	5
118	2
119	9
120	7
121	9
122	5
123	8
124	9
125	9
126	9
127	8
128	4
129	6
130	7
131	4
132	4
133	8
134	6
135	6
136	7
137	7
138	1
139	3
140	7
141	4
142	1
143	1
144	4
145	9
146	8
147	6
148	1
149	7
150	6
151	8
152	5
153	8
154	9
155	6
156	6
157	2
158	1
159	2
160	3
161	8
162	5
163	1
164	6
165	3
166	7
167	5
168	2
169	9
170	5
171	4
172	2
173	9
174	9
175	4
176	1
177	7
178	7
179	7
180	3
181	2
182	2
183	7
184	9
185	5
186	6
187	1
188	8
189	9
190	1
191	8
192	2
193	6
194	2
195	3
196	1
197	8
198	3
199	1
200	3
201	3
TIME_WINDOW_SECTION
1	0	3000
2	57	1374
3	783	1812
4	1667	3000
5	2079	2378
6	1375	2408
7	1419	1803
8	1276	2286
9	101	1646
10	0	1564
11	1082	2595
12	785	1838
13	444	2274
14	583	1367
15	1742	2111
16	1170	2563
17	26	1813
18	1295	1498
19	1018	1238
20	1004	1529
21	1774	2435
22	583	1272
23	485	2157
24	1400	2673
25	1472	2297
26	0	1321
27	1149	2502
28	375	1476
29	533	1744
30	1553	2745
31	1036	2352
32	79	1258
33	1622	2306
34	524	1452
35	614	1794
36	1766	2760
37	354	1078
38	1114	2447
39	1051	2180
40	956	2900
41	754	2254
42	107	831
43	1428	2250
44	2083	3000
45	968	2728
46	548	1430
47	567	2325
48	1985	2965
49	1021	2333
50	506	2257
51	2016	2420
52	211	2145
53	1783	2033
54	1214	1661
55	1137	2144
56	819	2797
57	1142	2975
58	712	2386
59	1183	1859
60	1076	1533
61	661	1348
62	0	1384
63	1069	1452
64	421	2234
65	1598	2062
66	0	1810
67	2019	2920
68	989	1302
69	0	548
70	1002	1825
71	1211	2713
72	995	1921
73	1940	2559
74	2214	2704
75	1262	2121
76	799	2218
77	1250	2564
78	1024	2269
79	154	2128
80	8	1612
81	954	1228
82	276	1393
83	0	1693
84	1011	2124
85	441	1481
86	455	2056
87	1479	2685
88	413	872
89	0	1740
90	281	2126
91	977	1578
92	256	1774
93	1759	2672
94	891	1338
95	719	1746
96	1156	1375
97	434	2215
98	1434	1780
99	829	2013
100	0	1055
101	955	2529
102	180	1097
103	912	2416
104	274	1385
105	2080	2378
106	1965	2721
107	1461	2023
108	246	1728
109	1135	1855
110	1635	2189
111	1376	2306
112	980	2929
113	1627	1912
114	0	1834
115	937	1167
116	1058	1405
117	104	1524
118	1371	2170
119	490	1729
120	245	1544
121	443	1896
122	1890	2289
123	823	1840
124	1141	2492
125	859	1890
126	595	2256
127	569	2033
128	95	1851
129	1324	1620
130	1263	2710
131	1106	2422
132	1160	2619
133	710	2664
134	1183	2489
135	1267	2918
136	1352	1795
137	1235	2126
138	1266	2990
139	0	1340
140	0	1902
141	239	1015
142	1294	2662
143	347	1773
144	1382	1629
145	1680	2305
146	0	1323
147	0	1371
148	1445	2162
149	0	1427
150	1822	2405
151	926	2423
152	611	2604
153	440	2093
154	473	1274
155	1106	1804
156	558	1326
157	0	1251
158	1192	2926
159	0	830
160	1808	2014
161	1186	1832
162	277	720
163	533	1992
164	1382	1600
165	1130	2170
166	1459	1910
167	531	2109
168	279	2265
169	373	1770
170	1372	1872
171	774	1794
172	0	1042
173	1184	3000
174	380	1655
175	0	1375
176	1387	2588
177	398	2234
178	1597	1919
179	612	1908
180	505	1090
181	2152	2650
182	1666	3000
183	1550	2846
184	2293	2652
185	0	975
186	286	529
187	643	1123
188	524	1106
189	1484	2040
190	514	1477
191	1357	2864
192	1794	3000
193	1207	2703
194	1874	2711
195	225	1776
196	0	1342
197	604	1634
198	1360	2526
199	224	1313
200	229	1207
201	363	2351
DEPOT_SECTION
1
-1
EOF
