NAME : n201-0044
COMMENT : "Generated by pyvrp_manuel (VRPTW)"
TYPE : VRPTW
DIMENSION : 201
EDGE_WEIGHT_TYPE : EUC_2D
CAPACITY : 80
VEHICLES : 200
SERVICE_TIME : 200
NODE_COORD_SECTION
1	256	207
2	188	650
3	9	396
4	239	974
5	124	483
6	542	548
7	842	637
8	231	349
9	645	973
10	498	973
11	629	827
12	772	309
13	54	903
14	865	237
15	282	566
16	862	272
17	24	244
18	138	993
19	15	467
20	431	789
21	292	737
22	647	968
23	423	160
24	455	218
25	586	175
26	239	592
27	942	300
28	672	644
29	662	363
30	543	984
31	203	693
32	312	647
33	66	185
34	884	647
35	822	139
36	333	641
37	478	656
38	194	376
39	773	134
40	193	94
41	562	138
42	35	296
43	455	784
44	283	633
45	457	227
46	975	526
47	363	688
48	923	47
49	503	717
50	10	197
51	447	247
52	294	525
53	86	619
54	295	189
55	891	271
56	394	260
57	77	969
58	369	200
59	889	659
60	370	505
61	772	509
62	486	365
63	751	591
64	850	826
65	812	634
66	816	453
67	430	587
68	655	596
69	482	115
70	832	500
71	662	250
72	760	16
73	633	599
74	118	248
75	45	454
76	767	831
77	487	206
78	850	631
79	711	645
80	808	88
81	151	757
82	443	636
83	380	785
84	421	348
85	121	383
86	282	592
87	815	105
88	312	498
89	838	296
90	348	143
91	143	38
92	546	279
93	824	502
94	255	942
95	124	505
96	532	554
97	217	136
98	757	87
99	11	18
100	236	926
101	922	538
102	203	793
103	293	622
104	659	793
105	254	583
106	81	572
107	278	856
108	883	917
109	922	726
110	408	134
111	952	42
112	72	974
113	397	70
114	371	35
115	471	49
116	509	311
117	870	549
118	1	317
119	584	465
120	58	85
121	978	578
122	68	197
123	886	384
124	40	659
125	810	639
126	80	209
127	113	193
128	382	772
129	409	685
130	246	429
131	778	235
132	472	47
133	629	555
134	202	346
135	606	194
136	473	732
137	206	843
138	831	366
139	860	442
140	543	508
141	881	758
142	707	748
143	202	907
144	772	800
145	670	346
146	47	460
147	604	883
148	804	943
149	17	248
150	745	773
151	630	711
152	816	953
153	634	132
154	578	294
155	429	705
156	986	225
157	309	74
158	244	772
159	980	306
160	10	556
161	125	519
162	699	422
163	122	439
164	208	680
165	206	349
166	480	168
167	182	654
168	905	368
169	624	224
170	1	822
171	883	453
172	538	933
173	829	193
174	656	312
175	359	695
176	56	164
177	909	932
178	760	123
179	296	75
180	808	166
181	644	204
182	974	489
183	706	759
184	440	346
185	205	372
186	55	776
187	213	742
188	705	627
189	463	324
190	683	612
191	857	271
192	530	385
193	681	760
194	737	73
195	663	634
196	397	439
197	251	144
198	248	304
199	11	497
200	32	614
201	536	705
DEMAND_SECTION
1	0
2	2
3	8
4	8
5	5
6	8
7	3
8	4
9	9
10	2
11	5
12	3
13	5
14	5
15	6
16	5
17	1
18	6
19	2
20	7
21	9
22	6
23	1
24	4
25	8
26	1
27	9
28	5
29	7
30	6
31	8
32	8
33	7
34	2
35	5
36	3
37	5
38	3
39	2
40	4
41	8
42	4
43	2
44	4
45	5
46	2
47	8
48	2
49	6
50	5
51	1
52	5
53	2
54	6
55	7
56	3
57	3
58	9
59	2
60	1
61	2
62	3
63	8
64	5
65	6
66	8
67	5
68	2
69	2
70	7
71	3
72	6
73	7
74	4
75	2
76	3
77	2
78	1
79	8
80	5
81	4
82	7
83	8
84	7
85	1
86	1
87	5
88	5
89	2
90	9
91	5
92	4
93	6
94	1
95	3
96	4
97	9
98	9
99	1
100	8
101	9
102	5
103	6
104	7
105	3
106	3
107	8
108	4
109	1
110	3
111	2
112	6
113	7
114	8
115	6
116	2
117	2
118	1
119	1
120	5
121	8
122	1
123	8
124	6
125	6
126	3
127	4
128	2
129	3
130	1
131	2
132	2
133	5
134	6
135	5
136	3
137	7
138	8
139	6
140	9
141	6
142	4
143	7
144	3
145	5
146	8
147	1
148	3
149	1
150	1
151	6
152	6
153	8
154	8
155	9
156	5
157	7
158	4
159	6
160	8
161	1
162	6
163	4
164	2
165	9
166	3
167	1
168	7
169	5
170	1
171	9
172	7
173	3
174	7
175	7
176	6
177	4
178	6
179	6
180	8
181	7
182	2
183	8
184	3
185	7
186	9
187	9
188	3
189	2
190	9
191	1
192	7
193	9
194	6
195	1
196	7
197	3
198	5
199	9
200	7
201	5
TIME_WINDOW_SECTION
1	0	3000
2	1401	1775
3	1109	2553
4	1221	2203
5	1766	2363
6	13	1313
7	639	1638
8	1182	2191
9	760	1232
10	695	1527
11	0	1881
12	717	2193
13	641	1185
14	1543	1983
15	122	852
16	1461	2305
17	101	1165
18	317	1842
19	187	1049
20	773	2314
21	1264	1574
22	469	1675
23	121	328
24	1407	2269
25	1488	2833
26	9	1610
27	536	2404
28	1411	2483
29	1162	2794
30	1555	2200
31	1517	2007
32	682	1800
33	1533	2731
34	1222	1452
35	655	1193
36	1404	2203
37	1164	1419
38	1715	2410
39	1043	2855
40	343	1331
41	1234	2714
42	1020	1915
43	927	2025
44	552	1648
45	664	1898
46	161	1417
47	1205	1843
48	955	2674
49	573	899
50	708	2238
51	2194	2832
52	0	1308
53	1052	2776
54	0	510
55	818	2404
56	2065	2539
57	1385	2097
58	1245	1976
59	635	2532
60	1022	2276
61	1007	2137
62	1009	1985
63	102	1428
64	1087	2468
65	1172	2073
66	705	2179
67	1035	2376
68	723	943
69	0	1362
70	1555	2048
71	873	2681
72	271	2239
73	1095	1621
74	1180	1954
75	1705	3000
76	1496	1930
77	479	812
78	1441	1876
79	0	1328
80	1030	2069
81	411	2100
82	409	1745
83	541	1767
84	552	2169
85	109	2076
86	1612	2648
87	914	2827
88	1342	1547
89	324	1145
90	1226	1992
91	1788	2122
92	1406	2280
93	1257	1488
94	1019	2468
95	0	920
96	2051	2393
97	835	2562
98	1138	2153
99	1689	3000
100	1840	2200
101	459	2171
102	1482	2904
103	1439	1668
104	1730	2289
105	901	2358
106	1081	1722
107	1564	2145
108	791	2585
109	937	1707
110	366	2023
111	771	1047
112	794	1537
113	1021	2540
114	1610	2799
115	1561	1957
116	369	851
117	1724	2238
118	1742	2818
119	238	679
120	184	1527
121	1203	2469
122	0	967
123	458	1736
124	915	1357
125	82	1605
126	0	1170
127	0	1301
128	880	2357
129	0	1176
130	1231	2521
131	155	1216
132	971	2013
133	816	1087
134	1306	3000
135	362	813
136	874	2651
137	921	1661
138	891	1502
139	599	826
140	524	1275
141	589	1674
142	893	1419
143	1237	1760
144	674	1912
145	693	1601
146	322	1030
147	754	2302
148	737	1969
149	1655	3000
150	811	1859
151	1292	2207
152	471	2026
153	1276	1604
154	839	1433
155	1301	1640
156	1609	2318
157	1278	1941
158	87	2050
159	399	1091
160	1618	2148
161	10	1461
162	359	841
163	0	1358
164	527	1325
165	0	664
166	1250	2310
167	1838	2755
168	407	1664
169	0	1132
170	872	1409
171	1187	1638
172	1677	2118
173	427	1811
174	1066	1462
175	35	1223
176	272	1980
177	572	2056
178	531	2362
179	378	1653
180	1091	2974
181	1279	2201
182	1654	1990
183	1139	1906
184	1752	3000
185	2090	3000
186	977	2638
187	1277	2577
188	0	1456
189	1413	3000
190	849	1127
191	963	2172
192	278	1350
193	203	1395
194	0	1632
195	1532	1900
196	734	1752
197	226	1212
198	1025	1823
199	1307	2531
200	881	2182
201	811	1378
DEPOT_SECTION
1
-1
EOF
