NAME : n201-0014
COMMENT : "Generated by pyvrp_manuel (VRPTW)"
TYPE : VRPTW
DIMENSION : 201
EDGE_WEIGHT_TYPE : EUC_2D
CAPACITY : 80
VEHICLES : 200
SERVICE_TIME : 200
NODE_COORD_SECTION
1	42	439
2	951	701
3	326	224
4	458	799
5	592	612
6	698	633
7	160	829
8	722	609
9	612	603
10	969	11
11	251	121
12	908	737
13	420	501
14	544	34
15	993	615
16	217	856
17	959	228
18	596	967
19	889	900
20	879	725
21	213	936
22	679	790
23	637	930
24	496	700
25	195	819
26	553	409
27	316	197
28	582	778
29	529	791
30	334	154
31	865	353
32	446	269
33	527	567
34	388	546
35	605	406
36	464	639
37	183	237
38	413	879
39	342	60
40	708	895
41	950	897
42	129	522
43	990	589
44	280	862
45	656	758
46	693	485
47	471	520
48	151	423
49	426	125
50	880	468
51	956	122
52	454	397
53	160	864
54	259	834
55	343	380
56	16	627
57	670	723
58	748	104
59	352	399
60	430	818
61	996	458
62	554	772
63	383	86
64	876	862
65	611	772
66	80	197
67	923	889
68	351	395
69	175	60
70	428	409
71	202	1
72	695	860
73	177	311
74	513	171
75	665	206
76	526	693
77	612	702
78	668	753
79	551	41
80	824	636
81	591	407
82	712	912
83	115	73
84	833	358
85	986	140
86	457	694
87	466	795
88	690	262
89	923	969
90	497	135
91	67	60
92	391	29
93	757	45
94	44	629
95	532	963
96	648	906
97	715	466
98	316	711
99	432	272
100	214	179
101	348	515
102	726	300
103	274	192
104	765	263
105	791	25
106	108	168
107	309	882
108	436	925
109	760	917
110	939	397
111	496	506
112	917	334
113	364	365
114	338	564
115	792	550
116	557	328
117	103	434
118	920	911
119	366	513
120	52	414
121	328	862
122	432	658
123	348	762
124	386	311
125	861	455
126	282	207
127	750	299
128	319	922
129	93	86
130	988	558
131	728	866
132	546	205
133	988	846
134	881	702
135	526	818
136	128	69
137	210	25
138	582	486
139	909	707
140	974	681
141	940	770
142	383	809
143	207	967
144	62	843
145	865	694
146	344	404
147	782	442
148	72	21
149	661	481
150	340	307
151	461	534
152	750	767
153	538	141
154	762	445
155	17	723
156	155	245
157	314	707
158	172	865
159	727	244
160	313	968
161	944	907
162	379	8
163	747	650
164	79	322
165	718	836
166	10	500
167	70	732
168	641	993
169	891	210
170	597	292
171	346	317
172	406	511
173	661	742
174	168	404
175	561	272
176	895	697
177	50	847
178	731	317
179	956	316
180	410	629
181	83	344
182	159	535
183	723	374
184	972	284
185	449	570
186	214	227
187	811	922
188	111	838
189	794	709
190	29	450
191	790	170
192	219	468
193	286	516
194	14	466
195	275	16
196	512	356
197	193	335
198	273	527
199	689	153
200	923	804
201	114	189
DEMAND_SECTION
1	0
2	9
3	1
4	1
5	3
6	9
7	1
8	3
9	9
10	5
11	4
12	7
13	3
14	4
15	1
16	6
17	8
18	1
19	8
20	8
21	9
22	2
23	6
24	6
25	5
26	5
27	3
28	9
29	8
30	5
31	2
32	9
33	4
34	5
35	6
36	4
37	2
38	8
39	6
40	8
41	8
42	2
43	7
44	4
45	2
46	9
47	5
48	1
49	9
50	8
51	3
52	3
53	1
54	6
55	7
56	7
57	9
58	4
59	4
60	5
61	1
62	8
63	3
64	5
65	1
66	6
67	2
68	1
69	3
70	2
71	7
72	1
73	3
74	2
75	1
76	6
77	5
78	5
79	8
80	7
81	6
82	6
83	4
84	8
85	8
86	4
87	2
88	2
89	2
90	4
91	4
92	3
93	8
94	3
95	7
96	7
97	8
98	4
99	9
100	7
101	1
102	8
103	3
104	4
105	1
106	8
107	6
108	2
109	3
110	1
111	5
112	7
113	1
114	6
115	4
116	4
117	7
118	5
119	9
120	7
121	4
122	2
123	9
124	6
125	2
126	6
127	3
128	5
129	9
130	5
131	6
132	7
133	5
134	1
135	1
136	6
137	1
138	4
139	4
140	1
141	4
142	3
143	2
144	6
145	5
146	6
147	1
148	9
149	1
150	1
151	6
152	7
153	5
154	3
155	3
156	9
157	3
158	1
159	6
160	6
161	2
162	5
163	7
164	7
165	1
166	5
167	5
168	5
169	8
170	5
171	9
172	2
173	8
174	2
175	3
176	7
177	2
178	7
179	9
180	2
181	6
182	6
183	2
184	8
185	5
186	6
187	8
188	4
189	6
190	7
191	5
192	1
193	7
194	3
195	2
196	3
197	7
198	3
199	5
200	8
201	5
TIME_WINDOW_SECTION
1	0	3000
2	269	2106
3	895	1893
4	1126	1667
5	397	797
6	1250	1864
7	119	1848
8	1078	1505
9	428	1250
10	685	1388
11	0	1321
12	137	2005
13	0	1358
14	480	866
15	1209	2312
16	601	2473
17	1034	1802
18	730	2350
19	1223	1661
20	558	1952
21	1367	2552
22	594	1655
23	1107	2608
24	755	1664
25	1010	2091
26	740	2658
27	0	1470
28	0	1849
29	8	1898
30	1259	2273
31	1623	2310
32	1242	2719
33	0	1574
34	0	1672
35	1694	2558
36	1541	2029
37	962	2148
38	1189	1999
39	1331	2308
40	1280	1872
41	1296	2230
42	1679	2355
43	1145	2371
44	899	1829
45	1123	1703
46	714	1123
47	876	2372
48	1298	2013
49	1492	2179
50	573	1475
51	1377	2067
52	1468	1797
53	0	1360
54	878	2336
55	190	1614
56	1791	3000
57	1508	2177
58	693	1746
59	738	1970
60	884	1670
61	1293	1930
62	1614	2641
63	0	1398
64	737	1155
65	672	2318
66	1841	2668
67	1459	1666
68	762	1872
69	0	1478
70	791	1701
71	1844	2624
72	129	1936
73	0	622
74	703	1643
75	618	915
76	452	2243
77	88	1616
78	1486	1712
79	1190	1534
80	1765	1996
81	634	1995
82	1042	2488
83	799	1783
84	1223	2488
85	472	2463
86	0	1581
87	327	2308
88	1653	2388
89	1166	1703
90	1198	3000
91	1917	2880
92	695	1876
93	1031	1367
94	994	2046
95	1634	2090
96	933	2598
97	1522	2355
98	760	2437
99	653	1772
100	1850	2748
101	1270	2799
102	676	2476
103	1670	2142
104	616	1174
105	1330	1666
106	2137	2753
107	642	2306
108	509	2270
109	676	1887
110	933	1223
111	0	1472
112	1098	1802
113	1259	1933
114	577	2207
115	724	2433
116	525	2048
117	2331	2594
118	383	2266
119	0	1155
120	286	724
121	1690	2119
122	1088	1461
123	1227	2576
124	648	2532
125	1530	1874
126	1211	3000
127	1350	2508
128	1080	3000
129	1211	3000
130	859	2770
131	787	1409
132	1188	1971
133	833	1263
134	491	1803
135	1061	1826
136	1908	2226
137	0	1613
138	960	2150
139	1626	1894
140	1121	1540
141	935	1860
142	1380	2024
143	1437	2193
144	585	1144
145	1416	1910
146	1096	2162
147	1224	2086
148	892	1762
149	860	1106
150	0	1200
151	1364	2672
152	1451	1725
153	1495	1936
154	947	2728
155	1746	2110
156	1395	3000
157	0	1281
158	541	1489
159	520	2283
160	118	1638
161	679	2465
162	45	1699
163	770	2770
164	173	1356
165	1227	2783
166	2465	2971
167	384	2099
168	414	2129
169	788	2273
170	1165	2957
171	0	1180
172	779	2469
173	1239	2588
174	1912	3000
175	180	1550
176	595	1857
177	264	1751
178	1210	2246
179	381	2334
180	0	1561
181	0	1359
182	0	939
183	621	1959
184	435	2204
185	732	2443
186	0	1436
187	1215	2302
188	978	2725
189	947	2288
190	795	1583
191	959	2753
192	832	1941
193	2382	2706
194	1203	1599
195	620	1699
196	275	1012
197	476	1747
198	399	2360
199	937	2306
200	978	2283
201	471	1691
DEPOT_SECTION
1
-1
EOF
