NAME : n201-0029
COMMENT : "Generated by pyvrp_manuel (VRPTW)"
TYPE : VRPTW
DIMENSION : 201
EDGE_WEIGHT_TYPE : EUC_2D
CAPACITY : 80
VEHICLES : 200
SERVICE_TIME : 200
NODE_COORD_SECTION
1	662	692
2	363	532
3	504	222
4	545	974
5	447	111
6	232	863
7	799	826
8	567	42
9	875	543
10	815	155
11	28	827
12	18	138
13	522	973
14	613	648
15	822	93
16	653	963
17	948	978
18	858	495
19	438	924
20	114	539
21	818	41
22	29	469
23	102	16
24	475	607
25	773	449
26	169	586
27	761	327
28	513	426
29	102	89
30	393	895
31	407	646
32	475	803
33	681	61
34	225	995
35	759	109
36	869	613
37	937	119
38	481	179
39	710	282
40	659	580
41	525	717
42	95	935
43	748	773
44	85	678
45	954	683
46	857	148
47	749	681
48	913	736
49	970	160
50	242	744
51	667	955
52	623	156
53	546	303
54	466	497
55	82	826
56	617	304
57	878	385
58	978	348
59	637	469
60	432	420
61	594	818
62	272	774
63	775	334
64	371	892
65	969	101
66	305	410
67	144	91
68	65	61
69	888	571
70	329	164
71	56	914
72	245	725
73	937	922
74	948	385
75	653	750
76	561	565
77	177	32
78	288	434
79	105	426
80	276	773
81	196	699
82	894	855
83	157	640
84	392	197
85	415	402
86	755	40
87	606	491
88	828	829
89	327	982
90	543	580
91	805	103
92	407	489
93	849	839
94	10	381
95	544	646
96	285	666
97	114	683
98	949	796
99	994	270
100	844	267
101	88	378
102	344	398
103	121	21
104	12	183
105	472	928
106	420	728
107	848	805
108	149	474
109	912	311
110	966	160
111	587	837
112	900	338
113	425	658
114	42	179
115	121	78
116	773	930
117	965	720
118	769	732
119	121	302
120	537	381
121	370	881
122	454	594
123	435	123
124	920	462
125	394	965
126	28	674
127	149	888
128	699	124
129	117	687
130	281	664
131	188	138
132	106	982
133	576	445
134	807	715
135	321	413
136	266	739
137	773	854
138	550	976
139	276	399
140	650	463
141	76	315
142	116	143
143	14	559
144	296	974
145	805	998
146	371	17
147	609	73
148	272	441
149	723	940
150	215	14
151	674	347
152	17	871
153	864	7
154	384	432
155	413	517
156	228	184
157	894	97
158	20	41
159	322	758
160	498	433
161	101	417
162	940	906
163	521	547
164	325	624
165	740	444
166	460	412
167	35	509
168	72	216
169	493	429
170	630	121
171	50	916
172	422	662
173	993	849
174	382	589
175	374	111
176	922	833
177	85	281
178	197	143
179	293	926
180	171	502
181	284	409
182	148	563
183	820	390
184	492	371
185	57	181
186	564	309
187	470	898
188	967	314
189	811	189
190	577	147
191	930	859
192	973	942
193	304	301
194	362	279
195	785	476
196	875	492
197	136	685
198	866	69
199	75	101
200	682	933
201	951	580
DEMAND_SECTION
1	0
2	9
3	9
4	6
5	1
6	6
7	4
8	8
9	6
10	7
11	1
12	1
13	4
14	1
15	5
16	2
17	9
18	8
19	7
20	9
21	1
22	3
23	5
24	7
25	3
26	2
27	1
28	1
29	4
30	5
31	1
32	8
33	6
34	4
35	7
36	4
37	6
38	6
39	2
40	6
41	7
42	5
43	1
44	8
45	1
46	7
47	3
48	4
49	9
50	7
51	9
52	6
53	8
54	7
55	6
56	7
57	7
58	7
59	1
60	5
61	9
62	1
63	6
64	6
65	4
66	6
67	1
68	2
69	2
70	1
71	5
72	2
73	3
74	6
75	1
76	3
77	3
78	7
79	3
80	1
81	2
82	3
83	7
84	9
85	9
86	1
87	3
88	2
89	5
90	2
91	8
92	7
93	5
94	2
95	1
96	5
97	4
98	4
99	9
100	9
101	9
102	9
103	5
104	6
105	5
106	4
107	8
108	5
109	2
110	9
111	9
112	5
113	2
114	1
115	3
116	3
117	7
118	1
119	8
120	1
121	7
122	2
123	5
124	6
125	6
126	2
127	2
128	2
129	2
130	1
131	4
132	6
133	9
134	6
135	6
136	2
137	7
138	2
139	8
140	2
141	8
142	8
143	9
144	4
145	9
146	6
147	8
148	9
149	7
150	5
151	8
152	5
153	7
154	8
155	4
156	3
157	2
158	3
159	4
160	7
161	3
162	3
163	8
164	8
165	1
166	7
167	5
168	7
169	3
170	3
171	9
172	9
173	6
174	2
175	2
176	9
177	2
178	1
179	8
180	4
181	8
182	6
183	1
184	7
185	1
186	4
187	8
188	3
189	8
190	7
191	2
192	8
193	7
194	4
195	1
196	1
197	3
198	3
199	9
200	2
201	4
TIME_WINDOW_SECTION
1	0	3000
2	972	2107
3	0	1538
4	1593	2463
5	1470	2369
6	90	894
7	1837	2280
8	1425	2244
9	2054	2691
10	982	2908
11	362	1857
12	980	2051
13	1373	1846
14	2027	2482
15	624	1606
16	1230	3000
17	337	1348
18	943	1920
19	0	1217
20	0	1602
21	1067	1898
22	45	1998
23	796	1345
24	917	2409
25	221	1031
26	1147	1462
27	1467	3000
28	546	1808
29	0	1800
30	1504	3000
31	1755	3000
32	1134	1603
33	682	2405
34	1612	2902
35	0	1693
36	2004	2256
37	751	1298
38	1297	2933
39	505	1790
40	1437	2425
41	1991	2417
42	0	1485
43	2556	2788
44	921	1869
45	601	2338
46	1054	2362
47	1519	2210
48	1223	1437
49	671	2622
50	24	1663
51	1844	3000
52	1240	1546
53	678	1560
54	0	1762
55	606	1587
56	200	1230
57	199	590
58	1632	2527
59	1507	3000
60	1001	2402
61	994	1835
62	240	2240
63	438	1451
64	159	1122
65	1400	2855
66	1103	2554
67	838	2371
68	1364	2311
69	204	1408
70	512	1203
71	1784	2100
72	241	882
73	230	1947
74	446	1117
75	1205	2065
76	2189	2928
77	725	2251
78	696	1378
79	1017	2710
80	737	2168
81	1247	3000
82	900	2073
83	0	1362
84	1562	2140
85	478	1210
86	1349	2790
87	328	2275
88	813	2518
89	895	2186
90	2090	3000
91	991	2806
92	280	701
93	1772	3000
94	40	1654
95	1714	3000
96	0	1438
97	1572	2147
98	1496	1736
99	701	1270
100	1050	2157
101	1492	2454
102	890	2429
103	626	1381
104	9	1848
105	989	1642
106	945	1580
107	950	1588
108	1716	2665
109	1580	2675
110	511	2139
111	0	1325
112	735	2425
113	1428	1932
114	1268	2224
115	841	1438
116	1493	2669
117	1637	1942
118	1781	3000
119	396	2305
120	973	1732
121	1510	1774
122	2025	2433
123	379	2225
124	495	940
125	981	2467
126	970	2734
127	271	1936
128	693	2691
129	954	2174
130	624	2021
131	268	2252
132	818	1157
133	670	1865
134	953	1642
135	1703	2425
136	1282	2817
137	1569	3000
138	1476	2535
139	593	1360
140	115	1219
141	1455	2577
142	1403	2641
143	840	1085
144	402	838
145	738	2703
146	970	1710
147	651	877
148	1794	2232
149	0	1366
150	1481	1961
151	1474	2675
152	1839	2300
153	0	1533
154	812	1097
155	1570	2188
156	560	1727
157	1730	2409
158	1519	1768
159	1348	2549
160	491	1413
161	1110	2592
162	323	1571
163	1314	2866
164	1737	2126
165	1052	1854
166	946	1152
167	261	1245
168	0	1803
169	90	1435
170	1272	1557
171	1558	2381
172	0	1377
173	1511	1897
174	0	1586
175	14	1785
176	380	2117
177	1286	2179
178	0	1721
179	1502	2731
180	790	1413
181	655	1489
182	212	1808
183	96	965
184	313	770
185	515	2371
186	226	1755
187	516	1371
188	0	1509
189	664	922
190	991	2476
191	1274	1668
192	739	2254
193	206	1674
194	1967	2173
195	275	1941
196	193	1036
197	2078	2355
198	1347	1634
199	1589	2156
200	50	1242
201	625	2520
DEPOT_SECTION
1
-1
EOF
