NAME : n401-0012
COMMENT : "Generated by pyvrp_manuel (OVRPL)"
TYPE : OVRPL
DIMENSION : 401
EDGE_WEIGHT_TYPE : EUC_2D
CAPACITY : 100
VEHICLES : 400
OPEN_ROUTE : YES
DISTANCE : 3000
NODE_COORD_SECTION
1	397	874
2	427	343
3	752	382
4	74	65
5	983	725
6	2	90
7	184	953
8	772	663
9	783	585
10	857	97
11	893	729
12	666	820
13	402	262
14	364	125
15	503	757
16	593	483
17	689	44
18	171	64
19	997	46
20	738	859
21	358	421
22	911	91
23	1	427
24	436	295
25	539	766
26	768	646
27	853	267
28	533	668
29	661	321
30	906	118
31	263	20
32	560	112
33	856	165
34	632	944
35	955	666
36	683	589
37	788	465
38	125	942
39	124	986
40	528	729
41	514	713
42	841	28
43	784	331
44	50	99
45	545	889
46	27	645
47	702	39
48	611	255
49	578	310
50	906	41
51	761	312
52	641	550
53	34	262
54	521	515
55	247	786
56	260	235
57	719	446
58	656	810
59	303	642
60	899	579
61	934	717
62	867	889
63	801	636
64	751	806
65	534	585
66	308	483
67	756	461
68	339	624
69	484	542
70	393	495
71	379	920
72	161	119
73	403	537
74	829	638
75	492	27
76	264	630
77	340	194
78	626	857
79	562	874
80	931	512
81	1000	665
82	665	681
83	37	704
84	920	593
85	530	415
86	107	563
87	701	691
88	954	201
89	940	388
90	354	247
91	166	607
92	393	592
93	13	338
94	757	257
95	962	168
96	212	833
97	931	721
98	766	146
99	594	453
100	265	606
101	703	154
102	439	631
103	984	97
104	941	452
105	611	69
106	60	244
107	463	595
108	947	417
109	845	81
110	780	68
111	25	800
112	174	224
113	205	362
114	744	750
115	124	540
116	87	75
117	372	457
118	749	717
119	625	881
120	443	456
121	983	534
122	840	251
123	821	799
124	893	204
125	23	589
126	436	973
127	333	281
128	578	101
129	89	822
130	614	598
131	424	779
132	311	652
133	667	627
134	159	37
135	262	73
136	67	327
137	447	574
138	242	178
139	368	792
140	762	965
141	731	858
142	508	192
143	654	935
144	325	484
145	55	886
146	94	277
147	505	261
148	502	228
149	985	210
150	581	22
151	571	832
152	187	401
153	481	482
154	597	904
155	353	666
156	89	203
157	140	615
158	585	989
159	676	454
160	301	549
161	266	579
162	387	177
163	528	693
164	408	509
165	4	329
166	2	997
167	927	67
168	115	76
169	788	605
170	38	345
171	876	495
172	48	673
173	997	956
174	544	363
175	552	869
176	716	85
177	763	826
178	75	148
179	842	765
180	63	638
181	802	601
182	767	661
183	644	791
184	330	503
185	379	409
186	693	306
187	474	926
188	664	990
189	477	319
190	940	186
191	733	923
192	217	399
193	951	460
194	61	223
195	29	403
196	777	433
197	407	541
198	460	411
199	342	562
200	470	428
201	373	630
202	309	471
203	423	852
204	710	710
205	497	183
206	533	107
207	511	991
208	428	978
209	189	893
210	688	282
211	7	275
212	735	983
213	98	275
214	678	376
215	74	332
216	659	14
217	314	794
218	738	286
219	965	580
220	739	457
221	310	933
222	32	675
223	281	342
224	882	44
225	433	330
226	867	121
227	402	301
228	872	893
229	510	701
230	1000	70
231	509	956
232	369	130
233	943	974
234	795	876
235	457	153
236	58	708
237	360	989
238	556	824
239	532	385
240	308	73
241	14	398
242	66	0
243	749	280
244	501	372
245	124	347
246	179	590
247	970	381
248	571	785
249	718	543
250	328	402
251	431	999
252	571	827
253	785	912
254	586	509
255	355	820
256	873	889
257	56	536
258	195	171
259	64	309
260	947	780
261	154	396
262	719	793
263	862	237
264	298	771
265	609	242
266	121	471
267	925	302
268	431	689
269	83	298
270	571	272
271	891	429
272	712	407
273	442	956
274	102	152
275	314	595
276	353	657
277	269	686
278	34	519
279	765	587
280	280	314
281	609	155
282	112	494
283	73	612
284	170	776
285	792	904
286	182	523
287	964	375
288	678	771
289	517	325
290	631	636
291	113	318
292	79	77
293	868	851
294	159	17
295	94	737
296	917	425
297	328	97
298	482	777
299	741	296
300	296	589
301	742	909
302	606	812
303	908	489
304	388	799
305	550	979
306	771	614
307	40	807
308	325	411
309	724	638
310	364	472
311	118	290
312	375	503
313	374	777
314	474	186
315	637	335
316	857	486
317	933	933
318	993	554
319	880	494
320	663	266
321	102	116
322	24	386
323	70	889
324	82	882
325	609	140
326	926	666
327	460	896
328	80	860
329	456	514
330	683	295
331	493	860
332	699	742
333	927	177
334	409	936
335	322	642
336	698	47
337	507	962
338	416	11
339	45	576
340	341	167
341	906	217
342	139	840
343	880	671
344	999	513
345	875	203
346	93	556
347	168	486
348	450	577
349	377	464
350	46	289
351	730	935
352	939	595
353	403	883
354	523	491
355	518	190
356	353	49
357	453	17
358	576	499
359	677	188
360	497	361
361	201	890
362	7	854
363	376	220
364	15	26
365	328	823
366	599	135
367	922	910
368	708	989
369	833	571
370	846	215
371	435	239
372	412	104
373	840	302
374	654	959
375	669	526
376	997	5
377	963	67
378	996	540
379	193	329
380	243	800
381	930	802
382	866	982
383	59	710
384	541	801
385	641	514
386	833	298
387	119	142
388	859	511
389	94	673
390	484	203
391	938	790
392	923	419
393	191	77
394	558	150
395	798	47
396	144	573
397	622	434
398	396	247
399	355	565
400	51	413
401	421	511
DEMAND_SECTION
1	0
2	5
3	9
4	1
5	8
6	8
7	9
8	6
9	1
10	1
11	9
12	8
13	9
14	3
15	5
16	7
17	1
18	8
19	9
20	6
21	5
22	4
23	6
24	9
25	4
26	8
27	7
28	4
29	2
30	6
31	3
32	7
33	9
34	2
35	6
36	8
37	7
38	5
39	4
40	9
41	8
42	5
43	8
44	8
45	5
46	7
47	3
48	8
49	4
50	1
51	8
52	6
53	8
54	1
55	4
56	2
57	1
58	9
59	3
60	5
61	4
62	6
63	4
64	5
65	4
66	4
67	8
68	7
69	5
70	9
71	9
72	2
73	2
74	6
75	1
76	5
77	7
78	4
79	3
80	4
81	1
82	6
83	1
84	3
85	3
86	9
87	9
88	1
89	9
90	8
91	2
92	7
93	7
94	3
95	3
96	2
97	4
98	6
99	6
100	3
101	2
102	7
103	3
104	6
105	2
106	5
107	4
108	4
109	2
110	6
111	5
112	4
113	4
114	8
115	9
116	5
117	4
118	3
119	5
120	6
121	4
122	5
123	5
124	2
125	4
126	2
127	9
128	3
129	9
130	2
131	7
132	2
133	2
134	2
135	5
136	5
137	8
138	1
139	2
140	8
141	8
142	7
143	3
144	3
145	3
146	8
147	2
148	7
149	8
150	7
151	3
152	2
153	9
154	4
155	1
156	9
157	8
158	3
159	4
160	2
161	4
162	6
163	5
164	4
165	3
166	7
167	1
168	9
169	1
170	9
171	5
172	4
173	7
174	9
175	5
176	3
177	5
178	6
179	8
180	3
181	4
182	2
183	7
184	2
185	7
186	6
187	1
188	8
189	8
190	6
191	2
192	1
193	4
194	9
195	4
196	3
197	2
198	2
199	9
200	7
201	2
202	1
203	1
204	4
205	9
206	7
207	3
208	9
209	2
210	9
211	3
212	8
213	9
214	1
215	2
216	2
217	2
218	3
219	9
220	8
221	7
222	2
223	9
224	2
225	8
226	5
227	9
228	9
229	5
230	1
231	8
232	3
233	1
234	7
235	9
236	6
237	8
238	4
239	6
240	1
241	4
242	1
243	9
244	5
245	9
246	4
247	1
248	7
249	4
250	4
251	1
252	7
253	6
254	3
255	6
256	2
257	2
258	9
259	5
260	1
261	9
262	5
263	8
264	6
265	8
266	5
267	4
268	2
269	2
270	9
271	1
272	7
273	6
274	7
275	1
276	5
277	7
278	5
279	2
280	1
281	5
282	4
283	9
284	4
285	8
286	8
287	4
288	3
289	5
290	8
291	8
292	7
293	8
294	2
295	1
296	2
297	9
298	9
299	2
300	8
301	5
302	2
303	9
304	1
305	3
306	7
307	5
308	6
309	7
310	1
311	7
312	5
313	8
314	2
315	9
316	6
317	9
318	6
319	6
320	1
321	8
322	9
323	6
324	1
325	8
326	9
327	7
328	1
329	1
330	5
331	6
332	5
333	2
334	4
335	5
336	7
337	1
338	5
339	2
340	2
341	2
342	7
343	7
344	2
345	4
346	4
347	7
348	5
349	5
350	2
351	5
352	4
353	6
354	5
355	1
356	2
357	2
358	2
359	8
360	9
361	3
362	6
363	3
364	4
365	1
366	8
367	4
368	5
369	2
370	7
371	5
372	7
373	2
374	9
375	2
376	1
377	3
378	2
379	9
380	6
381	6
382	9
383	9
384	2
385	6
386	1
387	6
388	1
389	4
390	7
391	6
392	1
393	6
394	5
395	3
396	9
397	6
398	4
399	8
400	1
401	1
DEPOT_SECTION
1
-1
EOF
