NAME : n401-0032
COMMENT : "Generated by pyvrp_manuel (OVRPL)"
TYPE : OVRPL
DIMENSION : 401
EDGE_WEIGHT_TYPE : EUC_2D
CAPACITY : 100
VEHICLES : 400
OPEN_ROUTE : YES
DISTANCE : 3000
NODE_COORD_SECTION
1	204	651
2	609	595
3	877	292
4	811	654
5	517	848
6	87	370
7	986	415
8	349	148
9	5	696
10	416	280
11	597	861
12	732	167
13	600	155
14	820	307
15	866	118
16	892	191
17	145	799
18	44	503
19	409	778
20	336	205
21	714	503
22	243	398
23	140	463
24	159	311
25	906	503
26	505	81
27	402	307
28	56	799
29	269	898
30	205	526
31	658	531
32	562	392
33	763	485
34	755	333
35	291	619
36	494	68
37	845	36
38	892	98
39	73	809
40	741	809
41	276	426
42	538	690
43	481	9
44	369	842
45	472	506
46	708	430
47	824	290
48	561	582
49	922	479
50	207	402
51	467	402
52	436	360
53	727	23
54	685	177
55	971	501
56	548	141
57	384	827
58	744	165
59	901	449
60	909	536
61	307	574
62	785	20
63	253	852
64	545	246
65	462	768
66	515	98
67	11	941
68	361	127
69	424	706
70	882	192
71	781	298
72	605	458
73	134	405
74	51	66
75	290	318
76	206	669
77	414	910
78	903	452
79	410	494
80	482	628
81	455	937
82	587	616
83	92	28
84	527	833
85	357	648
86	40	588
87	389	299
88	262	467
89	767	944
90	120	627
91	32	643
92	836	566
93	799	87
94	645	243
95	590	524
96	821	518
97	729	808
98	399	138
99	475	705
100	44	223
101	748	158
102	949	179
103	902	115
104	543	486
105	694	568
106	935	393
107	947	371
108	94	868
109	603	629
110	652	803
111	752	669
112	573	537
113	772	957
114	363	53
115	618	760
116	150	171
117	104	475
118	211	655
119	745	269
120	188	32
121	173	598
122	479	312
123	480	312
124	4	112
125	371	50
126	787	258
127	165	465
128	79	861
129	809	606
130	124	768
131	101	900
132	388	472
133	55	663
134	375	411
135	341	314
136	564	625
137	855	424
138	795	14
139	615	519
140	369	683
141	485	449
142	968	55
143	192	305
144	936	339
145	575	399
146	829	819
147	159	544
148	20	284
149	128	348
150	499	325
151	305	339
152	575	89
153	905	269
154	491	125
155	57	188
156	82	8
157	840	982
158	199	945
159	559	973
160	100	588
161	656	61
162	812	380
163	826	378
164	197	788
165	641	832
166	518	764
167	298	972
168	765	4
169	256	184
170	252	497
171	971	313
172	294	590
173	621	410
174	325	415
175	565	156
176	964	452
177	877	351
178	526	573
179	31	589
180	410	583
181	610	811
182	351	330
183	806	694
184	633	176
185	250	120
186	720	257
187	808	118
188	45	243
189	860	754
190	150	612
191	86	129
192	271	764
193	564	388
194	657	596
195	780	702
196	480	513
197	349	907
198	828	32
199	351	475
200	709	357
201	951	471
202	943	146
203	832	642
204	845	665
205	28	647
206	256	330
207	90	627
208	382	430
209	120	908
210	880	302
211	510	97
212	345	856
213	826	655
214	193	736
215	348	452
216	586	54
217	478	267
218	255	609
219	359	655
220	666	28
221	521	937
222	189	753
223	48	677
224	138	888
225	110	518
226	966	744
227	423	721
228	622	346
229	370	350
230	38	176
231	466	766
232	99	860
233	947	221
234	716	835
235	250	747
236	952	876
237	32	460
238	463	728
239	558	199
240	39	370
241	478	169
242	689	341
243	344	239
244	166	823
245	885	454
246	242	488
247	400	727
248	388	229
249	817	352
250	871	526
251	791	471
252	386	518
253	428	546
254	559	727
255	510	462
256	525	566
257	964	635
258	941	706
259	844	155
260	853	229
261	539	939
262	488	766
263	453	154
264	891	221
265	988	424
266	290	84
267	796	94
268	429	464
269	699	289
270	624	136
271	703	358
272	780	945
273	946	144
274	56	678
275	178	428
276	728	773
277	417	816
278	277	403
279	775	589
280	945	767
281	871	635
282	491	389
283	892	511
284	541	180
285	477	540
286	631	756
287	699	22
288	87	842
289	19	760
290	513	678
291	128	664
292	249	996
293	302	404
294	511	632
295	287	945
296	215	448
297	657	13
298	92	807
299	991	746
300	221	616
301	19	533
302	144	349
303	808	950
304	328	839
305	44	552
306	704	203
307	793	889
308	586	783
309	912	616
310	745	442
311	506	658
312	974	91
313	882	626
314	214	713
315	531	346
316	955	602
317	106	924
318	285	814
319	798	408
320	959	484
321	850	787
322	202	856
323	375	425
324	785	642
325	990	836
326	542	986
327	327	128
328	306	207
329	463	309
330	105	519
331	270	492
332	329	255
333	990	569
334	447	409
335	913	117
336	867	997
337	326	233
338	719	942
339	467	922
340	374	8
341	749	979
342	371	396
343	611	949
344	947	208
345	864	271
346	360	604
347	867	216
348	572	183
349	60	250
350	358	164
351	124	401
352	584	368
353	589	284
354	47	398
355	75	807
356	93	956
357	152	699
358	776	142
359	522	981
360	993	53
361	597	841
362	295	738
363	295	884
364	808	289
365	958	598
366	439	788
367	628	390
368	320	902
369	238	122
370	364	227
371	650	531
372	619	132
373	746	906
374	439	971
375	786	125
376	439	303
377	584	799
378	92	989
379	212	66
380	475	688
381	973	629
382	595	76
383	95	755
384	157	271
385	648	91
386	704	640
387	853	746
388	126	686
389	932	656
390	792	79
391	626	973
392	360	726
393	690	584
394	780	651
395	31	440
396	273	790
397	246	271
398	661	525
399	361	202
400	518	769
401	505	295
DEMAND_SECTION
1	0
2	4
3	5
4	1
5	4
6	7
7	5
8	1
9	1
10	4
11	6
12	5
13	7
14	2
15	4
16	9
17	5
18	2
19	9
20	3
21	4
22	2
23	4
24	4
25	8
26	4
27	1
28	6
29	7
30	5
31	3
32	7
33	6
34	2
35	7
36	8
37	9
38	9
39	1
40	3
41	1
42	6
43	9
44	9
45	6
46	3
47	4
48	9
49	4
50	8
51	4
52	1
53	3
54	7
55	2
56	6
57	6
58	1
59	9
60	8
61	8
62	1
63	6
64	1
65	6
66	4
67	3
68	1
69	2
70	7
71	4
72	9
73	7
74	6
75	9
76	9
77	3
78	1
79	8
80	2
81	6
82	2
83	3
84	1
85	9
86	5
87	5
88	5
89	8
90	6
91	3
92	3
93	5
94	8
95	6
96	2
97	4
98	4
99	5
100	2
101	2
102	5
103	9
104	4
105	4
106	5
107	9
108	2
109	2
110	3
111	4
112	6
113	9
114	4
115	5
116	7
117	1
118	4
119	2
120	6
121	9
122	1
123	1
124	3
125	7
126	2
127	5
128	7
129	4
130	8
131	8
132	5
133	9
134	5
135	3
136	7
137	4
138	4
139	1
140	2
141	6
142	6
143	3
144	3
145	8
146	1
147	1
148	1
149	7
150	2
151	1
152	9
153	3
154	7
155	6
156	3
157	7
158	9
159	1
160	4
161	3
162	8
163	8
164	1
165	8
166	2
167	1
168	4
169	4
170	8
171	6
172	2
173	2
174	7
175	3
176	6
177	3
178	6
179	5
180	5
181	1
182	5
183	1
184	4
185	7
186	5
187	6
188	4
189	1
190	3
191	1
192	7
193	3
194	3
195	2
196	1
197	3
198	6
199	4
200	2
201	9
202	4
203	4
204	9
205	3
206	4
207	7
208	3
209	4
210	4
211	5
212	7
213	1
214	2
215	3
216	9
217	1
218	5
219	3
220	2
221	4
222	6
223	5
224	8
225	3
226	9
227	5
228	3
229	2
230	9
231	3
232	9
233	7
234	5
235	5
236	2
237	5
238	1
239	7
240	5
241	2
242	5
243	7
244	5
245	3
246	8
247	3
248	9
249	3
250	2
251	2
252	1
253	4
254	2
255	6
256	1
257	9
258	8
259	9
260	2
261	7
262	1
263	9
264	7
265	7
266	6
267	8
268	1
269	7
270	5
271	1
272	4
273	1
274	4
275	8
276	6
277	2
278	1
279	4
280	6
281	8
282	1
283	3
284	4
285	2
286	2
287	8
288	4
289	2
290	5
291	7
292	6
293	5
294	7
295	2
296	8
297	5
298	5
299	5
300	7
301	5
302	5
303	6
304	7
305	9
306	8
307	7
308	3
309	1
310	7
311	5
312	8
313	8
314	7
315	8
316	7
317	2
318	3
319	7
320	2
321	6
322	3
323	1
324	5
325	3
326	2
327	1
328	6
329	1
330	4
331	4
332	3
333	6
334	6
335	1
336	9
337	4
338	6
339	6
340	9
341	3
342	9
343	4
344	3
345	5
346	6
347	4
348	6
349	4
350	7
351	3
352	7
353	1
354	4
355	1
356	5
357	1
358	3
359	6
360	9
361	1
362	8
363	6
364	3
365	1
366	8
367	4
368	7
369	4
370	4
371	6
372	7
373	5
374	9
375	7
376	5
377	2
378	1
379	5
380	5
381	1
382	7
383	3
384	4
385	6
386	7
387	4
388	1
389	6
390	4
391	8
392	8
393	8
394	7
395	7
396	1
397	5
398	4
399	7
400	9
401	4
DEPOT_SECTION
1
-1
EOF
