NAME : n501-0009
COMMENT : "Generated by pyvrp_manuel (VRPLTW)"
TYPE : VRPLTW
DIMENSION : 501
EDGE_WEIGHT_TYPE : EUC_2D
CAPACITY : 100
VEHICLES : 500
DISTANCE : 3000
SERVICE_TIME : 200
NODE_COORD_SECTION
1	716	985
2	163	968
3	564	348
4	933	763
5	302	979
6	47	964
7	206	178
8	814	109
9	455	576
10	793	116
11	76	475
12	168	673
13	802	673
14	845	305
15	382	574
16	516	167
17	343	532
18	87	57
19	0	706
20	22	428
21	782	574
22	370	811
23	273	120
24	747	324
25	975	182
26	839	328
27	593	289
28	702	47
29	57	433
30	487	87
31	172	433
32	40	504
33	470	784
34	187	592
35	353	297
36	559	653
37	248	706
38	60	286
39	598	946
40	643	391
41	338	453
42	943	578
43	682	283
44	877	428
45	766	902
46	709	107
47	303	944
48	853	435
49	96	937
50	446	78
51	624	343
52	857	511
53	954	224
54	354	501
55	581	164
56	662	850
57	177	180
58	352	901
59	265	41
60	341	862
61	908	558
62	290	214
63	923	801
64	469	746
65	72	728
66	203	223
67	691	645
68	439	809
69	868	491
70	969	427
71	768	291
72	626	552
73	631	165
74	892	544
75	297	987
76	640	462
77	400	106
78	330	523
79	161	805
80	714	528
81	504	65
82	938	330
83	497	982
84	50	386
85	568	647
86	666	312
87	106	294
88	936	753
89	240	639
90	993	113
91	104	143
92	893	677
93	143	815
94	70	265
95	150	993
96	218	481
97	744	656
98	434	811
99	210	628
100	266	559
101	58	585
102	882	905
103	788	385
104	770	89
105	845	743
106	337	743
107	583	428
108	40	567
109	682	513
110	58	159
111	636	176
112	351	415
113	405	74
114	768	40
115	865	829
116	379	172
117	237	138
118	208	521
119	186	848
120	20	588
121	527	573
122	915	698
123	601	810
124	669	520
125	540	911
126	723	896
127	36	670
128	327	751
129	918	144
130	308	283
131	730	691
132	327	896
133	462	394
134	172	482
135	694	275
136	295	486
137	322	90
138	999	341
139	631	650
140	883	790
141	680	968
142	514	814
143	217	132
144	456	403
145	537	657
146	405	644
147	757	741
148	126	512
149	979	661
150	781	567
151	335	404
152	124	328
153	513	562
154	363	712
155	902	985
156	226	921
157	312	845
158	305	166
159	946	180
160	689	922
161	656	727
162	245	519
163	614	46
164	794	318
165	244	372
166	232	984
167	168	464
168	643	406
169	680	501
170	714	999
171	677	61
172	991	551
173	720	181
174	29	144
175	562	602
176	670	228
177	588	918
178	48	657
179	529	409
180	684	445
181	503	560
182	729	341
183	934	936
184	4	548
185	37	367
186	224	365
187	435	707
188	844	233
189	910	149
190	802	570
191	512	21
192	843	568
193	389	168
194	503	710
195	683	192
196	191	327
197	81	204
198	830	464
199	998	343
200	686	754
201	378	363
202	73	254
203	89	149
204	790	812
205	719	705
206	422	949
207	729	413
208	785	546
209	287	161
210	16	530
211	566	588
212	710	78
213	272	532
214	562	840
215	118	821
216	282	334
217	488	872
218	731	600
219	810	878
220	239	584
221	892	692
222	744	126
223	251	324
224	38	68
225	179	673
226	595	161
227	25	710
228	58	143
229	751	533
230	183	515
231	806	776
232	278	506
233	510	608
234	89	146
235	439	138
236	525	158
237	186	212
238	124	50
239	92	565
240	365	181
241	723	383
242	936	598
243	111	679
244	624	361
245	558	381
246	473	793
247	506	817
248	988	986
249	839	673
250	490	967
251	218	367
252	501	620
253	505	37
254	500	921
255	875	309
256	724	813
257	718	941
258	527	281
259	336	966
260	150	256
261	681	472
262	160	904
263	95	283
264	365	911
265	87	747
266	934	55
267	357	594
268	609	34
269	521	728
270	534	830
271	223	491
272	614	621
273	544	549
274	858	474
275	387	295
276	835	599
277	806	564
278	497	895
279	614	777
280	616	916
281	352	282
282	293	114
283	359	226
284	859	882
285	336	443
286	359	25
287	303	280
288	58	696
289	365	104
290	567	719
291	998	787
292	542	951
293	217	7
294	406	81
295	523	674
296	928	647
297	247	147
298	353	999
299	69	823
300	832	754
301	218	773
302	662	911
303	497	470
304	913	686
305	881	749
306	664	470
307	132	599
308	413	297
309	117	749
310	849	491
311	45	435
312	725	371
313	418	437
314	893	390
315	247	281
316	74	25
317	269	814
318	831	277
319	858	356
320	495	679
321	589	588
322	404	489
323	311	62
324	807	607
325	877	932
326	203	958
327	99	229
328	195	947
329	787	183
330	767	175
331	654	190
332	75	296
333	740	475
334	482	296
335	101	449
336	706	209
337	249	771
338	809	724
339	22	745
340	988	776
341	876	289
342	786	170
343	260	163
344	329	48
345	808	270
346	186	750
347	951	774
348	214	889
349	128	737
350	680	63
351	269	621
352	152	27
353	173	911
354	806	832
355	650	129
356	631	788
357	84	214
358	737	545
359	933	532
360	166	19
361	812	708
362	173	744
363	389	230
364	575	774
365	224	577
366	300	214
367	948	99
368	571	758
369	357	751
370	234	406
371	993	173
372	308	421
373	686	626
374	418	393
375	817	413
376	129	765
377	373	426
378	821	487
379	833	465
380	58	336
381	299	815
382	193	471
383	605	295
384	259	504
385	886	318
386	83	768
387	650	226
388	158	8
389	804	658
390	287	187
391	148	969
392	765	956
393	264	101
394	337	480
395	296	848
396	424	95
397	414	583
398	608	954
399	171	192
400	996	337
401	405	800
402	835	183
403	300	561
404	694	591
405	469	710
406	71	946
407	103	581
408	707	812
409	387	68
410	122	569
411	822	992
412	702	368
413	381	315
414	874	706
415	753	148
416	411	907
417	255	677
418	855	25
419	573	685
420	640	729
421	525	188
422	870	421
423	501	87
424	795	807
425	130	21
426	632	991
427	396	435
428	807	109
429	94	118
430	281	405
431	546	265
432	711	804
433	666	134
434	445	648
435	628	85
436	573	465
437	986	961
438	559	437
439	841	951
440	390	580
441	694	413
442	246	243
443	373	668
444	678	90
445	426	204
446	603	868
447	882	368
448	511	66
449	219	531
450	203	563
451	301	418
452	197	349
453	867	392
454	406	856
455	571	392
456	515	21
457	510	920
458	503	273
459	643	186
460	513	546
461	163	953
462	358	663
463	491	89
464	120	986
465	350	870
466	734	501
467	431	626
468	592	839
469	59	796
470	662	959
471	77	756
472	316	945
473	904	537
474	483	545
475	327	131
476	505	823
477	334	54
478	708	680
479	207	409
480	286	828
481	526	830
482	794	764
483	197	255
484	161	441
485	245	984
486	536	56
487	502	417
488	896	304
489	642	723
490	758	200
491	194	684
492	408	150
493	629	424
494	72	707
495	126	819
496	892	510
497	950	715
498	346	954
499	35	439
500	137	325
501	750	819
DEMAND_SECTION
1	0
2	3
3	8
4	3
5	2
6	3
7	2
8	7
9	9
10	5
11	3
12	2
13	9
14	2
15	6
16	2
17	9
18	6
19	4
20	4
21	8
22	8
23	1
24	1
25	2
26	3
27	4
28	5
29	5
30	5
31	4
32	6
33	4
34	6
35	3
36	4
37	2
38	8
39	3
40	2
41	2
42	2
43	3
44	8
45	8
46	2
47	5
48	8
49	1
50	6
51	2
52	8
53	7
54	7
55	7
56	8
57	6
58	5
59	4
60	9
61	8
62	5
63	9
64	2
65	8
66	3
67	6
68	2
69	1
70	7
71	4
72	6
73	7
74	7
75	8
76	9
77	1
78	5
79	6
80	2
81	6
82	6
83	4
84	6
85	3
86	6
87	8
88	6
89	9
90	7
91	6
92	1
93	5
94	3
95	5
96	7
97	5
98	5
99	5
100	4
101	9
102	6
103	6
104	5
105	7
106	2
107	1
108	1
109	1
110	4
111	4
112	9
113	5
114	4
115	4
116	8
117	7
118	3
119	3
120	8
121	9
122	4
123	6
124	9
125	2
126	2
127	8
128	8
129	2
130	7
131	6
132	7
133	2
134	9
135	4
136	5
137	4
138	7
139	6
140	6
141	1
142	1
143	5
144	1
145	1
146	8
147	3
148	7
149	6
150	6
151	7
152	9
153	7
154	7
155	1
156	5
157	9
158	3
159	2
160	3
161	5
162	1
163	6
164	2
165	1
166	8
167	2
168	4
169	1
170	6
171	7
172	2
173	5
174	2
175	7
176	9
177	3
178	4
179	3
180	1
181	6
182	7
183	6
184	6
185	3
186	4
187	9
188	7
189	6
190	4
191	4
192	6
193	2
194	2
195	8
196	9
197	3
198	5
199	2
200	5
201	7
202	4
203	9
204	1
205	7
206	2
207	4
208	7
209	1
210	4
211	5
212	1
213	2
214	3
215	9
216	1
217	7
218	8
219	5
220	5
221	3
222	9
223	2
224	5
225	1
226	2
227	7
228	2
229	9
230	2
231	6
232	3
233	9
234	6
235	9
236	3
237	3
238	6
239	1
240	4
241	1
242	4
243	7
244	3
245	5
246	5
247	8
248	7
249	7
250	1
251	3
252	6
253	1
254	2
255	3
256	7
257	1
258	9
259	1
260	4
261	9
262	5
263	9
264	2
265	9
266	4
267	4
268	1
269	1
270	9
271	9
272	9
273	1
274	6
275	6
276	9
277	8
278	2
279	7
280	5
281	4
282	7
283	8
284	2
285	5
286	8
287	3
288	4
289	9
290	3
291	8
292	2
293	2
294	5
295	5
296	1
297	4
298	1
299	2
300	6
301	1
302	5
303	5
304	3
305	6
306	1
307	1
308	6
309	4
310	5
311	6
312	4
313	7
314	5
315	8
316	4
317	7
318	2
319	4
320	4
321	7
322	7
323	7
324	7
325	4
326	7
327	7
328	8
329	2
330	6
331	5
332	6
333	1
334	2
335	2
336	6
337	6
338	2
339	5
340	4
341	7
342	7
343	1
344	6
345	7
346	2
347	4
348	2
349	9
350	5
351	2
352	5
353	2
354	9
355	3
356	3
357	9
358	6
359	1
360	8
361	6
362	9
363	4
364	6
365	4
366	9
367	8
368	2
369	5
370	2
371	8
372	7
373	2
374	4
375	2
376	8
377	9
378	9
379	7
380	9
381	9
382	1
383	5
384	7
385	1
386	4
387	4
388	3
389	2
390	4
391	1
392	2
393	2
394	6
395	3
396	5
397	9
398	7
399	7
400	9
401	8
402	5
403	4
404	9
405	4
406	2
407	7
408	4
409	1
410	2
411	1
412	5
413	2
414	5
415	5
416	2
417	1
418	5
419	5
420	6
421	4
422	3
423	3
424	1
425	2
426	4
427	3
428	3
429	8
430	5
431	3
432	6
433	7
434	2
435	8
436	5
437	3
438	4
439	3
440	5
441	3
442	1
443	6
444	2
445	6
446	5
447	3
448	5
449	3
450	4
451	9
452	6
453	8
454	8
455	9
456	2
457	7
458	3
459	1
460	6
461	2
462	2
463	3
464	9
465	3
466	5
467	7
468	4
469	3
470	9
471	2
472	1
473	6
474	3
475	4
476	4
477	8
478	6
479	7
480	6
481	3
482	9
483	2
484	3
485	6
486	3
487	6
488	3
489	8
490	2
491	9
492	1
493	8
494	1
495	3
496	2
497	3
498	7
499	6
500	5
501	7
TIME_WINDOW_SECTION
1	0	3000
2	1184	1839
3	123	1457
4	1818	2245
5	474	921
6	226	1183
7	1096	2566
8	1166	1738
9	932	1521
10	952	2456
11	1709	2225
12	1097	1810
13	0	1161
14	1199	2668
15	844	2675
16	1109	2672
17	160	1329
18	825	2427
19	926	2606
20	1054	2460
21	147	2138
22	0	1894
23	1222	1575
24	653	1803
25	1146	1993
26	302	1204
27	796	1279
28	1450	1748
29	458	1827
30	770	1656
31	1402	2299
32	529	1134
33	1276	3000
34	91	1267
35	291	1322
36	2168	2632
37	1296	1839
38	883	1108
39	177	715
40	1468	2171
41	457	2298
42	840	1167
43	824	2567
44	2091	2331
45	0	1198
46	238	1994
47	196	779
48	0	1576
49	1396	1615
50	1423	2210
51	206	1854
52	1344	1719
53	1494	2459
54	0	1661
55	1036	1346
56	1577	2886
57	781	1740
58	209	1741
59	309	1980
60	1243	2804
61	932	2381
62	225	1553
63	1164	2313
64	525	2366
65	1334	2442
66	523	1968
67	364	1309
68	1670	2071
69	1349	2854
70	1602	2568
71	533	1671
72	96	914
73	703	2664
74	975	1480
75	1164	2763
76	0	1420
77	111	1837
78	1418	2288
79	1210	3000
80	416	1355
81	842	1335
82	1441	2646
83	930	1207
84	1271	1887
85	1902	2380
86	1138	2888
87	811	2631
88	417	2087
89	817	2237
90	934	2163
91	814	2351
92	2021	2844
93	0	1494
94	438	2321
95	25	1723
96	1234	2945
97	746	2543
98	2055	2365
99	1256	2906
100	242	2237
101	197	1653
102	1953	2910
103	1492	1698
104	1141	2660
105	37	1403
106	1139	2043
107	1288	2090
108	1040	2623
109	363	785
110	1238	2172
111	1592	2310
112	740	2646
113	1552	1920
114	606	2251
115	1707	2727
116	1198	1773
117	305	2285
118	1137	2317
119	613	1181
120	1175	1712
121	236	1261
122	482	1023
123	54	1192
124	145	1096
125	1769	2312
126	1053	2986
127	583	1815
128	594	1013
129	530	1594
130	630	2357
131	0	852
132	1446	3000
133	951	2418
134	1221	2794
135	457	2327
136	893	1271
137	591	2113
138	1294	2131
139	1927	2884
140	2114	2721
141	112	1405
142	0	1487
143	1006	2456
144	1724	2350
145	461	2262
146	582	1873
147	1478	1899
148	828	1883
149	1617	2969
150	648	1444
151	1141	2147
152	1126	1746
153	1521	2812
154	385	674
155	1991	2371
156	1258	1897
157	639	1579
158	1235	2220
159	854	2765
160	1247	3000
161	514	1847
162	932	2458
163	496	1597
164	782	2735
165	1375	2095
166	1710	2715
167	584	1930
168	1891	2535
169	1239	2971
170	891	1970
171	584	1796
172	0	1798
173	733	1963
174	418	1941
175	1229	1486
176	1269	1830
177	505	1645
178	426	2146
179	958	2724
180	709	1421
181	431	2151
182	1247	1829
183	0	1130
184	639	1738
185	418	1824
186	498	1872
187	40	1451
188	1346	1643
189	153	1970
190	0	1511
191	763	2213
192	0	1356
193	1353	1703
194	277	1269
195	562	2379
196	1514	1724
197	1525	1826
198	257	1863
199	461	1153
200	1281	2777
201	1227	2411
202	666	1875
203	970	2224
204	495	1643
205	968	1706
206	1207	2604
207	108	2046
208	199	2190
209	816	1052
210	489	1444
211	1562	2245
212	757	1496
213	437	1515
214	0	1038
215	1535	2709
216	839	2105
217	0	732
218	1328	2226
219	1512	2825
220	198	1948
221	1752	2872
222	553	1785
223	475	1852
224	1121	1592
225	1868	2388
226	503	1949
227	737	1481
228	886	1601
229	771	2481
230	1510	2220
231	604	1216
232	997	1626
233	516	2171
234	864	1953
235	733	1349
236	237	1937
237	955	2305
238	1399	1790
239	976	2318
240	558	2087
241	1535	2442
242	1795	2351
243	999	1749
244	577	1574
245	902	1527
246	0	1219
247	1514	3000
248	0	1137
249	0	1260
250	1151	1907
251	1501	2008
252	1851	2123
253	935	1505
254	671	1275
255	1430	2081
256	1095	2060
257	191	1850
258	707	2706
259	1773	2381
260	131	2117
261	932	2876
262	621	1564
263	858	2501
264	565	2477
265	938	1709
266	653	1377
267	599	2490
268	1186	1973
269	0	1740
270	436	666
271	1678	1915
272	0	1150
273	499	1458
274	533	2111
275	1238	2580
276	1287	1921
277	129	1877
278	1919	3000
279	1415	1692
280	338	2090
281	434	2363
282	596	2524
283	921	2467
284	1612	2447
285	753	2243
286	549	1745
287	983	1292
288	184	2049
289	352	2308
290	0	1123
291	637	1975
292	1632	2450
293	854	1873
294	1181	1627
295	449	2150
296	345	2337
297	885	2728
298	1306	3000
299	0	1439
300	969	2966
301	479	2253
302	707	1024
303	1156	2814
304	1899	2215
305	109	1748
306	587	1694
307	277	1640
308	608	2517
309	192	2102
310	457	823
311	583	2256
312	1453	2857
313	181	1530
314	426	1416
315	83	1803
316	1244	1969
317	1832	2150
318	702	2332
319	1274	2951
320	0	1168
321	1091	2523
322	462	1782
323	1004	2025
324	1215	2034
325	576	2355
326	641	1687
327	330	1743
328	590	2107
329	479	2108
330	528	1866
331	569	1543
332	799	1199
333	559	2033
334	626	1013
335	1181	2523
336	776	1667
337	0	1275
338	1492	2373
339	751	2069
340	855	2016
341	1216	2303
342	1549	2055
343	1532	2084
344	1018	1427
345	136	1922
346	338	2337
347	0	928
348	1488	2892
349	1346	2278
350	356	1516
351	941	2155
352	1546	1778
353	304	1514
354	1156	1882
355	1628	1950
356	603	2379
357	1177	1571
358	0	1758
359	691	1109
360	958	1427
361	1994	2572
362	1270	2080
363	935	1666
364	340	957
365	688	2312
366	1451	2068
367	1050	1659
368	573	1762
369	1175	1623
370	1369	1836
371	994	2690
372	199	2077
373	900	2771
374	866	1819
375	1483	2714
376	634	1402
377	152	1680
378	769	2455
379	1274	3000
380	1567	1900
381	580	2067
382	851	1319
383	1562	1971
384	1478	2341
385	854	1927
386	244	1389
387	494	1149
388	1372	1947
389	1326	3000
390	891	2620
391	1106	2113
392	1425	3000
393	825	2422
394	59	1763
395	251	1986
396	1034	2430
397	569	2299
398	1745	2692
399	616	1520
400	1002	2302
401	0	985
402	1128	2083
403	1067	2832
404	240	639
405	2006	2786
406	1665	2562
407	1386	2090
408	1991	3000
409	1559	1907
410	1266	1768
411	1068	3000
412	910	1147
413	669	1849
414	1621	2150
415	221	1990
416	1100	2887
417	703	2459
418	1630	2014
419	1612	2519
420	157	615
421	1067	2054
422	608	2309
423	1015	1319
424	1493	3000
425	685	2440
426	2490	2919
427	567	1561
428	187	2062
429	1461	1920
430	1098	2005
431	791	1597
432	652	2179
433	1472	1889
434	767	1434
435	806	1988
436	14	1386
437	888	1196
438	1289	2228
439	207	1905
440	1904	2523
441	1274	2764
442	1224	2191
443	1756	2346
444	344	2195
445	192	2044
446	0	1288
447	1028	1927
448	624	2391
449	442	1572
450	1231	1834
451	676	929
452	1313	1728
453	0	1363
454	149	1164
455	1009	1441
456	714	1958
457	1743	2150
458	1296	1610
459	1011	2832
460	0	1548
461	876	2295
462	590	1212
463	770	1920
464	398	1608
465	739	1466
466	978	1702
467	876	2160
468	1315	1803
469	682	2173
470	232	942
471	1493	2480
472	1587	1962
473	0	1617
474	1035	2444
475	912	1842
476	94	1479
477	595	2383
478	1289	2833
479	591	2341
480	1433	1900
481	143	1030
482	772	1234
483	242	2038
484	1019	1272
485	718	1345
486	609	1647
487	1029	2626
488	1320	2790
489	853	1897
490	289	1311
491	752	955
492	1313	2323
493	498	2253
494	125	1906
495	923	1489
496	1810	2614
497	2210	2597
498	1758	3000
499	1107	2719
500	1002	1396
501	0	1220
DEPOT_SECTION
1
-1
EOF
