NAME : n501-0003
COMMENT : "Generated by pyvrp_manuel (VRPLTW)"
TYPE : VRPLTW
DIMENSION : 501
EDGE_WEIGHT_TYPE : EUC_2D
CAPACITY : 100
VEHICLES : 500
DISTANCE : 3000
SERVICE_TIME : 200
NODE_COORD_SECTION
1	570	349
2	49	57
3	737	519
4	166	754
5	363	483
6	879	138
7	514	787
8	950	167
9	420	534
10	481	189
11	674	581
12	768	894
13	22	88
14	864	709
15	426	871
16	71	304
17	720	288
18	256	655
19	530	150
20	275	387
21	752	441
22	742	241
23	280	710
24	867	577
25	744	51
26	97	574
27	638	269
28	585	372
29	201	383
30	734	403
31	164	420
32	878	314
33	217	183
34	965	137
35	345	348
36	199	172
37	590	531
38	625	948
39	980	29
40	43	909
41	894	400
42	863	855
43	354	189
44	802	662
45	709	391
46	915	741
47	816	889
48	729	420
49	453	204
50	729	924
51	980	972
52	442	175
53	184	660
54	316	889
55	357	952
56	609	136
57	517	686
58	986	478
59	298	228
60	803	441
61	175	581
62	627	265
63	256	550
64	492	155
65	885	524
66	459	318
67	353	68
68	711	116
69	205	856
70	363	77
71	4	368
72	264	994
73	352	350
74	410	459
75	156	291
76	842	650
77	346	576
78	645	826
79	761	141
80	173	915
81	870	312
82	359	154
83	234	172
84	428	418
85	655	114
86	585	624
87	207	933
88	178	479
89	718	307
90	75	979
91	48	263
92	396	541
93	649	558
94	706	776
95	563	982
96	603	53
97	498	907
98	904	180
99	500	939
100	755	705
101	845	825
102	296	667
103	979	57
104	41	213
105	502	59
106	917	896
107	382	684
108	269	383
109	676	86
110	410	268
111	647	357
112	903	698
113	275	221
114	73	39
115	680	861
116	368	419
117	134	405
118	815	849
119	381	89
120	567	938
121	959	95
122	439	248
123	138	208
124	127	558
125	990	674
126	340	156
127	485	676
128	12	47
129	850	725
130	650	22
131	533	611
132	528	507
133	75	664
134	310	813
135	798	834
136	390	59
137	853	96
138	941	806
139	834	783
140	821	517
141	108	645
142	57	275
143	435	23
144	721	473
145	644	78
146	23	230
147	241	606
148	433	880
149	950	575
150	384	58
151	335	830
152	8	721
153	744	25
154	396	836
155	313	246
156	559	222
157	809	760
158	977	668
159	127	407
160	324	489
161	490	316
162	767	70
163	879	208
164	371	541
165	378	977
166	639	588
167	13	211
168	387	993
169	375	476
170	150	30
171	194	681
172	340	291
173	502	200
174	602	304
175	202	827
176	525	815
177	895	712
178	435	719
179	424	192
180	540	11
181	495	884
182	269	270
183	846	133
184	808	422
185	658	436
186	168	957
187	132	603
188	744	17
189	961	383
190	279	743
191	934	779
192	674	179
193	593	683
194	622	934
195	980	69
196	657	441
197	225	487
198	152	961
199	190	861
200	783	928
201	74	912
202	297	235
203	18	562
204	310	881
205	418	955
206	652	417
207	231	305
208	431	864
209	467	558
210	77	718
211	646	624
212	672	267
213	147	931
214	806	436
215	271	876
216	680	544
217	580	924
218	986	190
219	901	900
220	968	350
221	840	161
222	341	141
223	995	764
224	838	45
225	577	789
226	30	796
227	511	695
228	468	431
229	71	605
230	123	921
231	923	105
232	479	963
233	826	18
234	888	892
235	903	910
236	339	738
237	155	433
238	732	455
239	606	474
240	263	653
241	547	249
242	266	153
243	112	658
244	27	47
245	945	11
246	138	223
247	769	977
248	535	989
249	615	429
250	942	241
251	741	243
252	53	708
253	570	75
254	889	339
255	249	69
256	229	247
257	454	888
258	993	293
259	44	824
260	667	467
261	827	49
262	300	414
263	761	692
264	426	718
265	914	14
266	849	366
267	83	962
268	467	322
269	997	48
270	91	330
271	433	860
272	988	398
273	852	805
274	759	1
275	480	234
276	440	944
277	234	987
278	70	342
279	585	784
280	725	699
281	712	997
282	831	385
283	325	200
284	493	501
285	141	611
286	807	6
287	254	49
288	600	967
289	281	563
290	993	922
291	420	151
292	819	501
293	780	461
294	856	157
295	525	300
296	153	735
297	976	424
298	186	155
299	54	347
300	885	672
301	565	315
302	673	678
303	873	786
304	729	805
305	180	435
306	415	320
307	11	968
308	662	817
309	971	179
310	780	313
311	735	53
312	404	729
313	452	668
314	740	717
315	545	139
316	180	167
317	633	965
318	151	860
319	709	443
320	489	247
321	624	850
322	304	792
323	65	13
324	982	601
325	31	440
326	396	898
327	265	377
328	101	550
329	842	405
330	886	604
331	826	649
332	175	459
333	630	25
334	830	770
335	171	641
336	983	196
337	614	741
338	637	550
339	691	368
340	603	95
341	194	400
342	410	939
343	814	21
344	737	873
345	891	519
346	558	243
347	148	78
348	737	225
349	187	137
350	391	429
351	876	39
352	827	687
353	985	776
354	409	833
355	497	594
356	467	193
357	718	589
358	755	85
359	826	493
360	99	521
361	156	213
362	221	962
363	981	832
364	844	3
365	91	711
366	52	179
367	285	262
368	37	332
369	653	429
370	610	346
371	378	264
372	809	368
373	638	886
374	171	744
375	966	988
376	389	824
377	46	977
378	856	382
379	160	306
380	937	281
381	557	484
382	719	382
383	474	646
384	389	299
385	98	108
386	617	552
387	42	941
388	115	470
389	605	871
390	865	935
391	626	237
392	239	545
393	317	750
394	212	27
395	825	712
396	474	627
397	4	939
398	852	144
399	239	453
400	539	783
401	439	119
402	38	652
403	317	910
404	930	322
405	661	509
406	312	311
407	437	555
408	711	867
409	502	125
410	649	608
411	319	982
412	188	452
413	536	993
414	445	282
415	883	193
416	938	794
417	350	837
418	992	909
419	945	590
420	45	442
421	890	821
422	384	869
423	520	666
424	587	366
425	837	287
426	495	254
427	216	694
428	571	559
429	920	436
430	582	388
431	281	509
432	855	134
433	843	113
434	926	436
435	174	885
436	719	187
437	561	812
438	385	130
439	111	475
440	769	631
441	980	598
442	734	757
443	885	846
444	180	541
445	255	400
446	541	396
447	805	453
448	846	831
449	562	547
450	935	577
451	27	282
452	434	983
453	644	23
454	427	414
455	635	990
456	146	16
457	961	288
458	919	889
459	811	857
460	704	229
461	422	910
462	952	681
463	647	43
464	862	540
465	915	697
466	987	572
467	746	327
468	154	22
469	395	218
470	422	106
471	159	116
472	195	155
473	200	771
474	286	522
475	785	51
476	812	264
477	635	306
478	428	802
479	536	768
480	102	874
481	833	247
482	733	528
483	32	907
484	90	928
485	63	898
486	574	459
487	856	86
488	530	492
489	716	451
490	805	580
491	754	438
492	835	228
493	754	154
494	753	995
495	76	412
496	293	913
497	322	408
498	165	541
499	656	693
500	693	135
501	156	148
DEMAND_SECTION
1	0
2	8
3	8
4	3
5	7
6	3
7	6
8	8
9	3
10	6
11	6
12	3
13	2
14	1
15	1
16	8
17	4
18	5
19	9
20	7
21	8
22	1
23	8
24	7
25	1
26	9
27	8
28	1
29	7
30	8
31	9
32	2
33	5
34	3
35	8
36	8
37	1
38	2
39	8
40	9
41	2
42	1
43	3
44	1
45	4
46	4
47	4
48	8
49	8
50	7
51	1
52	7
53	7
54	7
55	1
56	8
57	8
58	5
59	9
60	6
61	4
62	7
63	5
64	5
65	7
66	3
67	8
68	1
69	2
70	4
71	3
72	1
73	8
74	7
75	8
76	6
77	9
78	2
79	1
80	2
81	8
82	9
83	6
84	4
85	7
86	9
87	3
88	4
89	8
90	1
91	8
92	3
93	6
94	9
95	5
96	9
97	8
98	9
99	2
100	1
101	1
102	4
103	1
104	5
105	1
106	3
107	8
108	7
109	7
110	6
111	6
112	4
113	1
114	2
115	7
116	9
117	4
118	7
119	5
120	2
121	5
122	8
123	9
124	3
125	7
126	2
127	6
128	3
129	9
130	8
131	9
132	6
133	5
134	8
135	4
136	1
137	4
138	5
139	5
140	1
141	8
142	4
143	1
144	8
145	9
146	8
147	5
148	5
149	8
150	8
151	2
152	5
153	5
154	9
155	9
156	6
157	1
158	2
159	9
160	8
161	7
162	8
163	2
164	1
165	9
166	2
167	4
168	9
169	6
170	6
171	3
172	2
173	8
174	4
175	6
176	2
177	8
178	9
179	4
180	8
181	1
182	3
183	8
184	6
185	1
186	7
187	8
188	7
189	9
190	1
191	8
192	1
193	5
194	4
195	7
196	8
197	2
198	4
199	5
200	2
201	5
202	1
203	8
204	5
205	9
206	1
207	5
208	5
209	3
210	2
211	1
212	2
213	9
214	9
215	6
216	1
217	5
218	7
219	6
220	6
221	9
222	1
223	9
224	9
225	4
226	3
227	4
228	1
229	9
230	8
231	9
232	8
233	2
234	7
235	6
236	7
237	1
238	7
239	4
240	2
241	9
242	3
243	5
244	2
245	6
246	3
247	8
248	1
249	2
250	5
251	9
252	1
253	6
254	4
255	7
256	7
257	4
258	3
259	4
260	8
261	8
262	3
263	8
264	8
265	9
266	6
267	1
268	4
269	8
270	4
271	8
272	8
273	2
274	6
275	9
276	3
277	3
278	3
279	5
280	3
281	9
282	1
283	5
284	1
285	2
286	5
287	9
288	4
289	7
290	3
291	6
292	4
293	1
294	1
295	5
296	5
297	2
298	5
299	3
300	6
301	1
302	8
303	7
304	2
305	8
306	2
307	4
308	8
309	8
310	5
311	3
312	3
313	1
314	7
315	7
316	4
317	1
318	9
319	6
320	8
321	9
322	3
323	9
324	3
325	5
326	2
327	8
328	9
329	8
330	2
331	4
332	3
333	1
334	3
335	7
336	1
337	3
338	4
339	2
340	3
341	5
342	6
343	8
344	6
345	1
346	5
347	3
348	4
349	7
350	6
351	8
352	9
353	9
354	9
355	1
356	5
357	2
358	6
359	4
360	5
361	3
362	7
363	9
364	2
365	6
366	8
367	8
368	6
369	5
370	5
371	9
372	5
373	5
374	3
375	8
376	5
377	6
378	9
379	1
380	4
381	4
382	1
383	5
384	7
385	2
386	9
387	3
388	1
389	1
390	8
391	7
392	2
393	7
394	9
395	6
396	5
397	2
398	4
399	3
400	8
401	3
402	2
403	4
404	1
405	7
406	4
407	4
408	9
409	2
410	7
411	6
412	4
413	3
414	4
415	9
416	1
417	3
418	5
419	3
420	3
421	6
422	6
423	3
424	8
425	7
426	7
427	2
428	7
429	8
430	3
431	7
432	8
433	1
434	1
435	6
436	1
437	3
438	9
439	3
440	5
441	5
442	8
443	2
444	2
445	9
446	8
447	2
448	3
449	4
450	8
451	1
452	2
453	3
454	6
455	2
456	3
457	2
458	7
459	9
460	3
461	8
462	3
463	6
464	5
465	7
466	2
467	6
468	8
469	8
470	9
471	3
472	9
473	9
474	7
475	1
476	8
477	3
478	3
479	1
480	9
481	8
482	5
483	4
484	9
485	1
486	6
487	6
488	6
489	3
490	6
491	1
492	1
493	3
494	4
495	9
496	3
497	9
498	3
499	6
500	4
501	7
TIME_WINDOW_SECTION
1	0	3000
2	1152	2513
3	637	2591
4	645	2159
5	112	1035
6	1136	2449
7	566	1333
8	1784	2348
9	181	700
10	906	1272
11	1367	2594
12	0	1685
13	897	2242
14	699	1555
15	670	1314
16	785	1506
17	0	972
18	1420	1912
19	0	847
20	1782	2972
21	165	1814
22	195	555
23	815	1966
24	1689	1999
25	285	1464
26	1394	2690
27	146	1856
28	0	1250
29	67	806
30	116	873
31	145	1254
32	560	1412
33	737	2175
34	921	2591
35	434	893
36	216	1639
37	1820	2095
38	57	1168
39	1060	2685
40	538	1427
41	0	1281
42	722	1712
43	0	1277
44	0	1451
45	1364	1997
46	467	1534
47	727	2678
48	0	1671
49	1584	2521
50	1340	2106
51	1118	2730
52	582	1698
53	1002	2873
54	923	2482
55	758	992
56	154	1246
57	700	1961
58	1468	1692
59	728	1336
60	500	2118
61	510	1247
62	0	1547
63	0	973
64	1069	1519
65	1994	2769
66	1280	1762
67	896	2749
68	1472	2977
69	1142	1502
70	852	2062
71	1956	2406
72	1385	2027
73	1013	2569
74	1349	1852
75	0	1768
76	2118	2628
77	1308	1787
78	1487	3000
79	1680	2637
80	370	2153
81	1278	3000
82	2012	2597
83	1188	1783
84	1258	2297
85	1793	2008
86	961	1505
87	1497	1783
88	0	1204
89	1036	1449
90	288	2052
91	1113	3000
92	1296	2689
93	0	1068
94	930	1967
95	228	2062
96	1486	2154
97	432	1721
98	548	2206
99	1686	2332
100	389	881
101	708	2026
102	896	2268
103	815	1822
104	0	1645
105	686	909
106	1296	1768
107	132	1272
108	188	973
109	712	2618
110	262	2172
111	2149	2844
112	1406	2401
113	345	2087
114	849	1157
115	294	1851
116	1470	1954
117	279	2037
118	1666	2597
119	2018	2903
120	0	1688
121	1338	2914
122	1242	1927
123	493	1000
124	1531	2481
125	278	1610
126	0	1831
127	928	1509
128	1614	1858
129	456	1765
130	1407	2495
131	944	2792
132	1296	2979
133	1283	3000
134	1082	1406
135	1762	2097
136	0	769
137	595	996
138	1194	1885
139	743	1560
140	1348	2001
141	1349	1876
142	1359	2961
143	0	1504
144	1995	2655
145	1129	2181
146	0	1530
147	1338	2705
148	1252	2559
149	270	1040
150	435	1589
151	0	1461
152	644	1519
153	590	2216
154	1420	1804
155	100	1690
156	1769	3000
157	847	2499
158	1188	1540
159	621	1389
160	1394	2702
161	2035	2701
162	1121	2239
163	382	1159
164	1537	2482
165	1115	2250
166	1561	2780
167	1127	1516
168	1769	2424
169	2015	3000
170	799	1452
171	1009	2655
172	0	699
173	1025	1527
174	1499	3000
175	1051	1945
176	1157	2669
177	329	774
178	1297	2401
179	2159	2579
180	249	1661
181	1137	1525
182	954	1894
183	2008	2267
184	1005	1508
185	0	1131
186	576	1455
187	490	728
188	1976	2333
189	192	2067
190	597	2367
191	0	1581
192	1034	1482
193	1087	1890
194	628	935
195	693	1672
196	111	433
197	0	1111
198	1581	2344
199	13	1435
200	753	1206
201	1066	1915
202	381	1494
203	228	1571
204	584	1493
205	1071	2520
206	1277	1651
207	287	1705
208	1527	2716
209	924	2007
210	1185	2559
211	1085	1551
212	0	492
213	567	1646
214	0	1225
215	154	1839
216	351	692
217	402	1053
218	0	1569
219	506	2334
220	839	2771
221	715	1193
222	1726	2529
223	696	2458
224	724	2718
225	1418	2987
226	513	956
227	1527	1855
228	0	1486
229	24	1844
230	1255	1804
231	1023	1329
232	1473	1798
233	844	2523
234	505	1396
235	1055	1357
236	594	1769
237	0	1373
238	1269	1772
239	2076	2757
240	122	852
241	25	1813
242	574	874
243	1107	1582
244	86	1561
245	1558	2586
246	934	1211
247	1327	2425
248	142	1865
249	0	1069
250	779	1509
251	1190	1736
252	1174	3000
253	25	556
254	1013	2121
255	499	2450
256	760	1134
257	846	1310
258	688	1212
259	923	1719
260	0	1090
261	0	1455
262	966	2825
263	1382	3000
264	1344	2519
265	1129	2588
266	415	1194
267	1133	1559
268	1141	1827
269	1026	2268
270	403	1361
271	1343	2823
272	752	1737
273	584	908
274	1176	2301
275	1	1481
276	779	2544
277	778	2734
278	764	1680
279	1095	2594
280	967	2005
281	1236	1899
282	160	1822
283	1119	1703
284	0	1332
285	574	1925
286	950	2474
287	1461	1828
288	210	1876
289	1290	2486
290	569	1114
291	0	1489
292	59	912
293	0	1027
294	1638	2818
295	59	517
296	1511	2121
297	1636	2432
298	375	1310
299	0	1595
300	1283	3000
301	1546	3000
302	0	1293
303	900	1372
304	906	2545
305	1589	3000
306	1988	2215
307	260	2219
308	897	1754
309	868	2702
310	1210	2302
311	899	1173
312	0	1353
313	407	1716
314	1173	1405
315	1458	1886
316	565	2438
317	488	2209
318	1145	2631
319	0	1456
320	0	1183
321	1311	2354
322	1316	1908
323	0	1446
324	674	901
325	601	917
326	861	1983
327	1817	2583
328	855	2552
329	307	1003
330	443	1530
331	492	1520
332	422	1758
333	1191	1417
334	1380	2575
335	1539	2520
336	508	1105
337	651	1313
338	505	883
339	0	1512
340	511	1468
341	766	2585
342	852	1320
343	1431	3000
344	1118	1639
345	0	1664
346	631	1815
347	460	1857
348	1943	2594
349	0	1155
350	1421	2060
351	1000	1780
352	1199	2330
353	978	1797
354	1918	2121
355	873	2813
356	262	1793
357	1115	2244
358	1741	3000
359	0	1340
360	1220	2376
361	1739	2121
362	1029	2882
363	816	2094
364	1528	2382
365	7	1796
366	1605	2759
367	615	2521
368	198	1280
369	1550	2302
370	838	2624
371	1925	2556
372	128	1841
373	789	2454
374	11	1544
375	689	2326
376	756	2278
377	476	1852
378	230	433
379	432	933
380	0	1704
381	375	1017
382	1289	1667
383	555	2246
384	0	623
385	1119	2569
386	0	1197
387	1094	2455
388	677	2250
389	1012	2758
390	408	1760
391	1286	2831
392	0	1563
393	1701	2293
394	1348	1754
395	694	1460
396	2383	2596
397	871	2315
398	572	2083
399	1058	1384
400	1045	1425
401	0	1093
402	566	1450
403	572	1691
404	540	2128
405	490	1043
406	765	1148
407	325	1491
408	428	1524
409	1477	2584
410	497	1597
411	731	1594
412	152	1746
413	693	1656
414	700	1281
415	1082	2055
416	1146	2481
417	554	1413
418	1054	1543
419	792	1137
420	1138	2507
421	1044	1711
422	887	1469
423	0	987
424	0	1078
425	356	1867
426	587	1774
427	1663	2049
428	253	2072
429	1245	1982
430	1008	1526
431	1265	2209
432	1167	2961
433	0	1548
434	1251	1940
435	1727	2249
436	633	1517
437	1610	2970
438	1024	1653
439	303	1918
440	673	1195
441	1067	2602
442	297	937
443	1280	2565
444	1357	2388
445	1179	2838
446	1668	3000
447	797	2394
448	0	1623
449	741	1283
450	786	1105
451	1065	1296
452	681	1335
453	909	1438
454	873	2080
455	760	1930
456	597	1083
457	591	2508
458	495	1647
459	762	1454
460	133	925
461	1430	2277
462	0	1405
463	87	1526
464	1118	1471
465	450	2230
466	767	1529
467	1135	2460
468	827	2411
469	122	617
470	18	1155
471	1295	1960
472	1043	1906
473	1427	2814
474	697	2617
475	1467	2094
476	1862	3000
477	306	1407
478	0	1297
479	1662	2936
480	477	2224
481	1513	1870
482	1454	2203
483	165	1769
484	912	1587
485	862	2177
486	110	1081
487	1842	2948
488	0	1570
489	2040	3000
490	1913	2953
491	986	2866
492	1618	2388
493	579	1710
494	838	1965
495	630	2275
496	595	1997
497	0	810
498	1402	2442
499	1095	2131
500	806	2515
501	0	1377
DEPOT_SECTION
1
-1
EOF
