NAME : n501-0044
COMMENT : "Generated by pyvrp_manuel (VRPLTW)"
TYPE : VRPLTW
DIMENSION : 501
EDGE_WEIGHT_TYPE : EUC_2D
CAPACITY : 100
VEHICLES : 500
DISTANCE : 3000
SERVICE_TIME : 200
NODE_COORD_SECTION
1	692	973
2	288	922
3	538	104
4	158	257
5	255	551
6	267	388
7	965	814
8	428	834
9	960	507
10	582	912
11	808	617
12	625	911
13	636	617
14	773	233
15	21	486
16	20	963
17	99	360
18	336	750
19	611	591
20	523	357
21	535	171
22	257	437
23	781	361
24	317	94
25	237	898
26	736	346
27	6	17
28	788	351
29	312	934
30	601	240
31	16	112
32	427	99
33	249	883
34	586	180
35	296	149
36	250	450
37	837	652
38	602	304
39	392	912
40	68	25
41	837	73
42	184	201
43	278	396
44	164	895
45	887	876
46	109	999
47	790	235
48	831	502
49	20	675
50	502	51
51	240	930
52	681	971
53	106	195
54	237	30
55	998	195
56	230	936
57	689	673
58	213	939
59	369	6
60	628	151
61	915	511
62	185	617
63	913	718
64	947	992
65	125	509
66	525	739
67	4	438
68	883	922
69	612	51
70	367	740
71	276	374
72	90	288
73	906	846
74	778	813
75	709	365
76	98	426
77	355	31
78	100	393
79	101	809
80	514	122
81	514	369
82	892	742
83	455	301
84	282	376
85	257	567
86	593	166
87	140	222
88	35	167
89	374	669
90	97	41
91	848	466
92	743	590
93	459	416
94	160	336
95	424	414
96	59	655
97	547	30
98	404	759
99	501	510
100	273	452
101	89	828
102	731	677
103	1	660
104	802	181
105	436	926
106	276	29
107	939	566
108	171	578
109	609	54
110	179	332
111	89	437
112	702	768
113	772	764
114	102	536
115	972	728
116	153	48
117	277	427
118	777	10
119	533	602
120	892	300
121	228	93
122	894	218
123	684	163
124	164	18
125	114	18
126	290	604
127	227	820
128	874	126
129	610	549
130	688	968
131	434	748
132	116	409
133	522	844
134	601	418
135	356	36
136	469	212
137	160	533
138	733	153
139	964	363
140	644	824
141	563	937
142	68	191
143	242	210
144	385	65
145	520	321
146	579	90
147	387	390
148	797	489
149	891	991
150	751	182
151	508	53
152	374	6
153	439	89
154	720	313
155	790	813
156	71	228
157	519	957
158	353	84
159	207	19
160	640	28
161	276	49
162	483	450
163	277	855
164	890	110
165	390	398
166	484	186
167	859	248
168	813	320
169	914	571
170	780	868
171	596	810
172	717	140
173	880	748
174	815	589
175	452	328
176	115	38
177	333	923
178	914	428
179	350	813
180	286	608
181	940	333
182	659	603
183	898	319
184	388	965
185	589	891
186	553	727
187	298	811
188	268	850
189	608	866
190	830	322
191	653	844
192	986	811
193	474	712
194	395	553
195	534	341
196	313	176
197	902	792
198	545	448
199	676	490
200	274	114
201	548	987
202	980	436
203	646	136
204	111	879
205	736	45
206	11	318
207	617	535
208	445	479
209	194	824
210	75	129
211	823	952
212	982	61
213	221	537
214	592	751
215	657	455
216	291	727
217	522	634
218	903	816
219	161	329
220	307	601
221	952	735
222	987	572
223	22	938
224	550	909
225	371	165
226	548	976
227	803	218
228	233	275
229	202	395
230	125	253
231	587	343
232	831	958
233	790	540
234	154	73
235	294	273
236	372	704
237	60	423
238	876	23
239	853	946
240	419	745
241	604	909
242	814	932
243	936	390
244	547	357
245	731	108
246	42	769
247	355	658
248	230	22
249	444	825
250	294	196
251	46	51
252	231	515
253	999	581
254	420	293
255	580	479
256	133	459
257	226	406
258	145	159
259	251	393
260	97	319
261	93	383
262	257	289
263	76	757
264	137	921
265	944	80
266	724	767
267	390	917
268	691	836
269	558	299
270	292	672
271	374	385
272	356	324
273	105	242
274	317	873
275	992	419
276	119	201
277	769	962
278	506	193
279	428	662
280	849	599
281	496	57
282	126	751
283	996	716
284	437	112
285	293	27
286	619	410
287	379	563
288	107	545
289	609	585
290	470	937
291	857	741
292	686	51
293	11	49
294	537	835
295	505	819
296	782	648
297	366	275
298	892	942
299	371	532
300	593	637
301	750	696
302	666	679
303	657	923
304	45	414
305	832	142
306	868	183
307	83	319
308	361	330
309	198	865
310	227	526
311	975	168
312	804	51
313	983	46
314	880	516
315	0	435
316	984	38
317	424	701
318	188	760
319	76	372
320	830	843
321	21	677
322	680	588
323	892	920
324	919	968
325	102	107
326	148	323
327	107	434
328	739	478
329	871	279
330	541	235
331	79	222
332	64	799
333	410	696
334	263	9
335	554	130
336	627	112
337	835	375
338	371	448
339	526	916
340	784	796
341	674	109
342	897	792
343	83	545
344	988	830
345	804	256
346	285	625
347	913	302
348	907	885
349	596	91
350	490	650
351	412	252
352	508	83
353	187	584
354	516	61
355	392	922
356	571	588
357	687	98
358	716	951
359	650	53
360	781	788
361	15	341
362	431	225
363	843	356
364	486	948
365	425	473
366	296	545
367	594	829
368	951	466
369	152	107
370	404	577
371	37	524
372	420	27
373	962	558
374	304	10
375	699	713
376	542	843
377	892	823
378	674	60
379	607	648
380	971	578
381	424	286
382	881	810
383	475	755
384	618	853
385	975	858
386	15	584
387	222	352
388	926	176
389	95	647
390	859	148
391	778	598
392	179	197
393	395	430
394	995	564
395	309	414
396	233	211
397	993	698
398	210	366
399	710	584
400	425	189
401	673	624
402	93	681
403	443	420
404	896	13
405	290	612
406	27	153
407	272	9
408	59	22
409	138	290
410	287	872
411	453	732
412	475	959
413	715	595
414	441	544
415	543	120
416	473	320
417	837	868
418	97	293
419	60	961
420	104	179
421	860	99
422	437	55
423	846	965
424	800	551
425	373	787
426	991	152
427	266	204
428	571	439
429	195	302
430	881	958
431	251	124
432	211	811
433	166	728
434	855	654
435	164	390
436	153	731
437	229	872
438	855	795
439	970	696
440	260	418
441	423	863
442	435	409
443	867	195
444	358	580
445	133	884
446	10	812
447	295	129
448	20	929
449	67	987
450	273	663
451	430	712
452	424	491
453	826	638
454	318	845
455	788	919
456	668	509
457	493	302
458	420	672
459	948	258
460	633	96
461	373	941
462	837	700
463	421	878
464	131	859
465	919	651
466	575	38
467	581	955
468	945	96
469	715	737
470	143	234
471	31	745
472	769	289
473	698	746
474	280	608
475	401	20
476	631	744
477	84	481
478	723	172
479	338	702
480	19	928
481	543	403
482	216	285
483	91	975
484	770	22
485	1	916
486	462	76
487	699	950
488	985	105
489	243	238
490	945	515
491	926	928
492	727	923
493	539	251
494	356	443
495	566	802
496	913	687
497	898	970
498	538	3
499	963	389
500	288	715
501	746	151
DEMAND_SECTION
1	0
2	8
3	8
4	2
5	8
6	4
7	4
8	8
9	5
10	2
11	4
12	1
13	9
14	5
15	6
16	8
17	2
18	1
19	3
20	6
21	4
22	8
23	8
24	1
25	8
26	8
27	4
28	3
29	8
30	4
31	4
32	2
33	7
34	4
35	2
36	2
37	5
38	4
39	5
40	7
41	2
42	5
43	3
44	4
45	2
46	4
47	7
48	9
49	8
50	9
51	5
52	8
53	1
54	3
55	7
56	7
57	7
58	7
59	3
60	8
61	1
62	3
63	7
64	9
65	9
66	3
67	6
68	5
69	3
70	1
71	9
72	1
73	4
74	7
75	1
76	7
77	2
78	6
79	6
80	2
81	1
82	2
83	3
84	6
85	5
86	4
87	8
88	6
89	5
90	6
91	4
92	6
93	9
94	3
95	2
96	1
97	4
98	9
99	3
100	9
101	7
102	8
103	8
104	7
105	3
106	1
107	3
108	6
109	8
110	9
111	4
112	8
113	6
114	3
115	9
116	5
117	1
118	5
119	6
120	5
121	5
122	3
123	9
124	9
125	1
126	9
127	9
128	5
129	3
130	1
131	4
132	1
133	6
134	5
135	6
136	7
137	3
138	6
139	5
140	9
141	9
142	7
143	7
144	1
145	8
146	6
147	8
148	9
149	6
150	7
151	3
152	4
153	7
154	9
155	2
156	6
157	2
158	4
159	2
160	4
161	8
162	3
163	5
164	3
165	2
166	7
167	5
168	9
169	6
170	9
171	8
172	3
173	2
174	5
175	9
176	2
177	3
178	3
179	6
180	5
181	6
182	5
183	5
184	6
185	1
186	4
187	1
188	2
189	5
190	8
191	9
192	3
193	5
194	3
195	9
196	7
197	5
198	2
199	5
200	9
201	6
202	9
203	7
204	9
205	4
206	6
207	2
208	1
209	4
210	4
211	6
212	6
213	6
214	5
215	2
216	2
217	6
218	4
219	2
220	9
221	7
222	3
223	4
224	3
225	7
226	5
227	7
228	3
229	7
230	5
231	2
232	6
233	3
234	8
235	2
236	1
237	6
238	5
239	1
240	1
241	1
242	6
243	9
244	1
245	4
246	1
247	8
248	6
249	3
250	3
251	1
252	1
253	1
254	2
255	4
256	5
257	3
258	2
259	1
260	7
261	7
262	8
263	5
264	4
265	1
266	6
267	6
268	8
269	6
270	3
271	9
272	4
273	3
274	1
275	7
276	4
277	7
278	4
279	5
280	1
281	8
282	2
283	7
284	9
285	7
286	3
287	3
288	7
289	3
290	5
291	3
292	4
293	8
294	4
295	6
296	1
297	2
298	1
299	3
300	7
301	1
302	1
303	5
304	4
305	8
306	1
307	6
308	3
309	2
310	5
311	7
312	6
313	5
314	4
315	6
316	7
317	6
318	8
319	6
320	8
321	1
322	4
323	7
324	5
325	4
326	8
327	4
328	1
329	6
330	5
331	8
332	8
333	6
334	9
335	9
336	7
337	6
338	8
339	3
340	1
341	7
342	3
343	8
344	3
345	8
346	6
347	4
348	7
349	1
350	7
351	7
352	2
353	4
354	9
355	1
356	5
357	6
358	8
359	5
360	1
361	4
362	6
363	9
364	6
365	9
366	4
367	3
368	9
369	2
370	8
371	8
372	7
373	3
374	9
375	4
376	1
377	9
378	5
379	3
380	1
381	8
382	9
383	3
384	3
385	7
386	6
387	6
388	8
389	6
390	4
391	8
392	9
393	3
394	1
395	7
396	6
397	3
398	2
399	7
400	2
401	5
402	3
403	1
404	5
405	1
406	8
407	2
408	7
409	5
410	8
411	5
412	2
413	4
414	5
415	1
416	3
417	2
418	3
419	5
420	2
421	7
422	7
423	2
424	2
425	4
426	3
427	1
428	7
429	7
430	1
431	9
432	7
433	4
434	9
435	4
436	4
437	5
438	2
439	7
440	9
441	4
442	7
443	2
444	9
445	4
446	3
447	6
448	2
449	4
450	3
451	6
452	5
453	8
454	7
455	9
456	5
457	8
458	9
459	6
460	4
461	6
462	7
463	4
464	3
465	1
466	2
467	7
468	1
469	8
470	8
471	6
472	9
473	5
474	4
475	4
476	6
477	3
478	8
479	5
480	1
481	5
482	5
483	8
484	7
485	8
486	4
487	6
488	7
489	1
490	1
491	1
492	3
493	1
494	2
495	4
496	1
497	2
498	1
499	9
500	5
501	4
TIME_WINDOW_SECTION
1	0	3000
2	886	2669
3	1073	2443
4	708	1411
5	452	1542
6	548	2409
7	1253	1993
8	1335	2470
9	1641	2173
10	0	718
11	345	571
12	519	1315
13	1131	2621
14	322	1550
15	556	1879
16	509	1846
17	1253	2105
18	106	1881
19	620	1797
20	1463	2785
21	1259	2450
22	1390	1943
23	1027	2480
24	498	2444
25	792	2040
26	1591	1893
27	494	2333
28	904	1796
29	1184	1770
30	1542	2144
31	225	2074
32	1129	2007
33	1034	2862
34	1079	1484
35	307	1529
36	786	2315
37	532	1161
38	1871	2264
39	1912	2541
40	1199	1910
41	511	1981
42	579	1451
43	1048	2859
44	1336	2013
45	1638	2982
46	82	1262
47	1762	2116
48	605	1170
49	655	1453
50	1165	2261
51	492	1244
52	1450	2449
53	182	2052
54	1081	1561
55	342	1962
56	506	1896
57	881	2457
58	724	2238
59	1473	1711
60	1376	2257
61	1081	1540
62	875	2625
63	1654	2419
64	229	1140
65	975	2716
66	1979	2741
67	451	1801
68	875	2216
69	357	1886
70	1469	1978
71	805	1633
72	412	1739
73	1457	2069
74	57	761
75	1478	2852
76	1103	2395
77	1308	1512
78	1135	2221
79	246	1057
80	602	1603
81	673	1023
82	1550	2371
83	214	1749
84	1318	1568
85	959	1728
86	1101	2370
87	566	1674
88	571	1592
89	105	1420
90	336	2035
91	0	1410
92	499	1491
93	664	1132
94	1528	2272
95	1216	1951
96	717	2411
97	1546	2093
98	0	1101
99	1824	2222
100	1297	2510
101	413	2217
102	0	818
103	921	2424
104	358	1754
105	0	1703
106	1433	1694
107	998	2837
108	1106	2349
109	812	2495
110	429	1699
111	874	2844
112	0	1320
113	1717	3000
114	1542	1959
115	2211	2579
116	1162	1878
117	822	1056
118	1514	1947
119	266	2102
120	1293	2266
121	1043	1686
122	1027	1790
123	1291	2297
124	1420	1755
125	804	2243
126	1738	1939
127	1226	2238
128	134	1954
129	1501	2956
130	1258	1679
131	295	1603
132	1198	2233
133	0	725
134	295	1706
135	1188	1434
136	432	1411
137	1011	1402
138	704	2561
139	1498	2374
140	698	2684
141	2223	2467
142	1364	2152
143	853	1519
144	652	2637
145	530	1377
146	834	1925
147	1572	1989
148	1279	1722
149	0	1492
150	387	2232
151	836	2051
152	698	1682
153	850	1598
154	103	1694
155	308	895
156	588	2206
157	442	727
158	1340	2138
159	1123	1555
160	1085	1879
161	762	2315
162	862	2001
163	844	1838
164	1265	2152
165	939	1939
166	1641	2157
167	213	1295
168	1268	1926
169	557	2178
170	428	2089
171	0	1255
172	1253	1735
173	857	1243
174	882	1445
175	809	1031
176	781	1726
177	1480	1898
178	1345	2521
179	407	2374
180	563	1417
181	684	1619
182	1103	2153
183	980	2394
184	0	1692
185	0	407
186	1964	2629
187	1018	2722
188	1220	3000
189	1017	1925
190	306	1029
191	69	395
192	1140	3000
193	799	2288
194	673	2334
195	433	1760
196	982	1681
197	1937	2840
198	885	1594
199	0	1226
200	1183	2324
201	1178	1962
202	256	1127
203	355	1845
204	194	1824
205	1059	1788
206	1540	1936
207	1139	2592
208	1273	2733
209	987	1579
210	449	1669
211	502	748
212	1532	2007
213	0	1696
214	0	1003
215	825	1889
216	133	1901
217	1770	2685
218	1692	2358
219	1471	2167
220	1296	2303
221	0	1932
222	750	2432
223	666	885
224	1197	3000
225	501	2432
226	794	2047
227	1380	1667
228	477	1471
229	499	1523
230	1089	2079
231	1075	2770
232	51	357
233	385	1716
234	1309	1847
235	572	1144
236	178	1785
237	975	2315
238	511	1426
239	753	1021
240	643	1482
241	0	1107
242	2056	2409
243	903	2066
244	1449	2396
245	923	1386
246	213	1253
247	1176	2144
248	877	2012
249	1785	2413
250	235	1910
251	1341	1838
252	1047	1479
253	588	2184
254	1419	2510
255	380	2183
256	1751	2161
257	392	1234
258	1372	2032
259	577	998
260	648	2220
261	549	1987
262	878	1855
263	418	1623
264	128	1408
265	1095	1310
266	1468	2454
267	1726	2956
268	1002	1444
269	769	2576
270	860	1176
271	716	1806
272	24	1896
273	762	2349
274	653	2021
275	452	1555
276	336	1723
277	294	1355
278	1316	1584
279	977	2532
280	1743	2519
281	1113	1627
282	576	1568
283	0	1414
284	870	1836
285	878	1305
286	1027	2681
287	1579	2855
288	427	1700
289	1618	2452
290	898	2036
291	1198	2117
292	587	1537
293	1194	1406
294	1285	2780
295	105	731
296	191	2089
297	686	2030
298	0	1595
299	1068	1601
300	1743	2118
301	1486	2176
302	604	1911
303	942	2605
304	448	1385
305	130	1803
306	695	2308
307	1204	2410
308	1055	1668
309	1233	2046
310	889	1530
311	974	1613
312	718	1204
313	655	2375
314	1137	1917
315	1415	1719
316	299	1861
317	1387	1816
318	816	1830
319	521	2304
320	753	1097
321	1672	1946
322	1384	2990
323	1284	1714
324	1238	3000
325	1098	1714
326	367	1480
327	1555	2105
328	1886	2273
329	838	2715
330	239	1931
331	665	2451
332	414	1820
333	1409	2101
334	372	1953
335	652	1313
336	1632	1895
337	235	1841
338	793	1370
339	0	1274
340	1089	2586
341	839	1046
342	1703	2630
343	217	1730
344	2080	2520
345	347	2074
346	1150	2082
347	485	1256
348	2064	2952
349	1195	2626
350	511	2187
351	480	1775
352	988	1951
353	1353	1820
354	864	1754
355	1897	2400
356	186	1873
357	592	2511
358	288	1379
359	1654	1961
360	1135	1960
361	1619	1880
362	498	1482
363	356	1834
364	1550	2294
365	1154	2140
366	833	1330
367	816	1398
368	1170	1548
369	861	2423
370	632	2229
371	1027	2651
372	761	1332
373	1970	2230
374	831	1923
375	1052	1658
376	1334	2973
377	85	1290
378	1380	1673
379	1180	2403
380	1325	2630
381	714	1621
382	365	1618
383	0	1108
384	259	926
385	1232	1434
386	1286	2236
387	813	1416
388	1226	1577
389	477	2420
390	749	1381
391	466	806
392	45	1980
393	155	1810
394	1182	1744
395	146	1811
396	277	1594
397	221	1942
398	1331	2268
399	34	1628
400	1070	1953
401	826	2504
402	1405	2002
403	19	1465
404	974	1635
405	847	1591
406	798	1336
407	1201	1975
408	938	1649
409	1408	1919
410	0	1320
411	1304	3000
412	1431	2731
413	1788	2211
414	1570	2340
415	904	2315
416	1038	2755
417	605	1798
418	594	2560
419	338	2294
420	795	2519
421	678	1973
422	376	2337
423	1428	3000
424	1023	1771
425	517	1433
426	805	2038
427	1548	1913
428	891	1714
429	1138	2752
430	1161	3000
431	828	2250
432	990	2153
433	595	1508
434	1006	2145
435	919	2292
436	1771	2569
437	990	2146
438	1513	2820
439	1285	3000
440	0	1806
441	1240	1748
442	829	1619
443	639	1509
444	1324	3000
445	160	1120
446	857	1664
447	1265	1961
448	1258	1640
449	803	1234
450	475	1554
451	1618	2935
452	1567	2766
453	1123	2963
454	0	1381
455	1763	2746
456	1329	1846
457	488	1923
458	1932	2497
459	962	2525
460	333	1456
461	952	2127
462	984	1722
463	0	1376
464	575	2110
465	1617	2714
466	1359	2267
467	816	2575
468	147	1683
469	986	2067
470	961	1478
471	272	1721
472	519	1492
473	295	1960
474	1160	3000
475	704	1737
476	429	2146
477	653	1054
478	1017	2790
479	184	984
480	748	1133
481	0	1665
482	746	1093
483	1371	1969
484	655	1404
485	1030	1346
486	704	2263
487	0	1081
488	1192	2255
489	963	2838
490	430	913
491	525	1021
492	1693	3000
493	1400	1771
494	595	2184
495	2065	3000
496	248	910
497	0	1648
498	709	2603
499	1013	1661
500	1814	2777
501	1506	2236
DEPOT_SECTION
1
-1
EOF
