NAME : n501-0005
COMMENT : "Generated by pyvrp_manuel (VRPLTW)"
TYPE : VRPLTW
DIMENSION : 501
EDGE_WEIGHT_TYPE : EUC_2D
CAPACITY : 100
VEHICLES : 500
DISTANCE : 3000
SERVICE_TIME : 200
NODE_COORD_SECTION
1	962	547
2	99	733
3	641	886
4	704	76
5	922	663
6	632	503
7	573	663
8	259	664
9	1	814
10	61	183
11	355	579
12	779	98
13	202	805
14	92	517
15	510	787
16	269	570
17	538	334
18	56	268
19	871	645
20	1	537
21	800	78
22	321	485
23	212	288
24	267	463
25	778	607
26	493	872
27	846	321
28	519	868
29	856	365
30	698	244
31	835	655
32	185	783
33	394	28
34	495	405
35	189	906
36	892	314
37	250	288
38	79	159
39	738	967
40	949	725
41	595	541
42	876	138
43	90	308
44	781	574
45	420	450
46	311	43
47	742	517
48	71	744
49	265	4
50	774	538
51	566	457
52	704	488
53	418	638
54	22	717
55	615	131
56	15	256
57	619	51
58	862	458
59	852	787
60	986	898
61	247	795
62	138	612
63	928	120
64	839	254
65	127	334
66	962	711
67	309	7
68	45	71
69	797	778
70	958	87
71	231	789
72	779	908
73	276	580
74	5	497
75	860	909
76	503	736
77	500	847
78	980	813
79	263	986
80	880	796
81	948	423
82	425	700
83	852	276
84	905	24
85	438	30
86	95	242
87	564	386
88	985	906
89	153	414
90	266	885
91	539	610
92	381	723
93	299	329
94	62	486
95	71	991
96	814	817
97	1	428
98	244	191
99	819	336
100	324	40
101	431	946
102	880	527
103	95	632
104	486	110
105	85	355
106	723	828
107	378	170
108	134	607
109	202	316
110	266	60
111	721	569
112	425	303
113	474	370
114	168	678
115	701	456
116	530	439
117	893	152
118	580	708
119	467	466
120	584	100
121	798	352
122	151	125
123	557	954
124	588	638
125	24	448
126	395	733
127	618	19
128	154	231
129	761	360
130	412	861
131	471	671
132	342	439
133	520	214
134	166	890
135	101	352
136	94	752
137	720	529
138	135	202
139	736	610
140	115	651
141	348	820
142	510	222
143	717	444
144	955	134
145	128	577
146	355	742
147	176	709
148	178	93
149	595	386
150	340	668
151	574	805
152	70	939
153	291	892
154	600	43
155	304	208
156	79	330
157	913	601
158	999	267
159	857	453
160	793	604
161	857	738
162	925	570
163	26	893
164	941	488
165	895	175
166	614	890
167	405	988
168	917	31
169	745	449
170	727	731
171	286	146
172	93	565
173	576	640
174	705	514
175	239	469
176	763	779
177	77	303
178	159	739
179	154	491
180	151	46
181	853	618
182	815	750
183	412	849
184	47	265
185	39	508
186	589	787
187	273	950
188	427	909
189	976	418
190	878	733
191	860	664
192	252	924
193	746	338
194	524	890
195	290	278
196	654	293
197	280	93
198	112	520
199	434	733
200	228	996
201	878	146
202	127	711
203	869	915
204	137	212
205	35	853
206	131	718
207	878	444
208	42	289
209	533	726
210	525	60
211	301	659
212	843	365
213	815	268
214	289	854
215	4	528
216	530	317
217	220	802
218	103	918
219	40	145
220	144	8
221	453	577
222	982	549
223	166	147
224	385	839
225	660	260
226	28	629
227	799	32
228	122	402
229	96	972
230	376	421
231	146	598
232	895	522
233	573	199
234	48	811
235	714	478
236	189	658
237	95	935
238	985	519
239	967	74
240	731	180
241	150	942
242	918	395
243	750	521
244	748	280
245	698	383
246	601	991
247	838	552
248	436	336
249	539	588
250	940	360
251	270	856
252	406	331
253	617	359
254	992	915
255	734	591
256	887	424
257	199	639
258	162	619
259	766	507
260	434	10
261	515	283
262	224	36
263	765	143
264	902	49
265	849	868
266	208	273
267	994	405
268	319	415
269	827	910
270	752	220
271	918	611
272	493	23
273	955	710
274	85	641
275	71	727
276	756	491
277	617	185
278	795	388
279	989	556
280	861	797
281	891	332
282	725	645
283	265	773
284	434	913
285	70	917
286	904	398
287	909	84
288	446	103
289	771	58
290	933	434
291	960	229
292	228	966
293	974	909
294	879	467
295	789	704
296	880	725
297	76	708
298	281	989
299	107	864
300	544	832
301	388	44
302	530	410
303	702	839
304	741	949
305	853	898
306	754	440
307	912	96
308	764	476
309	442	177
310	784	27
311	43	347
312	379	88
313	400	423
314	18	877
315	768	111
316	968	692
317	99	333
318	780	499
319	196	731
320	228	637
321	601	767
322	946	820
323	901	539
324	682	280
325	614	848
326	829	763
327	965	351
328	848	725
329	229	804
330	381	30
331	198	694
332	366	648
333	662	676
334	118	586
335	887	128
336	745	456
337	898	730
338	608	477
339	525	746
340	338	364
341	516	966
342	788	727
343	827	221
344	43	211
345	468	144
346	154	232
347	140	657
348	566	452
349	732	587
350	187	187
351	854	655
352	77	751
353	356	373
354	549	691
355	152	296
356	474	200
357	411	292
358	129	154
359	753	390
360	918	81
361	104	213
362	579	186
363	359	385
364	888	693
365	204	460
366	418	861
367	159	158
368	204	757
369	570	857
370	842	623
371	832	689
372	765	41
373	899	905
374	634	586
375	717	398
376	527	97
377	985	985
378	504	251
379	107	410
380	967	902
381	170	573
382	149	300
383	201	224
384	535	861
385	775	86
386	15	977
387	646	876
388	659	532
389	31	877
390	884	166
391	244	465
392	139	578
393	353	740
394	510	913
395	415	531
396	762	646
397	573	921
398	132	800
399	720	677
400	596	0
401	889	640
402	183	251
403	384	285
404	464	141
405	431	823
406	745	973
407	540	676
408	814	171
409	688	224
410	798	21
411	40	237
412	847	137
413	763	169
414	526	312
415	782	247
416	911	555
417	124	940
418	197	524
419	197	52
420	353	466
421	457	57
422	682	542
423	804	607
424	773	94
425	617	390
426	258	59
427	958	834
428	687	337
429	297	478
430	300	754
431	461	368
432	365	642
433	474	274
434	260	739
435	942	728
436	371	182
437	845	451
438	992	692
439	738	739
440	882	724
441	911	686
442	556	398
443	785	623
444	959	770
445	612	739
446	434	965
447	788	445
448	836	427
449	302	868
450	142	392
451	353	371
452	329	697
453	510	305
454	223	822
455	719	327
456	746	257
457	587	576
458	271	16
459	616	970
460	705	609
461	969	676
462	502	604
463	825	321
464	537	440
465	357	368
466	249	960
467	725	165
468	716	992
469	732	443
470	857	679
471	712	884
472	544	122
473	54	47
474	42	41
475	932	466
476	944	223
477	867	604
478	669	888
479	526	254
480	505	759
481	708	417
482	912	227
483	318	261
484	820	731
485	329	468
486	386	570
487	26	412
488	69	855
489	372	878
490	30	64
491	863	81
492	329	760
493	995	756
494	114	39
495	465	140
496	171	15
497	970	628
498	948	805
499	979	190
500	950	116
501	899	749
DEMAND_SECTION
1	0
2	4
3	5
4	7
5	9
6	8
7	1
8	4
9	7
10	3
11	7
12	7
13	4
14	9
15	5
16	8
17	3
18	4
19	3
20	6
21	8
22	5
23	3
24	2
25	8
26	8
27	4
28	7
29	7
30	2
31	9
32	1
33	2
34	7
35	6
36	1
37	3
38	7
39	9
40	4
41	7
42	9
43	8
44	8
45	2
46	5
47	8
48	1
49	7
50	4
51	6
52	5
53	4
54	3
55	5
56	6
57	3
58	3
59	7
60	9
61	6
62	3
63	2
64	5
65	4
66	7
67	2
68	1
69	4
70	3
71	1
72	4
73	1
74	4
75	5
76	1
77	9
78	3
79	9
80	8
81	5
82	9
83	2
84	6
85	8
86	3
87	2
88	8
89	9
90	5
91	1
92	9
93	5
94	7
95	6
96	5
97	2
98	2
99	2
100	1
101	7
102	6
103	8
104	1
105	6
106	2
107	9
108	8
109	4
110	9
111	4
112	3
113	3
114	5
115	4
116	9
117	7
118	9
119	5
120	2
121	4
122	1
123	5
124	2
125	3
126	5
127	4
128	8
129	1
130	6
131	8
132	7
133	1
134	4
135	3
136	1
137	6
138	6
139	1
140	8
141	3
142	1
143	7
144	2
145	5
146	7
147	1
148	2
149	8
150	2
151	1
152	6
153	1
154	3
155	3
156	7
157	2
158	4
159	2
160	3
161	5
162	3
163	7
164	2
165	6
166	5
167	3
168	9
169	4
170	1
171	7
172	3
173	2
174	5
175	2
176	5
177	1
178	2
179	2
180	4
181	6
182	9
183	7
184	4
185	7
186	7
187	1
188	1
189	9
190	7
191	1
192	3
193	7
194	5
195	7
196	1
197	2
198	9
199	5
200	8
201	6
202	4
203	5
204	2
205	2
206	5
207	2
208	3
209	3
210	8
211	3
212	6
213	5
214	3
215	2
216	9
217	1
218	1
219	3
220	7
221	1
222	8
223	2
224	4
225	3
226	5
227	5
228	8
229	3
230	6
231	2
232	3
233	7
234	5
235	8
236	6
237	3
238	1
239	6
240	7
241	8
242	2
243	4
244	2
245	9
246	8
247	5
248	9
249	3
250	9
251	6
252	9
253	2
254	9
255	2
256	1
257	2
258	8
259	8
260	5
261	2
262	1
263	2
264	6
265	7
266	3
267	7
268	5
269	7
270	1
271	1
272	1
273	9
274	2
275	4
276	7
277	2
278	8
279	9
280	4
281	3
282	8
283	2
284	2
285	8
286	2
287	7
288	5
289	9
290	4
291	5
292	3
293	2
294	3
295	5
296	1
297	4
298	3
299	4
300	9
301	3
302	2
303	5
304	9
305	7
306	9
307	8
308	3
309	3
310	2
311	1
312	8
313	6
314	2
315	6
316	6
317	6
318	9
319	1
320	6
321	2
322	1
323	2
324	2
325	7
326	2
327	9
328	6
329	1
330	6
331	9
332	8
333	2
334	9
335	5
336	4
337	7
338	1
339	7
340	1
341	4
342	5
343	5
344	9
345	6
346	2
347	1
348	8
349	9
350	7
351	3
352	4
353	4
354	4
355	2
356	9
357	9
358	2
359	2
360	4
361	5
362	5
363	2
364	6
365	8
366	7
367	6
368	5
369	1
370	6
371	1
372	8
373	5
374	5
375	1
376	9
377	6
378	3
379	7
380	4
381	4
382	6
383	4
384	8
385	6
386	1
387	2
388	5
389	1
390	3
391	9
392	5
393	2
394	2
395	1
396	9
397	7
398	7
399	3
400	8
401	8
402	8
403	6
404	6
405	3
406	2
407	3
408	8
409	3
410	6
411	5
412	7
413	9
414	4
415	5
416	8
417	8
418	8
419	8
420	9
421	3
422	3
423	3
424	3
425	4
426	9
427	3
428	5
429	8
430	3
431	5
432	1
433	8
434	4
435	5
436	2
437	7
438	5
439	3
440	7
441	6
442	4
443	8
444	7
445	6
446	8
447	1
448	1
449	4
450	9
451	9
452	4
453	3
454	2
455	6
456	1
457	6
458	9
459	3
460	7
461	8
462	5
463	9
464	6
465	3
466	5
467	5
468	5
469	6
470	2
471	8
472	1
473	6
474	4
475	3
476	9
477	7
478	4
479	4
480	8
481	9
482	4
483	3
484	6
485	4
486	9
487	9
488	4
489	5
490	7
491	4
492	3
493	4
494	9
495	9
496	4
497	9
498	4
499	1
500	7
501	5
TIME_WINDOW_SECTION
1	0	3000
2	151	2081
3	1019	1967
4	2059	2431
5	1439	1705
6	1383	2989
7	1387	3000
8	747	1924
9	906	1662
10	323	1872
11	1638	2422
12	1209	3000
13	1012	1245
14	1169	2284
15	159	1826
16	410	1911
17	0	1305
18	539	1817
19	478	702
20	778	1382
21	596	1416
22	1808	2465
23	696	2431
24	1711	2332
25	1816	2845
26	2061	2308
27	1757	2856
28	564	1984
29	548	1520
30	67	1572
31	729	1495
32	464	2168
33	1396	2388
34	1384	1830
35	245	1737
36	1926	3000
37	1025	2363
38	196	2173
39	601	1939
40	293	734
41	1251	1916
42	761	2628
43	498	1617
44	0	1421
45	0	1563
46	765	1365
47	1788	3000
48	442	2387
49	780	2268
50	331	1872
51	0	1414
52	0	1355
53	0	1408
54	673	1553
55	173	1023
56	1239	1454
57	539	1347
58	339	1132
59	968	1490
60	1779	3000
61	536	2222
62	1499	2175
63	1139	3000
64	432	1887
65	1696	2057
66	755	2133
67	667	1592
68	876	2326
69	0	1589
70	913	2474
71	554	2241
72	628	1789
73	314	1508
74	364	1760
75	0	1300
76	0	1541
77	1239	2283
78	1418	2860
79	599	2494
80	287	1755
81	691	2067
82	57	1281
83	919	2569
84	462	2328
85	244	2082
86	1121	1584
87	16	1213
88	1080	1520
89	993	2004
90	1105	2446
91	1074	2168
92	475	2287
93	0	1614
94	940	2310
95	301	1851
96	2034	2378
97	636	1779
98	796	1555
99	1661	3000
100	389	2297
101	1802	2177
102	226	447
103	1301	1550
104	898	2682
105	431	1645
106	1889	2350
107	342	1182
108	632	2473
109	169	2095
110	678	2431
111	663	2216
112	921	2415
113	741	1326
114	724	2710
115	589	856
116	348	672
117	336	2206
118	1259	1945
119	1179	2078
120	188	2068
121	2004	2475
122	518	1655
123	710	2668
124	2175	2569
125	308	2081
126	1310	2123
127	1307	1671
128	539	1595
129	921	1538
130	957	2789
131	0	1188
132	681	1908
133	1155	2229
134	955	2095
135	401	2049
136	1068	2314
137	265	967
138	732	1794
139	1353	2620
140	1758	2022
141	705	2345
142	1816	2420
143	426	1651
144	883	2019
145	1201	2618
146	1219	2087
147	1362	1806
148	938	1220
149	1939	2215
150	814	2086
151	853	1736
152	972	1768
153	1077	1924
154	1054	1949
155	858	1843
156	1295	2336
157	130	1893
158	0	1063
159	389	1022
160	2284	2709
161	0	1116
162	1608	2189
163	136	2134
164	1070	1866
165	1114	1947
166	1601	1896
167	1165	2375
168	1712	2000
169	0	1425
170	1709	2711
171	567	2378
172	1110	2285
173	1999	2414
174	986	2669
175	1015	1755
176	306	549
177	1189	2444
178	979	1650
179	996	2868
180	675	2508
181	154	1019
182	545	2467
183	1219	2358
184	825	2442
185	281	2279
186	1746	2342
187	1462	2059
188	93	2050
189	0	1334
190	389	1443
191	863	1541
192	1291	2309
193	293	941
194	732	1582
195	1469	2402
196	1109	2203
197	752	1997
198	1106	2380
199	1347	1574
200	835	1238
201	1257	3000
202	474	2362
203	0	1249
204	1416	2046
205	773	1713
206	921	1965
207	1693	3000
208	1098	2495
209	14	1402
210	1048	1658
211	1506	2201
212	2183	2854
213	0	1126
214	1045	1557
215	467	1835
216	1691	2290
217	1148	1637
218	764	2552
219	1049	1751
220	442	2218
221	437	846
222	0	767
223	557	2537
224	1408	2483
225	867	2159
226	91	2081
227	369	1599
228	1369	1710
229	1604	1849
230	644	1651
231	1049	2213
232	89	416
233	0	1326
234	362	1958
235	1694	2111
236	888	1863
237	688	2016
238	916	1567
239	67	1383
240	705	2463
241	484	2189
242	342	857
243	937	1719
244	1047	2709
245	466	2075
246	757	2362
247	1600	1855
248	972	1966
249	1109	2532
250	424	1491
251	910	1199
252	432	2382
253	1462	1934
254	1145	3000
255	0	1421
256	1642	2233
257	1811	2229
258	713	1368
259	839	1107
260	723	1974
261	1489	2493
262	349	1663
263	131	1981
264	1226	2394
265	1060	1999
266	233	1568
267	686	1784
268	761	1969
269	739	1751
270	0	1282
271	1262	1554
272	981	2183
273	350	634
274	1348	1554
275	657	1570
276	902	2264
277	557	1689
278	588	1610
279	1094	2218
280	1240	2342
281	1052	2965
282	282	1437
283	839	1155
284	347	1948
285	739	2243
286	0	1085
287	439	1952
288	625	1518
289	655	1796
290	446	1295
291	1731	2091
292	250	2102
293	744	2211
294	673	1277
295	512	1167
296	1796	2228
297	1394	2341
298	578	1443
299	640	1977
300	909	2454
301	812	1785
302	908	1777
303	515	1052
304	2037	2424
305	356	1478
306	1390	1727
307	158	1867
308	2347	2799
309	1049	2441
310	486	1768
311	748	2502
312	1329	2625
313	737	1716
314	1136	1938
315	1136	2693
316	90	1259
317	1070	2716
318	0	1329
319	423	1359
320	724	2631
321	1321	3000
322	85	1838
323	0	985
324	1692	2623
325	2124	2543
326	600	1113
327	0	1170
328	1699	2514
329	1044	2360
330	972	2565
331	1009	2905
332	862	1338
333	269	1403
334	715	1193
335	486	951
336	1282	2811
337	765	2709
338	204	565
339	1138	1735
340	43	1399
341	1349	2494
342	0	1265
343	1381	3000
344	780	2184
345	521	959
346	1293	1932
347	477	2350
348	0	1494
349	746	2151
350	993	1738
351	878	1505
352	1183	2390
353	305	1605
354	788	1891
355	234	1538
356	547	1470
357	466	1513
358	1103	2244
359	853	1510
360	1367	1702
361	1510	1942
362	1603	1924
363	474	1706
364	0	968
365	1367	2077
366	1208	2080
367	562	2369
368	1393	1689
369	1396	1856
370	0	1409
371	1428	3000
372	121	1578
373	1324	2938
374	796	1634
375	1615	2262
376	1201	1623
377	1839	2534
378	786	2755
379	712	2218
380	1595	1975
381	868	2379
382	825	2031
383	711	2317
384	522	2202
385	1039	1994
386	457	2212
387	961	2501
388	443	1286
389	613	1815
390	1763	2729
391	1412	2194
392	1206	2171
393	352	2208
394	1356	1621
395	492	2317
396	1004	1844
397	1725	2708
398	1102	2552
399	1344	3000
400	1407	2847
401	414	1171
402	1417	1675
403	1209	1812
404	845	1556
405	293	1747
406	716	1372
407	788	1035
408	2131	2386
409	6	1074
410	1987	2421
411	1016	2344
412	161	1735
413	574	1018
414	1114	2200
415	1877	2861
416	1522	3000
417	1254	2387
418	1043	2622
419	1094	1300
420	1291	1813
421	0	1746
422	1165	2558
423	1619	2536
424	520	1864
425	0	1352
426	1369	1958
427	72	1658
428	405	1320
429	1109	2817
430	505	2440
431	647	1182
432	867	1268
433	1543	2006
434	327	1264
435	2419	2783
436	347	1104
437	0	1461
438	21	836
439	0	1400
440	1293	1855
441	615	1605
442	638	2032
443	2028	2912
444	481	1549
445	1401	3000
446	175	1201
447	179	1974
448	732	1051
449	1675	2436
450	865	2277
451	1685	2058
452	1494	2639
453	361	2214
454	1008	2144
455	789	2271
456	1437	1933
457	158	1023
458	511	2234
459	0	1381
460	881	1901
461	0	964
462	379	1271
463	452	902
464	1415	2322
465	0	1526
466	815	1449
467	668	2070
468	703	1052
469	578	1415
470	2066	2311
471	875	2356
472	813	1686
473	713	1593
474	523	2427
475	469	2281
476	793	2448
477	1189	2601
478	1399	2451
479	1486	2943
480	1041	2470
481	0	1969
482	514	1065
483	1380	1821
484	87	557
485	488	2222
486	1744	2413
487	1230	2339
488	710	2064
489	0	1721
490	1491	1789
491	763	2409
492	1717	2429
493	998	2723
494	348	2105
495	671	1507
496	1530	1965
497	1572	3000
498	227	711
499	682	2569
500	1518	1786
501	497	2162
DEPOT_SECTION
1
-1
EOF
