NAME : n51-0006
COMMENT : "Generated by pyvrp_manuel (OVRPLTW)"
TYPE : OVRPLTW
DIMENSION : 51
EDGE_WEIGHT_TYPE : EUC_2D
CAPACITY : 40
VEHICLES : 50
OPEN_ROUTE : YES
DISTANCE : 3000
SERVICE_TIME : 200
NODE_COORD_SECTION
1	349	402
2	78	311
3	156	973
4	285	272
5	762	269
6	254	456
7	452	111
8	917	279
9	677	935
10	752	571
11	925	567
12	269	973
13	618	12
14	358	159
15	938	417
16	44	469
17	814	630
18	658	546
19	686	378
20	301	33
21	123	717
22	204	572
23	660	535
24	176	978
25	209	911
26	102	380
27	772	296
28	920	156
29	80	275
30	581	960
31	261	679
32	375	392
33	868	113
34	553	970
35	431	888
36	346	902
37	16	428
38	412	662
39	696	884
40	426	480
41	842	365
42	938	167
43	446	473
44	723	842
45	421	86
46	748	650
47	701	192
48	822	974
49	543	33
50	851	129
51	615	573
DEMAND_SECTION
1	0
2	5
3	9
4	5
5	4
6	4
7	9
8	9
9	8
10	1
11	4
12	9
13	8
14	8
15	2
16	9
17	5
18	8
19	1
20	5
21	1
22	7
23	5
24	3
25	5
26	7
27	4
28	4
29	8
30	9
31	6
32	1
33	9
34	6
35	5
36	8
37	5
38	2
39	4
40	4
41	3
42	6
43	3
44	4
45	6
46	8
47	3
48	8
49	2
50	7
51	6
TIME_WINDOW_SECTION
1	0	3000
2	696	1809
3	0	1478
4	1185	3000
5	80	1481
6	533	2031
7	1724	2014
8	740	2058
9	425	1633
10	817	1754
11	511	872
12	959	2152
13	1705	2333
14	0	1214
15	653	2610
16	91	1329
17	474	1162
18	944	1481
19	1885	2657
20	2200	2618
21	105	1734
22	664	1561
23	607	958
24	1275	2932
25	1282	1759
26	0	1319
27	636	1151
28	438	1069
29	377	691
30	996	2194
31	1581	2730
32	1398	3000
33	989	1264
34	1150	2282
35	729	2063
36	736	1777
37	422	1054
38	0	1547
39	32	1848
40	688	2007
41	475	1303
42	1254	2263
43	1242	2582
44	1039	2022
45	1438	2611
46	369	771
47	737	2366
48	1093	1325
49	885	1976
50	1177	1645
51	1609	2346
DEPOT_SECTION
1
-1
EOF
