NAME : n51-0049
COMMENT : "Generated by pyvrp_manuel (OVRPLTW)"
TYPE : OVRPLTW
DIMENSION : 51
EDGE_WEIGHT_TYPE : EUC_2D
CAPACITY : 40
VEHICLES : 50
OPEN_ROUTE : YES
DISTANCE : 3000
SERVICE_TIME : 200
NODE_COORD_SECTION
1	750	605
2	721	299
3	670	536
4	101	186
5	153	762
6	608	487
7	202	5
8	323	117
9	3	23
10	173	14
11	656	687
12	702	2
13	809	597
14	756	377
15	740	26
16	670	896
17	710	29
18	360	438
19	762	311
20	572	324
21	421	490
22	213	153
23	913	920
24	485	933
25	885	185
26	301	157
27	662	513
28	431	871
29	305	226
30	145	246
31	982	257
32	362	725
33	116	197
34	868	308
35	241	435
36	429	591
37	683	114
38	954	25
39	669	359
40	289	968
41	18	534
42	820	947
43	77	560
44	995	10
45	622	187
46	581	48
47	746	389
48	799	492
49	429	379
50	42	288
51	517	113
DEMAND_SECTION
1	0
2	2
3	3
4	7
5	4
6	3
7	6
8	4
9	6
10	2
11	2
12	6
13	9
14	4
15	3
16	3
17	5
18	8
19	9
20	9
21	6
22	6
23	4
24	8
25	7
26	1
27	9
28	6
29	6
30	4
31	9
32	8
33	5
34	8
35	2
36	4
37	6
38	9
39	6
40	9
41	8
42	4
43	6
44	7
45	6
46	4
47	3
48	4
49	2
50	7
51	4
TIME_WINDOW_SECTION
1	0	3000
2	2296	2684
3	449	1793
4	586	2241
5	623	2173
6	1057	2046
7	703	1599
8	1268	2824
9	879	1726
10	1181	2385
11	779	1209
12	746	2189
13	427	2033
14	258	1220
15	1200	2253
16	1987	2579
17	1673	1894
18	0	1336
19	2169	2432
20	384	1061
21	1604	1938
22	952	1775
23	355	1589
24	1257	2233
25	1522	2599
26	258	2023
27	0	1331
28	824	1242
29	967	1890
30	895	1756
31	481	1494
32	630	1536
33	857	2584
34	0	1256
35	868	2163
36	1122	2529
37	839	2508
38	699	1893
39	1430	2551
40	1296	2691
41	369	1689
42	0	1231
43	1500	2744
44	0	1707
45	1783	2149
46	416	1997
47	0	619
48	1253	3000
49	1244	2385
50	628	1811
51	1003	2868
DEPOT_SECTION
1
-1
EOF
