NAME : n401-0010
COMMENT : "Generated by pyvrp_manuel (CVRP)"
TYPE : CVRP
DIMENSION : 401
EDGE_WEIGHT_TYPE : EUC_2D
CAPACITY : 100
NODE_COORD_SECTION
1	161	282
2	704	809
3	113	961
4	199	781
5	656	537
6	630	9
7	978	468
8	947	512
9	296	813
10	490	182
11	563	2
12	191	94
13	526	225
14	489	120
15	69	442
16	559	860
17	329	976
18	142	673
19	50	951
20	311	778
21	524	299
22	381	313
23	806	865
24	976	381
25	349	249
26	466	621
27	459	177
28	537	485
29	100	364
30	480	14
31	570	637
32	453	431
33	512	627
34	260	453
35	787	353
36	499	38
37	119	452
38	327	986
39	393	83
40	926	177
41	914	449
42	598	10
43	954	494
44	249	143
45	591	28
46	871	774
47	933	945
48	205	365
49	806	820
50	989	293
51	572	483
52	788	255
53	953	352
54	748	877
55	1	593
56	157	741
57	928	341
58	161	246
59	889	419
60	128	909
61	828	446
62	558	561
63	983	790
64	590	511
65	661	131
66	771	710
67	558	790
68	404	43
69	84	971
70	335	135
71	989	147
72	906	945
73	437	791
74	883	30
75	232	565
76	657	159
77	88	979
78	264	12
79	720	243
80	326	325
81	962	690
82	990	323
83	862	94
84	803	520
85	519	926
86	538	287
87	224	581
88	333	753
89	82	164
90	936	306
91	7	858
92	364	503
93	810	667
94	20	590
95	984	471
96	864	938
97	684	38
98	929	895
99	650	459
100	156	610
101	326	948
102	2	608
103	489	501
104	438	712
105	71	608
106	167	659
107	458	563
108	782	301
109	98	267
110	908	93
111	817	323
112	526	705
113	324	156
114	669	802
115	686	483
116	553	710
117	659	252
118	860	433
119	303	349
120	566	241
121	135	779
122	908	3
123	898	206
124	618	963
125	187	294
126	644	187
127	305	81
128	558	812
129	634	411
130	974	890
131	228	786
132	385	661
133	554	719
134	246	259
135	215	176
136	284	620
137	642	595
138	872	880
139	903	811
140	496	627
141	248	508
142	538	91
143	909	389
144	883	737
145	228	647
146	280	254
147	659	745
148	214	247
149	878	316
150	164	77
151	789	860
152	996	125
153	560	597
154	549	601
155	38	19
156	293	546
157	538	429
158	1	812
159	165	619
160	135	860
161	902	239
162	929	349
163	14	419
164	123	604
165	597	279
166	356	647
167	226	706
168	130	792
169	262	83
170	596	553
171	131	940
172	320	829
173	371	834
174	259	152
175	92	245
176	227	728
177	170	415
178	318	311
179	439	776
180	294	81
181	840	209
182	845	449
183	441	969
184	590	48
185	21	32
186	131	681
187	708	759
188	40	800
189	943	696
190	303	66
191	994	549
192	608	519
193	836	9
194	753	160
195	964	110
196	390	665
197	666	667
198	520	637
199	163	470
200	639	901
201	93	303
202	165	242
203	208	424
204	681	403
205	600	382
206	19	564
207	522	160
208	19	623
209	362	600
210	391	377
211	299	980
212	55	376
213	364	324
214	754	945
215	912	257
216	282	698
217	768	81
218	273	264
219	451	324
220	113	416
221	384	538
222	309	267
223	946	356
224	798	173
225	283	703
226	599	123
227	887	364
228	500	432
229	882	621
230	733	391
231	999	695
232	747	403
233	86	861
234	55	6
235	547	403
236	140	885
237	550	268
238	822	677
239	110	417
240	69	221
241	590	639
242	307	324
243	73	191
244	468	518
245	781	832
246	936	597
247	130	359
248	60	462
249	762	557
250	728	922
251	760	396
252	956	777
253	129	572
254	741	660
255	981	172
256	570	985
257	186	231
258	839	752
259	893	413
260	796	70
261	212	580
262	145	491
263	313	994
264	351	674
265	596	982
266	505	784
267	161	139
268	759	811
269	247	901
270	665	217
271	741	997
272	372	888
273	346	31
274	105	332
275	973	710
276	931	753
277	493	170
278	46	333
279	279	950
280	379	440
281	591	910
282	449	762
283	155	24
284	423	729
285	813	682
286	879	206
287	612	916
288	191	846
289	95	825
290	761	937
291	446	473
292	200	958
293	483	370
294	533	760
295	246	102
296	378	651
297	550	367
298	565	459
299	887	206
300	982	505
301	851	701
302	124	859
303	325	164
304	719	595
305	249	265
306	937	0
307	572	510
308	101	717
309	51	485
310	394	781
311	392	37
312	462	894
313	212	921
314	778	443
315	484	914
316	508	568
317	541	538
318	66	211
319	961	798
320	526	973
321	305	714
322	238	887
323	776	672
324	470	841
325	772	759
326	314	514
327	381	208
328	621	930
329	794	360
330	786	463
331	973	5
332	635	58
333	738	859
334	883	336
335	544	631
336	329	968
337	842	747
338	296	850
339	245	93
340	343	454
341	815	706
342	680	348
343	888	977
344	69	950
345	598	674
346	695	791
347	508	371
348	328	179
349	481	219
350	798	142
351	935	58
352	916	557
353	29	650
354	178	104
355	526	358
356	623	895
357	41	997
358	223	401
359	824	291
360	248	383
361	695	478
362	955	716
363	44	140
364	539	481
365	348	664
366	710	210
367	400	679
368	681	455
369	751	679
370	31	22
371	517	671
372	144	243
373	22	595
374	862	943
375	93	886
376	300	60
377	821	920
378	474	356
379	562	735
380	731	248
381	517	638
382	572	604
383	614	633
384	771	246
385	914	372
386	93	832
387	182	6
388	458	981
389	121	608
390	112	704
391	839	419
392	55	126
393	193	313
394	261	720
395	613	100
396	564	36
397	858	465
398	968	891
399	213	887
400	73	37
401	835	243
DEMAND_SECTION
1	0
2	2
3	6
4	4
5	6
6	7
7	4
8	7
9	8
10	6
11	7
12	6
13	8
14	6
15	4
16	4
17	5
18	1
19	2
20	4
21	4
22	4
23	9
24	9
25	4
26	9
27	5
28	1
29	7
30	9
31	7
32	4
33	9
34	3
35	9
36	9
37	9
38	3
39	6
40	7
41	6
42	9
43	6
44	9
45	3
46	1
47	3
48	1
49	3
50	1
51	9
52	1
53	5
54	5
55	4
56	6
57	3
58	5
59	1
60	6
61	6
62	8
63	8
64	2
65	3
66	9
67	8
68	9
69	2
70	4
71	3
72	9
73	8
74	2
75	7
76	1
77	9
78	5
79	7
80	7
81	2
82	4
83	1
84	8
85	2
86	8
87	2
88	6
89	6
90	7
91	8
92	8
93	9
94	5
95	6
96	9
97	7
98	9
99	6
100	9
101	9
102	5
103	6
104	3
105	2
106	2
107	8
108	8
109	1
110	7
111	4
112	3
113	2
114	2
115	1
116	8
117	8
118	1
119	4
120	7
121	5
122	9
123	2
124	5
125	6
126	5
127	3
128	7
129	4
130	3
131	3
132	4
133	1
134	1
135	7
136	5
137	4
138	1
139	1
140	9
141	9
142	3
143	5
144	5
145	9
146	6
147	9
148	3
149	7
150	7
151	1
152	2
153	6
154	4
155	4
156	5
157	2
158	3
159	5
160	9
161	2
162	4
163	1
164	8
165	9
166	3
167	2
168	7
169	9
170	3
171	9
172	2
173	8
174	5
175	5
176	3
177	5
178	8
179	4
180	5
181	8
182	1
183	5
184	5
185	9
186	8
187	9
188	6
189	7
190	3
191	9
192	9
193	9
194	1
195	1
196	2
197	1
198	6
199	9
200	4
201	1
202	5
203	3
204	2
205	9
206	5
207	2
208	7
209	2
210	3
211	4
212	1
213	5
214	6
215	4
216	9
217	8
218	9
219	9
220	3
221	6
222	4
223	8
224	7
225	4
226	6
227	6
228	5
229	4
230	3
231	2
232	7
233	1
234	1
235	7
236	4
237	9
238	4
239	4
240	8
241	5
242	9
243	7
244	7
245	8
246	3
247	6
248	5
249	1
250	6
251	7
252	7
253	9
254	6
255	3
256	4
257	8
258	4
259	6
260	2
261	2
262	1
263	5
264	4
265	4
266	5
267	4
268	6
269	9
270	2
271	4
272	1
273	7
274	5
275	8
276	7
277	6
278	7
279	1
280	8
281	8
282	2
283	1
284	3
285	7
286	7
287	8
288	5
289	4
290	4
291	6
292	2
293	1
294	2
295	3
296	6
297	5
298	3
299	7
300	5
301	2
302	1
303	8
304	9
305	3
306	9
307	6
308	4
309	3
310	3
311	7
312	9
313	2
314	5
315	2
316	4
317	8
318	4
319	1
320	8
321	4
322	1
323	9
324	4
325	8
326	5
327	2
328	7
329	5
330	4
331	7
332	7
333	5
334	3
335	8
336	4
337	2
338	1
339	7
340	2
341	6
342	5
343	7
344	4
345	2
346	8
347	8
348	9
349	1
350	1
351	3
352	7
353	2
354	6
355	2
356	8
357	4
358	4
359	3
360	5
361	6
362	5
363	7
364	9
365	1
366	7
367	8
368	7
369	6
370	5
371	8
372	4
373	7
374	4
375	8
376	9
377	5
378	9
379	3
380	7
381	7
382	6
383	8
384	9
385	3
386	3
387	1
388	9
389	2
390	8
391	6
392	8
393	6
394	7
395	3
396	8
397	8
398	5
399	4
400	4
401	6
DEPOT_SECTION
1
-1
EOF
