NAME : n401-0001
COMMENT : "Generated by pyvrp_manuel (CVRP)"
TYPE : CVRP
DIMENSION : 401
EDGE_WEIGHT_TYPE : EUC_2D
CAPACITY : 100
NODE_COORD_SECTION
1	496	768
2	970	837
3	282	374
4	24	491
5	123	114
6	472	575
7	295	797
8	196	954
9	843	78
10	376	523
11	573	619
12	696	530
13	256	737
14	20	204
15	375	256
16	325	90
17	394	607
18	174	474
19	858	449
20	514	457
21	601	818
22	974	818
23	975	464
24	51	263
25	840	497
26	251	117
27	32	78
28	399	774
29	770	18
30	812	109
31	394	297
32	404	402
33	51	68
34	422	506
35	273	688
36	50	466
37	940	296
38	952	681
39	49	816
40	442	277
41	900	96
42	554	395
43	857	640
44	740	677
45	380	395
46	88	771
47	897	842
48	147	522
49	148	225
50	209	671
51	202	489
52	521	822
53	122	157
54	210	850
55	320	922
56	681	563
57	496	401
58	563	386
59	496	564
60	109	238
61	904	94
62	464	995
63	681	514
64	67	748
65	144	358
66	332	426
67	505	912
68	562	948
69	806	184
70	724	147
71	288	647
72	665	875
73	339	501
74	757	16
75	861	87
76	507	415
77	237	566
78	913	354
79	203	315
80	4	726
81	260	166
82	212	787
83	765	884
84	681	333
85	360	648
86	911	636
87	263	265
88	27	608
89	219	54
90	938	175
91	443	643
92	516	164
93	96	899
94	581	915
95	332	647
96	386	478
97	195	669
98	658	490
99	388	192
100	846	128
101	705	332
102	259	590
103	240	615
104	598	129
105	583	713
106	698	437
107	90	423
108	674	318
109	690	833
110	239	505
111	707	539
112	542	562
113	107	539
114	846	951
115	794	567
116	734	257
117	86	70
118	999	817
119	154	696
120	878	1000
121	937	887
122	385	325
123	911	780
124	199	950
125	742	773
126	187	643
127	325	891
128	410	695
129	589	713
130	330	744
131	151	613
132	162	7
133	98	895
134	771	969
135	901	53
136	159	419
137	175	847
138	122	256
139	17	216
140	911	909
141	858	886
142	945	372
143	720	945
144	665	1000
145	759	811
146	325	740
147	557	381
148	218	219
149	115	836
150	855	443
151	211	886
152	820	537
153	264	960
154	704	120
155	979	880
156	318	781
157	216	422
158	925	521
159	146	333
160	364	404
161	548	962
162	527	191
163	526	740
164	748	43
165	411	128
166	287	680
167	145	686
168	924	533
169	167	321
170	609	119
171	748	46
172	19	14
173	399	836
174	27	916
175	300	646
176	523	49
177	915	769
178	997	753
179	170	917
180	527	737
181	99	356
182	9	305
183	608	107
184	659	768
185	570	165
186	112	346
187	719	993
188	788	444
189	675	9
190	73	733
191	217	741
192	147	252
193	88	761
194	449	885
195	809	777
196	516	345
197	391	566
198	748	150
199	920	446
200	81	229
201	942	957
202	37	853
203	751	796
204	923	231
205	658	705
206	352	667
207	356	809
208	361	314
209	626	677
210	256	544
211	790	450
212	652	379
213	675	138
214	206	246
215	960	365
216	499	258
217	999	988
218	123	95
219	121	498
220	373	173
221	321	594
222	239	611
223	385	258
224	569	911
225	162	523
226	316	991
227	26	21
228	993	184
229	596	457
230	395	388
231	818	524
232	13	205
233	330	752
234	176	971
235	389	410
236	892	751
237	924	789
238	348	168
239	463	914
240	332	36
241	705	987
242	358	86
243	46	625
244	462	248
245	601	690
246	898	888
247	425	59
248	48	967
249	721	718
250	67	963
251	974	951
252	78	311
253	156	973
254	285	272
255	762	269
256	254	456
257	452	111
258	917	279
259	677	935
260	752	571
261	925	567
262	269	973
263	618	12
264	358	159
265	938	417
266	44	469
267	814	630
268	658	546
269	686	378
270	301	33
271	123	717
272	204	572
273	660	535
274	176	978
275	209	911
276	102	380
277	772	296
278	920	156
279	80	275
280	581	960
281	261	679
282	375	392
283	868	113
284	553	970
285	431	888
286	346	902
287	16	428
288	412	662
289	696	884
290	426	480
291	842	365
292	938	167
293	446	473
294	723	842
295	421	86
296	748	650
297	701	192
298	822	974
299	543	33
300	851	129
301	615	573
302	266	674
303	53	614
304	183	446
305	564	926
306	261	820
307	436	263
308	65	41
309	988	375
310	525	636
311	840	927
312	906	130
313	420	204
314	214	619
315	969	99
316	803	241
317	403	897
318	387	546
319	150	926
320	435	134
321	646	144
322	103	530
323	896	359
324	735	930
325	832	238
326	445	343
327	98	500
328	876	921
329	547	614
330	284	877
331	292	153
332	577	800
333	49	952
334	680	150
335	392	934
336	116	354
337	664	62
338	774	760
339	810	181
340	998	204
341	999	20
342	55	807
343	552	529
344	223	290
345	354	13
346	526	588
347	500	661
348	974	633
349	317	294
350	180	153
351	419	412
352	722	286
353	899	149
354	501	949
355	997	210
356	589	559
357	266	327
358	635	152
359	582	716
360	303	915
361	467	727
362	995	347
363	772	357
364	427	415
365	497	311
366	617	519
367	817	399
368	550	314
369	81	702
370	564	300
371	331	631
372	410	827
373	528	689
374	718	377
375	716	869
376	523	598
377	518	846
378	289	234
379	718	65
380	508	270
381	830	34
382	803	995
383	601	467
384	992	286
385	460	281
386	431	609
387	567	406
388	0	526
389	485	575
390	883	986
391	203	469
392	300	39
393	136	969
394	792	769
395	778	103
396	553	965
397	221	945
398	631	852
399	286	731
400	57	468
401	667	650
DEMAND_SECTION
1	0
2	6
3	1
4	4
5	4
6	8
7	4
8	6
9	3
10	5
11	8
12	7
13	9
14	9
15	2
16	7
17	8
18	8
19	9
20	2
21	6
22	9
23	5
24	4
25	1
26	4
27	6
28	1
29	3
30	4
31	9
32	2
33	4
34	4
35	4
36	8
37	1
38	2
39	1
40	5
41	8
42	4
43	3
44	8
45	3
46	1
47	1
48	5
49	6
50	6
51	7
52	9
53	5
54	2
55	5
56	9
57	2
58	2
59	8
60	4
61	7
62	8
63	3
64	1
65	4
66	6
67	5
68	5
69	7
70	5
71	5
72	4
73	5
74	5
75	9
76	5
77	4
78	8
79	6
80	6
81	1
82	2
83	6
84	4
85	1
86	6
87	1
88	2
89	3
90	5
91	3
92	1
93	4
94	3
95	1
96	8
97	6
98	1
99	3
100	8
101	3
102	3
103	4
104	4
105	3
106	4
107	5
108	2
109	3
110	2
111	5
112	7
113	9
114	3
115	4
116	1
117	1
118	7
119	1
120	7
121	4
122	4
123	9
124	9
125	9
126	3
127	4
128	3
129	1
130	9
131	9
132	4
133	9
134	3
135	9
136	5
137	4
138	1
139	5
140	4
141	7
142	9
143	1
144	9
145	6
146	1
147	7
148	6
149	4
150	2
151	9
152	1
153	5
154	7
155	6
156	8
157	9
158	9
159	3
160	9
161	7
162	7
163	2
164	7
165	9
166	9
167	4
168	3
169	4
170	7
171	4
172	7
173	6
174	8
175	1
176	9
177	5
178	7
179	6
180	9
181	3
182	4
183	8
184	6
185	4
186	5
187	6
188	4
189	4
190	8
191	8
192	4
193	3
194	4
195	8
196	8
197	6
198	2
199	3
200	3
201	9
202	2
203	6
204	9
205	5
206	1
207	3
208	6
209	6
210	1
211	9
212	2
213	2
214	1
215	4
216	9
217	9
218	5
219	5
220	1
221	4
222	8
223	4
224	3
225	2
226	2
227	3
228	2
229	5
230	3
231	6
232	6
233	6
234	3
235	6
236	8
237	8
238	7
239	2
240	7
241	8
242	3
243	4
244	2
245	6
246	3
247	1
248	2
249	1
250	7
251	1
252	5
253	9
254	5
255	4
256	4
257	9
258	9
259	8
260	1
261	4
262	9
263	8
264	8
265	2
266	9
267	5
268	8
269	1
270	5
271	1
272	7
273	5
274	3
275	5
276	7
277	4
278	4
279	8
280	9
281	6
282	1
283	9
284	6
285	5
286	8
287	5
288	2
289	4
290	4
291	3
292	6
293	3
294	4
295	6
296	8
297	3
298	8
299	2
300	7
301	6
302	1
303	1
304	4
305	2
306	7
307	7
308	8
309	9
310	9
311	8
312	1
313	9
314	7
315	9
316	9
317	4
318	7
319	2
320	8
321	5
322	3
323	1
324	9
325	3
326	8
327	9
328	5
329	5
330	2
331	8
332	7
333	5
334	2
335	6
336	8
337	2
338	4
339	6
340	8
341	4
342	7
343	7
344	8
345	2
346	7
347	1
348	4
349	9
350	5
351	2
352	5
353	6
354	1
355	4
356	2
357	5
358	5
359	5
360	1
361	1
362	9
363	5
364	7
365	4
366	4
367	3
368	2
369	3
370	2
371	4
372	5
373	2
374	2
375	1
376	8
377	9
378	5
379	4
380	6
381	7
382	4
383	3
384	9
385	2
386	5
387	1
388	9
389	4
390	6
391	6
392	2
393	8
394	9
395	7
396	5
397	8
398	4
399	6
400	4
401	7
DEPOT_SECTION
1
-1
EOF
