NAME : n401-0008
COMMENT : "Generated by pyvrp_manuel (CVRP)"
TYPE : CVRP
DIMENSION : 401
EDGE_WEIGHT_TYPE : EUC_2D
CAPACITY : 100
NODE_COORD_SECTION
1	294	519
2	298	83
3	224	872
4	250	101
5	610	189
6	479	183
7	606	418
8	566	731
9	178	330
10	167	916
11	321	688
12	615	7
13	145	372
14	117	765
15	814	499
16	561	632
17	666	403
18	303	191
19	520	895
20	438	930
21	675	243
22	694	700
23	277	412
24	448	677
25	890	390
26	825	770
27	67	866
28	480	886
29	889	16
30	84	443
31	661	420
32	19	772
33	214	727
34	853	331
35	801	566
36	343	532
37	680	756
38	213	874
39	264	69
40	284	57
41	640	534
42	476	162
43	764	582
44	375	589
45	676	200
46	356	273
47	943	624
48	123	853
49	421	534
50	565	442
51	973	717
52	608	318
53	615	136
54	327	754
55	8	487
56	316	755
57	188	587
58	356	919
59	425	135
60	345	852
61	691	607
62	812	693
63	436	235
64	22	740
65	890	309
66	275	586
67	454	884
68	491	485
69	35	653
70	502	618
71	806	713
72	501	461
73	247	952
74	916	498
75	999	939
76	787	757
77	698	412
78	550	907
79	416	656
80	339	582
81	790	811
82	745	738
83	380	955
84	851	973
85	96	273
86	85	544
87	882	158
88	631	490
89	34	480
90	441	257
91	188	796
92	449	401
93	361	436
94	362	200
95	713	493
96	53	249
97	398	309
98	618	968
99	139	493
100	934	209
101	110	633
102	494	493
103	814	72
104	201	847
105	149	433
106	732	227
107	112	201
108	128	72
109	418	36
110	196	537
111	966	993
112	918	555
113	811	344
114	179	751
115	697	676
116	733	374
117	868	772
118	282	867
119	680	517
120	508	930
121	516	676
122	865	527
123	953	204
124	451	540
125	527	137
126	977	219
127	861	301
128	699	224
129	282	632
130	844	460
131	688	224
132	658	444
133	386	746
134	334	195
135	358	749
136	979	952
137	849	191
138	947	704
139	589	210
140	234	629
141	456	359
142	118	926
143	655	566
144	547	769
145	198	480
146	941	422
147	72	202
148	810	763
149	845	323
150	268	58
151	534	392
152	974	275
153	182	703
154	318	454
155	999	812
156	2	524
157	516	989
158	68	808
159	9	8
160	244	22
161	469	904
162	361	121
163	457	93
164	839	572
165	943	712
166	679	668
167	964	187
168	194	885
169	681	958
170	617	681
171	808	826
172	774	108
173	645	158
174	565	774
175	333	934
176	945	644
177	138	510
178	889	590
179	936	536
180	268	826
181	665	776
182	201	121
183	835	675
184	866	83
185	270	484
186	240	812
187	897	933
188	570	46
189	321	616
190	365	714
191	366	913
192	933	995
193	666	162
194	371	233
195	725	456
196	700	645
197	347	569
198	423	587
199	169	509
200	881	759
201	189	917
202	309	947
203	398	982
204	794	459
205	837	925
206	109	590
207	842	448
208	816	890
209	103	773
210	41	813
211	224	344
212	622	69
213	483	325
214	658	470
215	46	377
216	578	774
217	215	196
218	725	200
219	302	0
220	380	101
221	578	905
222	722	83
223	948	53
224	308	781
225	737	776
226	381	62
227	10	541
228	16	170
229	827	423
230	675	107
231	579	951
232	591	588
233	191	138
234	791	52
235	469	99
236	535	10
237	666	501
238	171	314
239	300	276
240	375	592
241	212	626
242	88	971
243	200	713
244	158	159
245	427	215
246	360	283
247	360	113
248	988	782
249	321	863
250	277	92
251	660	328
252	876	365
253	93	922
254	612	652
255	452	102
256	661	501
257	169	785
258	32	190
259	383	31
260	50	350
261	406	867
262	733	965
263	655	567
264	404	289
265	52	43
266	713	184
267	295	734
268	191	685
269	472	603
270	272	865
271	91	33
272	890	162
273	980	722
274	693	438
275	594	628
276	265	868
277	807	529
278	643	439
279	319	115
280	308	21
281	343	762
282	985	42
283	84	913
284	324	501
285	814	943
286	689	624
287	488	513
288	702	30
289	16	837
290	11	763
291	862	832
292	653	556
293	731	798
294	516	140
295	811	556
296	801	165
297	375	179
298	529	925
299	595	925
300	867	156
301	980	528
302	919	597
303	415	924
304	130	511
305	430	523
306	357	897
307	474	707
308	715	956
309	680	2
310	85	28
311	10	84
312	493	973
313	176	710
314	272	887
315	825	732
316	940	123
317	75	245
318	601	942
319	830	656
320	411	216
321	997	62
322	155	794
323	890	631
324	491	441
325	565	248
326	994	999
327	306	847
328	381	137
329	586	404
330	916	535
331	390	103
332	827	834
333	570	456
334	332	616
335	980	418
336	546	24
337	628	286
338	381	235
339	963	840
340	285	377
341	652	688
342	265	703
343	579	787
344	230	177
345	732	480
346	282	892
347	444	166
348	429	268
349	327	88
350	899	940
351	78	813
352	646	297
353	353	585
354	606	924
355	978	529
356	970	204
357	504	87
358	740	600
359	197	118
360	401	311
361	296	65
362	181	915
363	254	704
364	534	432
365	664	876
366	656	554
367	906	541
368	610	988
369	138	863
370	260	474
371	211	830
372	98	278
373	586	309
374	554	959
375	58	175
376	111	978
377	621	139
378	65	871
379	959	197
380	628	376
381	797	220
382	841	999
383	803	414
384	565	716
385	212	267
386	11	853
387	268	930
388	402	315
389	755	451
390	161	554
391	267	138
392	185	674
393	542	297
394	678	343
395	114	672
396	330	352
397	859	874
398	11	929
399	947	139
400	1	110
401	367	478
DEMAND_SECTION
1	0
2	9
3	7
4	9
5	4
6	7
7	5
8	1
9	7
10	7
11	4
12	5
13	9
14	7
15	1
16	1
17	4
18	6
19	8
20	1
21	9
22	1
23	2
24	5
25	1
26	3
27	5
28	9
29	3
30	3
31	8
32	7
33	4
34	3
35	7
36	6
37	5
38	4
39	4
40	8
41	5
42	5
43	6
44	5
45	2
46	2
47	8
48	1
49	1
50	6
51	8
52	1
53	6
54	3
55	1
56	8
57	6
58	1
59	4
60	6
61	4
62	3
63	3
64	1
65	9
66	4
67	7
68	5
69	4
70	5
71	2
72	1
73	2
74	2
75	8
76	3
77	8
78	1
79	2
80	9
81	1
82	4
83	6
84	2
85	3
86	2
87	5
88	8
89	9
90	5
91	5
92	7
93	6
94	2
95	1
96	2
97	1
98	4
99	6
100	6
101	7
102	3
103	6
104	8
105	6
106	9
107	2
108	6
109	9
110	2
111	5
112	1
113	3
114	1
115	8
116	4
117	9
118	8
119	8
120	9
121	2
122	9
123	1
124	8
125	8
126	7
127	6
128	9
129	6
130	5
131	1
132	2
133	9
134	1
135	4
136	8
137	4
138	8
139	6
140	4
141	9
142	4
143	2
144	4
145	4
146	1
147	8
148	3
149	1
150	7
151	7
152	8
153	8
154	2
155	3
156	9
157	6
158	2
159	8
160	4
161	2
162	7
163	9
164	3
165	8
166	9
167	7
168	9
169	6
170	1
171	1
172	5
173	7
174	1
175	5
176	3
177	3
178	5
179	8
180	2
181	7
182	5
183	7
184	9
185	7
186	3
187	8
188	5
189	1
190	2
191	7
192	5
193	1
194	1
195	3
196	8
197	7
198	7
199	8
200	8
201	1
202	5
203	2
204	5
205	6
206	1
207	7
208	5
209	5
210	2
211	8
212	1
213	2
214	3
215	9
216	8
217	9
218	1
219	1
220	1
221	3
222	7
223	9
224	4
225	8
226	4
227	4
228	6
229	6
230	5
231	9
232	3
233	9
234	6
235	8
236	6
237	5
238	5
239	8
240	9
241	9
242	6
243	7
244	7
245	4
246	7
247	1
248	6
249	7
250	6
251	5
252	4
253	1
254	6
255	2
256	6
257	2
258	2
259	9
260	8
261	4
262	6
263	3
264	7
265	4
266	9
267	5
268	9
269	1
270	9
271	5
272	1
273	6
274	6
275	3
276	5
277	9
278	9
279	5
280	2
281	9
282	9
283	9
284	4
285	4
286	3
287	6
288	8
289	6
290	9
291	8
292	1
293	3
294	8
295	4
296	6
297	2
298	6
299	2
300	2
301	3
302	5
303	4
304	2
305	2
306	3
307	9
308	2
309	8
310	9
311	3
312	7
313	6
314	2
315	7
316	3
317	6
318	7
319	2
320	6
321	9
322	5
323	7
324	6
325	7
326	1
327	3
328	6
329	7
330	3
331	2
332	5
333	9
334	9
335	4
336	8
337	3
338	2
339	2
340	2
341	7
342	4
343	7
344	6
345	5
346	3
347	8
348	9
349	9
350	1
351	8
352	9
353	9
354	8
355	5
356	7
357	7
358	9
359	4
360	8
361	9
362	5
363	3
364	4
365	1
366	5
367	9
368	1
369	5
370	3
371	7
372	3
373	3
374	3
375	8
376	7
377	7
378	1
379	3
380	2
381	5
382	7
383	4
384	9
385	8
386	6
387	1
388	3
389	2
390	1
391	6
392	8
393	4
394	5
395	5
396	8
397	2
398	8
399	8
400	9
401	6
DEPOT_SECTION
1
-1
EOF
