NAME : n101-0008
COMMENT : "Generated by pyvrp_manuel (VRPTW)"
TYPE : VRPTW
DIMENSION : 101
EDGE_WEIGHT_TYPE : EUC_2D
CAPACITY : 50
VEHICLES : 100
SERVICE_TIME : 200
NODE_COORD_SECTION
1	782	992
2	117	840
3	333	109
4	480	725
5	834	360
6	275	917
7	752	917
8	238	736
9	351	512
10	850	475
11	348	649
12	179	739
13	220	924
14	876	379
15	708	321
16	66	312
17	893	561
18	592	765
19	825	114
20	68	509
21	361	425
22	260	691
23	735	619
24	570	98
25	456	898
26	841	661
27	499	810
28	564	652
29	875	913
30	329	763
31	199	282
32	797	661
33	36	229
34	37	631
35	464	362
36	318	270
37	867	646
38	947	780
39	977	871
40	672	406
41	887	188
42	271	82
43	379	855
44	385	85
45	502	395
46	745	71
47	745	366
48	151	256
49	891	318
50	851	538
51	331	936
52	588	722
53	229	291
54	337	228
55	572	783
56	245	503
57	72	167
58	914	736
59	226	711
60	208	459
61	173	160
62	820	387
63	499	463
64	238	568
65	572	288
66	560	148
67	598	929
68	565	7
69	123	630
70	972	221
71	125	666
72	492	270
73	667	632
74	747	22
75	752	518
76	728	223
77	323	127
78	154	966
79	705	404
80	808	968
81	700	517
82	28	801
83	850	839
84	492	448
85	994	572
86	167	940
87	322	898
88	74	467
89	171	937
90	809	730
91	952	29
92	363	915
93	290	284
94	842	251
95	770	775
96	209	270
97	317	993
98	195	169
99	76	748
100	419	655
101	742	847
DEMAND_SECTION
1	0
2	7
3	4
4	9
5	4
6	8
7	3
8	2
9	8
10	3
11	8
12	4
13	1
14	5
15	6
16	7
17	2
18	4
19	9
20	2
21	3
22	2
23	9
24	2
25	5
26	3
27	9
28	2
29	7
30	7
31	1
32	3
33	6
34	3
35	6
36	4
37	1
38	6
39	8
40	4
41	9
42	9
43	8
44	2
45	1
46	7
47	6
48	3
49	9
50	1
51	9
52	1
53	3
54	1
55	9
56	7
57	3
58	2
59	9
60	1
61	8
62	3
63	9
64	8
65	4
66	5
67	4
68	4
69	6
70	3
71	8
72	4
73	3
74	3
75	4
76	5
77	5
78	4
79	2
80	2
81	8
82	2
83	2
84	5
85	4
86	3
87	9
88	6
89	7
90	5
91	4
92	3
93	2
94	6
95	5
96	7
97	3
98	9
99	4
100	3
101	2
TIME_WINDOW_SECTION
1	0	3000
2	350	2041
3	934	1328
4	693	991
5	1295	2020
6	1056	1949
7	2001	3000
8	371	1509
9	897	1964
10	257	1567
11	926	1986
12	1446	2272
13	958	1649
14	838	1240
15	1427	2154
16	1261	1672
17	1595	2486
18	447	1329
19	1550	2064
20	1294	2312
21	277	1981
22	1182	2778
23	790	1390
24	112	2021
25	1395	2334
26	1500	1769
27	1621	3000
28	0	1445
29	0	422
30	1393	1929
31	573	2071
32	1722	2249
33	667	2195
34	133	1819
35	1309	2037
36	1208	1507
37	0	1459
38	1032	2796
39	1859	3000
40	0	1641
41	1611	2071
42	1056	2164
43	740	1726
44	1344	1731
45	383	1739
46	957	2302
47	1313	2327
48	353	1954
49	1370	1910
50	1373	3000
51	1312	2369
52	1248	2791
53	1593	1847
54	2	1971
55	1999	2905
56	363	1408
57	1170	1753
58	1661	3000
59	431	1820
60	1564	2281
61	861	2332
62	989	2920
63	1244	2626
64	1414	2733
65	820	1275
66	415	1554
67	1093	2983
68	526	1627
69	288	1580
70	528	2207
71	1470	2110
72	982	2152
73	27	1086
74	1229	2417
75	1069	2660
76	420	1642
77	16	1980
78	1286	1490
79	289	2028
80	639	2141
81	351	2243
82	1837	2077
83	441	1088
84	592	1899
85	998	2155
86	1647	2538
87	1471	2409
88	1457	1694
89	0	1865
90	719	1180
91	886	2307
92	0	1544
93	862	2415
94	575	1457
95	1493	2753
96	921	1507
97	14	1854
98	250	1877
99	1315	2472
100	1675	1915
101	992	2770
DEPOT_SECTION
1
-1
EOF
