NAME : n101-0007
COMMENT : "Generated by pyvrp_manuel (VRPTW)"
TYPE : VRPTW
DIMENSION : 101
EDGE_WEIGHT_TYPE : EUC_2D
CAPACITY : 50
VEHICLES : 100
SERVICE_TIME : 200
NODE_COORD_SECTION
1	520	647
2	400	774
3	156	106
4	799	671
5	936	513
6	582	698
7	803	47
8	346	819
9	127	50
10	706	735
11	593	712
12	958	716
13	368	801
14	92	930
15	596	708
16	57	213
17	257	377
18	612	915
19	366	358
20	803	509
21	734	358
22	243	999
23	32	299
24	12	703
25	33	148
26	649	472
27	538	6
28	689	337
29	375	131
30	101	993
31	634	895
32	176	598
33	458	965
34	513	732
35	506	771
36	113	545
37	527	77
38	943	118
39	473	85
40	472	578
41	943	432
42	574	785
43	712	936
44	516	14
45	951	783
46	507	900
47	376	582
48	1	423
49	535	474
50	745	554
51	824	106
52	387	746
53	733	365
54	94	132
55	362	285
56	608	937
57	696	791
58	974	994
59	967	315
60	107	556
61	962	457
62	270	228
63	797	114
64	656	18
65	890	160
66	883	875
67	595	281
68	77	199
69	314	902
70	42	174
71	750	994
72	434	592
73	354	248
74	561	478
75	847	268
76	446	758
77	491	530
78	902	183
79	117	502
80	174	223
81	229	260
82	744	684
83	807	321
84	522	234
85	306	555
86	507	341
87	761	836
88	430	577
89	166	448
90	275	132
91	264	21
92	255	385
93	366	169
94	773	131
95	777	387
96	258	632
97	468	30
98	227	358
99	881	526
100	828	735
101	78	453
DEMAND_SECTION
1	0
2	4
3	7
4	7
5	1
6	6
7	5
8	6
9	7
10	7
11	4
12	4
13	8
14	5
15	1
16	7
17	7
18	5
19	1
20	3
21	8
22	3
23	5
24	1
25	1
26	2
27	4
28	8
29	5
30	1
31	8
32	9
33	1
34	5
35	5
36	1
37	6
38	6
39	6
40	7
41	7
42	5
43	9
44	8
45	9
46	5
47	6
48	2
49	3
50	7
51	3
52	9
53	2
54	3
55	6
56	2
57	5
58	7
59	7
60	5
61	1
62	6
63	5
64	7
65	1
66	5
67	4
68	6
69	1
70	2
71	4
72	3
73	5
74	6
75	5
76	2
77	4
78	7
79	4
80	2
81	9
82	9
83	8
84	7
85	3
86	8
87	3
88	9
89	7
90	4
91	7
92	9
93	7
94	6
95	4
96	3
97	2
98	2
99	2
100	5
101	6
TIME_WINDOW_SECTION
1	0	3000
2	769	1088
3	523	1322
4	439	657
5	356	2208
6	404	1212
7	0	1674
8	69	685
9	993	1442
10	108	1541
11	1712	2242
12	1739	2459
13	1161	1973
14	498	2145
15	1448	2161
16	669	2113
17	760	1527
18	1178	2639
19	1621	2145
20	1898	2667
21	14	1701
22	1184	1410
23	722	1804
24	1473	2399
25	982	2980
26	964	1637
27	905	1328
28	272	1951
29	230	1837
30	356	1619
31	1480	3000
32	342	1727
33	309	1225
34	235	530
35	729	1991
36	108	1997
37	297	1120
38	1229	1751
39	959	2879
40	368	1058
41	1845	2141
42	154	1355
43	0	1494
44	446	1677
45	913	2846
46	0	1186
47	248	1682
48	0	1499
49	202	2137
50	573	2397
51	842	1753
52	1925	3000
53	1847	2801
54	1354	1866
55	203	1737
56	1749	3000
57	405	1154
58	666	1719
59	582	842
60	954	2783
61	1092	2224
62	732	1449
63	1435	2419
64	1174	2000
65	1517	2323
66	0	1388
67	321	599
68	1775	2290
69	1211	2898
70	1337	1815
71	1245	2034
72	187	1594
73	1316	2272
74	41	1223
75	591	1683
76	1757	2563
77	2117	2577
78	455	779
79	1245	2323
80	449	1266
81	1145	1763
82	1047	1665
83	430	2089
84	1008	1998
85	1605	1831
86	1034	1349
87	1850	2500
88	807	1687
89	1868	2427
90	1114	1382
91	854	2023
92	1571	1960
93	976	1306
94	805	2297
95	0	946
96	1529	2263
97	575	1945
98	1285	1722
99	0	1459
100	299	1933
101	373	593
DEPOT_SECTION
1
-1
EOF
