NAME : n101-0030
COMMENT : "Generated by pyvrp_manuel (VRPTW)"
TYPE : VRPTW
DIMENSION : 101
EDGE_WEIGHT_TYPE : EUC_2D
CAPACITY : 50
VEHICLES : 100
SERVICE_TIME : 200
NODE_COORD_SECTION
1	627	712
2	778	73
3	968	312
4	950	998
5	839	484
6	668	444
7	640	88
8	262	938
9	933	8
10	281	21
11	507	179
12	410	68
13	401	18
14	496	793
15	652	208
16	322	681
17	215	514
18	591	579
19	492	1
20	647	374
21	133	873
22	306	532
23	809	515
24	484	652
25	346	477
26	883	902
27	307	844
28	253	973
29	106	36
30	752	481
31	37	291
32	566	408
33	893	534
34	52	93
35	510	794
36	197	806
37	281	249
38	409	356
39	19	636
40	621	7
41	186	793
42	958	340
43	746	487
44	937	893
45	175	710
46	981	81
47	563	383
48	438	203
49	879	967
50	459	662
51	367	170
52	343	547
53	167	702
54	481	741
55	532	661
56	127	583
57	33	600
58	18	295
59	705	743
60	40	571
61	839	465
62	291	868
63	400	138
64	162	946
65	495	315
66	489	534
67	655	876
68	76	854
69	328	376
70	922	413
71	727	584
72	179	878
73	294	282
74	722	212
75	636	53
76	294	344
77	935	180
78	259	411
79	361	733
80	922	453
81	897	708
82	916	397
83	997	497
84	152	866
85	359	90
86	307	4
87	878	98
88	113	6
89	5	347
90	515	486
91	534	200
92	767	499
93	428	171
94	575	923
95	142	605
96	80	558
97	171	759
98	529	547
99	380	918
100	443	311
101	990	21
DEMAND_SECTION
1	0
2	2
3	7
4	6
5	6
6	4
7	7
8	5
9	2
10	5
11	4
12	9
13	7
14	9
15	3
16	2
17	7
18	8
19	4
20	8
21	7
22	5
23	9
24	3
25	7
26	7
27	1
28	5
29	9
30	9
31	1
32	9
33	4
34	9
35	7
36	1
37	4
38	9
39	8
40	9
41	8
42	2
43	5
44	4
45	7
46	6
47	5
48	7
49	3
50	8
51	8
52	4
53	5
54	3
55	3
56	4
57	8
58	5
59	2
60	7
61	4
62	2
63	7
64	9
65	2
66	6
67	4
68	6
69	6
70	3
71	6
72	6
73	8
74	7
75	6
76	5
77	2
78	9
79	7
80	5
81	6
82	1
83	5
84	6
85	2
86	5
87	1
88	1
89	7
90	7
91	1
92	7
93	5
94	8
95	5
96	8
97	9
98	2
99	7
100	7
101	4
TIME_WINDOW_SECTION
1	0	3000
2	487	1767
3	1337	3000
4	733	1044
5	1586	2395
6	1564	2315
7	1111	1951
8	966	2866
9	539	1588
10	675	1432
11	1558	1935
12	1010	1967
13	257	1439
14	1977	2738
15	0	1472
16	0	1310
17	475	895
18	1277	2578
19	619	2312
20	1962	2281
21	738	950
22	1101	1305
23	512	2064
24	881	2720
25	1103	2117
26	351	643
27	380	2337
28	497	739
29	810	2103
30	1198	2319
31	0	1557
32	565	1448
33	1250	2367
34	313	1592
35	538	1455
36	133	1086
37	608	1437
38	1466	3000
39	1647	1967
40	1941	2159
41	1085	1325
42	203	1751
43	1928	2176
44	0	1185
45	1223	1630
46	506	997
47	1110	1741
48	0	1613
49	1738	3000
50	98	960
51	572	2195
52	334	1593
53	1179	1735
54	1307	3000
55	1703	2719
56	451	1035
57	154	2068
58	491	1649
59	1376	3000
60	167	1385
61	1485	1848
62	1226	2899
63	88	1586
64	715	1446
65	1297	2235
66	518	2130
67	0	901
68	0	1697
69	1763	2312
70	197	1624
71	50	1864
72	0	1704
73	262	1535
74	1359	3000
75	600	1584
76	1297	1827
77	712	1746
78	297	1480
79	1333	2189
80	273	998
81	1777	2034
82	427	1646
83	448	1679
84	457	685
85	540	1730
86	982	2479
87	726	2426
88	749	1995
89	0	1763
90	1220	1852
91	732	2155
92	1502	2835
93	1723	2350
94	127	1431
95	313	2027
96	975	2297
97	1538	2773
98	1387	2716
99	0	1549
100	55	1752
101	1133	2359
DEPOT_SECTION
1
-1
EOF
