NAME : n101-0031
COMMENT : "Generated by pyvrp_manuel (VRPTW)"
TYPE : VRPTW
DIMENSION : 101
EDGE_WEIGHT_TYPE : EUC_2D
CAPACITY : 50
VEHICLES : 100
SERVICE_TIME : 200
NODE_COORD_SECTION
1	9	779
2	292	997
3	458	655
4	338	287
5	986	648
6	926	550
7	178	182
8	554	214
9	205	459
10	305	835
11	390	663
12	972	544
13	652	257
14	744	14
15	389	549
16	645	286
17	970	551
18	225	597
19	30	134
20	653	938
21	830	760
22	747	23
23	651	455
24	951	483
25	145	217
26	420	709
27	953	186
28	90	365
29	739	782
30	192	489
31	510	410
32	951	75
33	394	811
34	271	2
35	643	972
36	974	784
37	87	195
38	11	476
39	779	649
40	994	796
41	862	455
42	877	72
43	22	95
44	821	596
45	449	665
46	409	533
47	373	93
48	727	641
49	884	354
50	647	565
51	244	188
52	833	107
53	551	29
54	201	171
55	786	642
56	194	216
57	65	235
58	308	405
59	55	480
60	571	28
61	450	154
62	997	572
63	186	202
64	112	86
65	974	846
66	185	359
67	850	819
68	326	779
69	565	354
70	879	143
71	506	739
72	586	348
73	451	241
74	632	79
75	509	118
76	496	236
77	1	534
78	793	38
79	18	558
80	473	469
81	485	720
82	917	475
83	843	779
84	773	693
85	867	318
86	388	457
87	959	43
88	801	846
89	385	124
90	840	262
91	994	827
92	196	630
93	234	356
94	187	543
95	702	310
96	232	906
97	904	703
98	475	653
99	240	382
100	818	271
101	527	153
DEMAND_SECTION
1	0
2	7
3	1
4	1
5	6
6	7
7	9
8	6
9	2
10	4
11	9
12	3
13	5
14	7
15	7
16	7
17	9
18	1
19	6
20	1
21	9
22	2
23	7
24	1
25	5
26	6
27	3
28	6
29	3
30	8
31	3
32	4
33	7
34	4
35	4
36	4
37	3
38	5
39	6
40	2
41	4
42	5
43	4
44	2
45	8
46	5
47	6
48	3
49	6
50	5
51	7
52	5
53	4
54	6
55	7
56	7
57	7
58	9
59	5
60	1
61	4
62	1
63	8
64	6
65	7
66	7
67	7
68	4
69	7
70	3
71	5
72	2
73	6
74	4
75	9
76	6
77	3
78	8
79	9
80	6
81	8
82	9
83	8
84	3
85	3
86	3
87	3
88	2
89	9
90	8
91	4
92	5
93	2
94	8
95	7
96	5
97	8
98	8
99	4
100	3
101	5
TIME_WINDOW_SECTION
1	0	3000
2	1477	2999
3	628	1832
4	1728	2288
5	633	2258
6	1051	1530
7	1769	2487
8	314	1970
9	139	1177
10	2088	2663
11	1269	2058
12	1245	1886
13	359	2016
14	645	1974
15	1189	2070
16	1808	2018
17	869	1906
18	824	1717
19	492	2412
20	675	2197
21	445	1952
22	1320	1765
23	455	1765
24	1109	1425
25	2059	2308
26	721	1375
27	1005	2207
28	835	1371
29	1259	2129
30	1522	1839
31	1535	2260
32	606	2102
33	1215	2844
34	1334	1815
35	907	2726
36	274	2103
37	237	1641
38	619	1730
39	756	2030
40	491	2148
41	1021	2699
42	1482	1815
43	1062	1592
44	492	1472
45	0	1449
46	1544	2075
47	1434	2301
48	822	2136
49	846	1119
50	477	2383
51	317	2225
52	775	2316
53	1418	2154
54	1034	2281
55	842	1495
56	536	1807
57	0	1843
58	258	1352
59	7	1595
60	741	1694
61	1053	1603
62	385	2131
63	682	887
64	880	2446
65	1359	2170
66	1206	1588
67	1121	1670
68	0	984
69	952	2482
70	1258	1645
71	1006	1462
72	797	1548
73	87	1494
74	583	1968
75	1018	2252
76	110	1713
77	139	525
78	483	1882
79	1664	2973
80	656	1313
81	983	1967
82	1358	1794
83	482	1442
84	648	2091
85	987	2310
86	1707	1913
87	576	2307
88	703	1873
89	798	2737
90	710	2587
91	1076	2286
92	0	999
93	679	2508
94	396	715
95	800	1947
96	1448	2330
97	8	1830
98	1482	2938
99	55	1781
100	736	1822
101	395	2077
DEPOT_SECTION
1
-1
EOF
