NAME : n101-0026
COMMENT : "Generated by pyvrp_manuel (VRPTW)"
TYPE : VRPTW
DIMENSION : 101
EDGE_WEIGHT_TYPE : EUC_2D
CAPACITY : 50
VEHICLES : 100
SERVICE_TIME : 200
NODE_COORD_SECTION
1	270	969
2	211	214
3	212	37
4	623	400
5	800	255
6	629	938
7	876	788
8	456	459
9	464	557
10	828	109
11	763	619
12	820	797
13	201	934
14	183	445
15	52	953
16	514	142
17	835	789
18	866	780
19	214	235
20	327	197
21	867	569
22	524	707
23	240	167
24	731	180
25	629	837
26	110	459
27	237	370
28	896	82
29	392	768
30	238	961
31	485	378
32	321	134
33	654	769
34	631	615
35	882	230
36	654	829
37	944	829
38	523	544
39	821	31
40	28	609
41	497	348
42	335	357
43	825	206
44	731	875
45	27	242
46	250	336
47	595	130
48	558	53
49	154	245
50	270	928
51	42	205
52	38	510
53	451	628
54	486	550
55	878	396
56	861	75
57	115	147
58	148	570
59	841	573
60	253	399
61	38	197
62	951	707
63	599	316
64	171	223
65	92	353
66	63	981
67	136	814
68	516	917
69	561	693
70	162	654
71	937	516
72	493	456
73	8	876
74	991	829
75	266	537
76	439	201
77	163	433
78	196	465
79	355	665
80	413	15
81	196	89
82	871	728
83	507	126
84	524	541
85	458	123
86	503	426
87	100	152
88	869	494
89	473	187
90	153	463
91	77	359
92	43	327
93	848	870
94	6	112
95	323	119
96	526	867
97	266	51
98	701	301
99	584	789
100	77	865
101	116	351
DEMAND_SECTION
1	0
2	7
3	1
4	3
5	3
6	5
7	6
8	6
9	8
10	1
11	3
12	4
13	5
14	9
15	7
16	1
17	3
18	1
19	6
20	5
21	8
22	6
23	4
24	6
25	2
26	3
27	8
28	2
29	5
30	7
31	8
32	4
33	6
34	9
35	1
36	4
37	8
38	7
39	6
40	3
41	5
42	4
43	4
44	8
45	7
46	8
47	6
48	1
49	2
50	4
51	1
52	3
53	2
54	9
55	5
56	1
57	8
58	2
59	4
60	1
61	6
62	4
63	5
64	9
65	2
66	2
67	4
68	7
69	4
70	7
71	3
72	8
73	3
74	2
75	1
76	9
77	1
78	7
79	6
80	5
81	9
82	4
83	1
84	5
85	6
86	3
87	7
88	2
89	8
90	5
91	7
92	7
93	2
94	8
95	2
96	1
97	4
98	7
99	8
100	4
101	2
TIME_WINDOW_SECTION
1	0	3000
2	140	2077
3	480	1693
4	739	1737
5	757	2680
6	0	1166
7	587	2348
8	579	1340
9	658	2058
10	495	2061
11	1183	3000
12	0	1295
13	118	408
14	318	1417
15	2014	2677
16	862	1731
17	45	2030
18	1371	1934
19	1518	2233
20	785	2753
21	1018	2420
22	520	1317
23	1298	1701
24	271	2174
25	1677	2538
26	1126	1864
27	911	1708
28	799	2214
29	1305	1875
30	161	675
31	638	1014
32	66	1903
33	343	568
34	458	1135
35	807	1584
36	17	1680
37	465	974
38	1009	2073
39	1057	1800
40	1224	2967
41	556	1249
42	407	1695
43	501	1880
44	1026	1283
45	906	1977
46	232	1509
47	1092	2093
48	1153	2093
49	1276	2840
50	439	1861
51	293	1589
52	0	1716
53	403	628
54	1652	2779
55	1184	1771
56	1153	1566
57	891	2535
58	1217	2100
59	406	1612
60	1390	3000
61	1309	2221
62	240	2238
63	1770	2106
64	970	2422
65	384	1121
66	765	2137
67	1741	2422
68	300	1644
69	1120	1598
70	110	701
71	969	1428
72	460	877
73	683	1323
74	604	1078
75	1319	1866
76	1294	2503
77	330	1919
78	795	1277
79	2233	2521
80	251	1755
81	468	2178
82	975	2065
83	326	1784
84	1140	2132
85	683	1644
86	535	1047
87	584	1743
88	984	2777
89	223	1741
90	681	2328
91	438	925
92	1267	1661
93	653	1341
94	440	2032
95	792	2365
96	1080	1474
97	1314	2433
98	1064	1425
99	1179	2469
100	1980	2839
101	960	2604
DEPOT_SECTION
1
-1
EOF
