NAME : n101-0014
COMMENT : "Generated by pyvrp_manuel (VRPTW)"
TYPE : VRPTW
DIMENSION : 101
EDGE_WEIGHT_TYPE : EUC_2D
CAPACITY : 50
VEHICLES : 100
SERVICE_TIME : 200
NODE_COORD_SECTION
1	625	171
2	697	480
3	114	990
4	463	202
5	829	858
6	719	405
7	261	655
8	590	60
9	743	790
10	762	172
11	703	325
12	523	445
13	286	276
14	767	398
15	784	735
16	860	246
17	677	764
18	272	242
19	766	686
20	430	809
21	478	819
22	459	765
23	703	114
24	980	904
25	722	703
26	830	362
27	910	81
28	31	419
29	149	675
30	540	659
31	910	318
32	982	742
33	101	270
34	238	698
35	808	180
36	255	5
37	42	324
38	544	45
39	713	764
40	509	981
41	872	536
42	527	499
43	19	217
44	92	30
45	394	528
46	337	830
47	717	453
48	56	74
49	129	430
50	640	854
51	767	603
52	807	57
53	598	372
54	446	849
55	598	283
56	394	332
57	156	139
58	104	906
59	783	354
60	255	60
61	228	672
62	289	630
63	337	0
64	630	648
65	642	128
66	385	957
67	534	442
68	663	959
69	927	651
70	957	263
71	622	781
72	17	27
73	102	51
74	596	520
75	392	302
76	64	219
77	988	343
78	537	306
79	262	852
80	400	538
81	850	409
82	648	192
83	825	472
84	778	51
85	574	630
86	168	854
87	218	306
88	806	247
89	842	853
90	437	615
91	183	225
92	443	896
93	897	937
94	296	108
95	854	764
96	958	992
97	222	903
98	944	400
99	219	198
100	270	801
101	514	380
DEMAND_SECTION
1	0
2	7
3	4
4	9
5	8
6	3
7	9
8	2
9	9
10	3
11	7
12	5
13	2
14	9
15	6
16	9
17	6
18	3
19	1
20	5
21	5
22	3
23	7
24	2
25	3
26	5
27	9
28	9
29	2
30	2
31	7
32	7
33	6
34	5
35	3
36	8
37	5
38	9
39	1
40	9
41	4
42	6
43	6
44	2
45	9
46	4
47	1
48	5
49	2
50	2
51	9
52	5
53	5
54	6
55	5
56	5
57	4
58	3
59	3
60	9
61	9
62	2
63	2
64	5
65	6
66	7
67	2
68	5
69	9
70	2
71	9
72	6
73	8
74	1
75	5
76	1
77	5
78	2
79	4
80	4
81	9
82	5
83	8
84	1
85	7
86	7
87	4
88	7
89	3
90	2
91	4
92	5
93	9
94	1
95	4
96	7
97	9
98	6
99	3
100	2
101	7
TIME_WINDOW_SECTION
1	0	3000
2	0	1357
3	593	1972
4	445	1575
5	1536	2008
6	1137	2651
7	1587	2619
8	1011	3000
9	196	1423
10	484	829
11	2260	2710
12	1681	2216
13	1631	2127
14	199	1716
15	372	1503
16	529	1916
17	1353	1677
18	1341	1770
19	1523	2246
20	685	2120
21	1526	2714
22	952	2516
23	0	1026
24	660	1709
25	1560	1873
26	0	1427
27	1993	2830
28	1191	3000
29	321	1384
30	755	993
31	667	1677
32	1294	2313
33	1037	2847
34	643	2356
35	989	2727
36	730	1491
37	584	2337
38	328	1884
39	1236	1568
40	1104	2249
41	773	1190
42	84	1351
43	1214	1783
44	481	744
45	891	2130
46	240	2219
47	1267	2665
48	1454	2101
49	1351	2527
50	1247	2375
51	910	2882
52	1884	2659
53	1416	2052
54	42	1755
55	1428	3000
56	870	2603
57	1349	1982
58	594	2529
59	230	1594
60	176	1847
61	1194	2647
62	662	2520
63	1493	3000
64	78	1410
65	1839	2402
66	593	1127
67	1662	3000
68	0	1855
69	1541	1967
70	897	1272
71	215	1535
72	596	1849
73	0	1397
74	1317	2778
75	885	2385
76	1303	2737
77	955	1820
78	0	1610
79	236	1612
80	0	1018
81	0	1304
82	1562	2781
83	969	1581
84	2261	2549
85	1792	2607
86	864	2821
87	1336	2081
88	0	1412
89	703	2571
90	943	2637
91	954	2597
92	1536	1940
93	1139	2078
94	625	2302
95	829	2456
96	244	1905
97	1100	2584
98	1602	2991
99	1444	2920
100	0	1521
101	508	2331
DEPOT_SECTION
1
-1
EOF
