NAME : n101-0047
COMMENT : "Generated by pyvrp_manuel (VRPTW)"
TYPE : VRPTW
DIMENSION : 101
EDGE_WEIGHT_TYPE : EUC_2D
CAPACITY : 50
VEHICLES : 100
SERVICE_TIME : 200
NODE_COORD_SECTION
1	807	219
2	882	843
3	787	993
4	428	672
5	269	791
6	126	406
7	876	122
8	152	507
9	687	300
10	663	57
11	598	868
12	409	774
13	198	403
14	594	907
15	923	37
16	702	665
17	231	525
18	935	204
19	941	265
20	881	789
21	934	12
22	842	854
23	361	813
24	124	348
25	390	786
26	773	15
27	221	189
28	863	876
29	170	895
30	790	694
31	861	653
32	112	267
33	856	79
34	115	25
35	721	512
36	904	218
37	362	990
38	912	513
39	852	45
40	579	203
41	37	420
42	650	773
43	164	588
44	660	13
45	523	345
46	185	191
47	29	374
48	509	315
49	921	512
50	679	507
51	718	964
52	63	586
53	841	165
54	312	558
55	966	889
56	248	567
57	39	176
58	694	680
59	500	429
60	655	27
61	216	954
62	61	593
63	292	736
64	334	946
65	886	356
66	685	327
67	713	16
68	802	393
69	811	985
70	775	971
71	559	995
72	511	553
73	579	180
74	35	250
75	628	92
76	80	621
77	962	548
78	361	41
79	337	306
80	994	369
81	483	455
82	624	112
83	489	827
84	653	421
85	282	833
86	333	647
87	992	93
88	709	378
89	62	361
90	177	152
91	335	683
92	87	876
93	49	795
94	644	818
95	435	784
96	648	587
97	975	2
98	650	830
99	225	543
100	25	264
101	144	411
DEMAND_SECTION
1	0
2	5
3	2
4	7
5	3
6	7
7	1
8	4
9	1
10	8
11	5
12	4
13	8
14	1
15	6
16	1
17	9
18	5
19	4
20	2
21	1
22	5
23	7
24	7
25	9
26	6
27	1
28	8
29	9
30	7
31	6
32	1
33	6
34	6
35	2
36	2
37	3
38	8
39	6
40	7
41	5
42	4
43	9
44	9
45	2
46	8
47	1
48	1
49	2
50	7
51	5
52	4
53	3
54	5
55	8
56	5
57	6
58	9
59	9
60	7
61	8
62	6
63	9
64	2
65	1
66	7
67	4
68	5
69	6
70	8
71	4
72	3
73	6
74	6
75	9
76	6
77	2
78	1
79	9
80	1
81	7
82	5
83	3
84	5
85	9
86	5
87	4
88	5
89	9
90	8
91	1
92	6
93	5
94	4
95	8
96	5
97	1
98	4
99	3
100	8
101	2
TIME_WINDOW_SECTION
1	0	3000
2	1494	2796
3	468	1481
4	84	1684
5	557	1950
6	593	2343
7	1462	3000
8	0	1858
9	1513	2151
10	2017	2656
11	710	2219
12	1402	2135
13	619	1187
14	109	1872
15	1021	2824
16	0	1446
17	346	1846
18	44	697
19	1615	3000
20	20	1478
21	750	2227
22	162	1274
23	1079	2405
24	1491	2620
25	1230	1725
26	1279	2280
27	1551	2540
28	1336	1953
29	1114	1394
30	946	2437
31	1409	2494
32	929	1239
33	1096	2269
34	238	1455
35	867	2357
36	2372	2747
37	1427	2033
38	1907	2988
39	755	1918
40	786	1036
41	1615	2360
42	773	2252
43	810	1403
44	0	1589
45	0	851
46	801	2419
47	1175	2456
48	159	961
49	280	1699
50	910	2109
51	234	1672
52	365	1781
53	912	1557
54	0	1505
55	1044	2873
56	0	1425
57	917	2486
58	265	1666
59	814	2177
60	1269	2844
61	528	1811
62	1518	2382
63	199	1668
64	873	1394
65	1184	2786
66	1117	2542
67	432	848
68	779	1447
69	1074	1298
70	1175	2430
71	635	1086
72	842	2317
73	0	1400
74	1455	2313
75	761	967
76	593	1539
77	279	2007
78	543	1750
79	268	2166
80	1234	2018
81	1316	3000
82	530	1753
83	525	2413
84	949	2268
85	1140	2202
86	906	2903
87	1231	2764
88	1012	1539
89	1556	1850
90	776	2141
91	986	2431
92	604	2152
93	1164	2063
94	1336	1553
95	1463	1877
96	994	2093
97	1002	2738
98	633	1845
99	926	1261
100	1119	1667
101	0	1840
DEPOT_SECTION
1
-1
EOF
