NAME : n1001-0038
COMMENT : "Generated by pyvrp_manuel (VRPBTW)"
TYPE : VRPBTW
DIMENSION : 1001
EDGE_WEIGHT_TYPE : EUC_2D
CAPACITY : 150
VEHICLES : 1000
SERVICE_TIME : 200
NODE_COORD_SECTION
1	1	85
2	894	586
3	407	381
4	482	922
5	429	609
6	33	475
7	646	134
8	255	73
9	172	849
10	278	45
11	205	127
12	29	361
13	506	739
14	905	463
15	31	622
16	375	401
17	555	422
18	359	927
19	548	207
20	204	364
21	637	65
22	911	863
23	230	759
24	884	175
25	283	651
26	660	754
27	1000	962
28	177	829
29	913	918
30	820	302
31	702	472
32	31	57
33	520	461
34	192	93
35	113	811
36	385	145
37	695	833
38	452	473
39	912	285
40	642	81
41	114	237
42	186	198
43	425	864
44	123	934
45	720	249
46	729	219
47	245	13
48	462	929
49	754	616
50	235	36
51	842	219
52	343	322
53	586	911
54	493	521
55	253	128
56	42	994
57	133	97
58	752	18
59	700	415
60	909	878
61	382	533
62	969	406
63	307	29
64	678	67
65	753	292
66	750	17
67	796	156
68	345	410
69	910	402
70	945	515
71	786	369
72	302	625
73	598	507
74	451	794
75	193	970
76	963	388
77	14	296
78	833	894
79	121	465
80	669	456
81	451	692
82	847	92
83	994	95
84	994	424
85	519	502
86	946	912
87	721	699
88	275	295
89	576	887
90	123	437
91	781	117
92	284	873
93	979	55
94	100	988
95	681	601
96	29	62
97	721	432
98	231	882
99	769	987
100	847	672
101	292	995
102	365	726
103	664	243
104	595	36
105	298	601
106	109	967
107	767	113
108	786	215
109	81	657
110	732	797
111	595	817
112	974	361
113	145	57
114	116	743
115	775	885
116	788	884
117	726	868
118	1	373
119	21	436
120	306	585
121	179	198
122	312	423
123	406	204
124	418	740
125	977	285
126	492	545
127	514	277
128	831	648
129	603	273
130	109	172
131	233	644
132	56	120
133	144	139
134	396	200
135	611	444
136	132	681
137	843	0
138	261	797
139	315	90
140	489	741
141	161	37
142	423	96
143	388	165
144	577	844
145	768	313
146	816	642
147	223	611
148	935	391
149	431	407
150	845	420
151	958	79
152	534	935
153	742	364
154	72	660
155	592	859
156	473	34
157	989	707
158	739	458
159	454	600
160	918	789
161	146	750
162	988	876
163	822	168
164	845	235
165	321	393
166	583	249
167	923	80
168	233	571
169	432	680
170	316	965
171	626	717
172	622	331
173	517	997
174	283	64
175	430	715
176	496	74
177	251	238
178	662	326
179	122	206
180	646	601
181	596	59
182	750	262
183	954	650
184	213	870
185	912	475
186	936	375
187	11	37
188	477	504
189	704	302
190	396	620
191	169	202
192	553	53
193	940	937
194	387	344
195	987	137
196	142	730
197	172	220
198	122	681
199	666	628
200	92	675
201	589	673
202	473	806
203	959	279
204	726	257
205	127	601
206	588	804
207	386	91
208	365	565
209	811	550
210	439	979
211	476	933
212	705	411
213	469	646
214	662	326
215	48	411
216	594	512
217	81	24
218	244	489
219	508	11
220	302	938
221	308	324
222	39	890
223	183	238
224	0	719
225	630	748
226	683	88
227	74	587
228	43	41
229	128	164
230	959	642
231	453	248
232	912	489
233	350	524
234	164	131
235	156	689
236	158	612
237	100	705
238	692	533
239	20	795
240	919	17
241	453	668
242	422	950
243	481	120
244	764	790
245	537	681
246	28	151
247	516	490
248	345	568
249	975	0
250	566	641
251	457	112
252	898	719
253	411	588
254	610	47
255	288	294
256	535	762
257	674	801
258	179	803
259	30	230
260	75	643
261	836	614
262	43	221
263	297	31
264	607	488
265	510	217
266	599	246
267	565	379
268	41	991
269	204	593
270	116	78
271	451	307
272	247	971
273	855	384
274	472	249
275	645	866
276	126	975
277	252	747
278	94	350
279	610	708
280	712	476
281	227	433
282	329	71
283	545	247
284	873	779
285	889	851
286	542	512
287	15	814
288	322	385
289	578	581
290	209	324
291	135	47
292	380	369
293	613	31
294	928	325
295	982	562
296	74	188
297	788	664
298	184	418
299	368	495
300	121	885
301	393	871
302	447	386
303	777	73
304	708	473
305	98	146
306	643	547
307	245	527
308	862	784
309	682	255
310	661	742
311	325	794
312	886	573
313	310	168
314	321	874
315	735	323
316	212	368
317	817	410
318	47	40
319	582	996
320	99	917
321	374	792
322	651	392
323	962	428
324	868	652
325	431	86
326	686	713
327	862	349
328	654	89
329	682	155
330	869	970
331	125	503
332	889	394
333	386	31
334	606	792
335	911	322
336	23	575
337	398	308
338	551	749
339	404	751
340	731	498
341	829	816
342	143	784
343	276	817
344	123	784
345	284	830
346	715	225
347	140	302
348	956	198
349	295	950
350	128	5
351	511	186
352	53	561
353	785	926
354	507	204
355	137	819
356	701	857
357	143	364
358	379	797
359	810	254
360	929	206
361	363	185
362	209	12
363	50	411
364	564	220
365	851	543
366	697	822
367	903	177
368	806	366
369	940	340
370	59	785
371	765	880
372	493	542
373	45	257
374	386	477
375	378	652
376	740	456
377	502	21
378	460	773
379	624	730
380	623	670
381	128	837
382	873	356
383	92	737
384	537	497
385	665	276
386	970	298
387	10	675
388	620	914
389	903	214
390	687	503
391	460	3
392	541	175
393	675	597
394	706	180
395	644	367
396	278	220
397	870	24
398	825	657
399	91	300
400	677	755
401	281	72
402	367	199
403	926	263
404	930	15
405	132	721
406	39	953
407	142	381
408	764	285
409	374	115
410	797	225
411	393	281
412	354	815
413	681	568
414	263	85
415	612	614
416	594	288
417	839	839
418	36	417
419	672	169
420	474	632
421	744	108
422	480	762
423	801	31
424	176	54
425	710	241
426	918	335
427	900	786
428	158	385
429	643	382
430	631	26
431	796	238
432	264	940
433	894	74
434	594	298
435	67	201
436	188	826
437	6	631
438	120	367
439	453	262
440	901	568
441	799	529
442	399	147
443	388	408
444	148	555
445	667	705
446	95	996
447	294	589
448	636	386
449	940	757
450	36	602
451	270	105
452	793	720
453	271	311
454	872	659
455	202	753
456	552	325
457	515	502
458	292	74
459	444	168
460	300	500
461	645	567
462	975	840
463	631	919
464	354	721
465	371	58
466	927	83
467	389	261
468	61	75
469	952	91
470	948	913
471	423	903
472	8	147
473	777	523
474	435	125
475	489	788
476	383	470
477	290	643
478	193	902
479	915	565
480	24	46
481	728	409
482	621	706
483	903	417
484	213	700
485	843	115
486	633	843
487	17	376
488	758	285
489	184	530
490	657	739
491	21	217
492	175	18
493	846	76
494	861	854
495	254	289
496	145	464
497	784	113
498	446	541
499	670	339
500	506	85
501	829	694
502	782	929
503	588	14
504	846	587
505	72	266
506	944	130
507	569	704
508	894	849
509	835	868
510	47	86
511	322	819
512	499	121
513	37	889
514	984	44
515	758	676
516	811	691
517	384	628
518	517	60
519	194	638
520	378	699
521	800	849
522	339	229
523	387	496
524	20	599
525	421	564
526	361	54
527	87	170
528	698	680
529	762	673
530	121	115
531	434	8
532	226	213
533	756	730
534	114	867
535	492	599
536	100	189
537	585	407
538	85	748
539	364	912
540	809	824
541	563	649
542	773	463
543	370	377
544	32	613
545	49	772
546	440	759
547	313	391
548	660	331
549	830	268
550	660	539
551	291	262
552	988	777
553	644	101
554	530	442
555	177	6
556	491	528
557	980	793
558	202	289
559	389	236
560	142	187
561	834	509
562	88	907
563	719	915
564	632	442
565	597	8
566	549	690
567	487	827
568	595	38
569	341	709
570	952	462
571	788	920
572	175	796
573	577	140
574	110	395
575	754	149
576	890	655
577	519	294
578	443	150
579	393	957
580	621	529
581	74	15
582	837	244
583	396	821
584	302	292
585	346	457
586	341	382
587	697	273
588	334	566
589	787	41
590	366	6
591	901	741
592	851	117
593	20	567
594	351	136
595	507	60
596	33	473
597	794	129
598	98	640
599	971	174
600	991	425
601	664	877
602	416	426
603	27	163
604	804	5
605	136	3
606	822	14
607	965	242
608	917	950
609	330	127
610	191	163
611	322	852
612	279	19
613	901	261
614	495	533
615	649	66
616	351	516
617	696	401
618	370	155
619	866	622
620	108	353
621	215	584
622	288	368
623	905	496
624	617	71
625	592	376
626	851	28
627	112	232
628	246	934
629	277	446
630	488	345
631	934	407
632	320	228
633	429	763
634	341	152
635	675	78
636	91	864
637	759	858
638	96	478
639	950	889
640	620	137
641	154	701
642	590	164
643	72	3
644	926	819
645	126	973
646	534	43
647	678	293
648	858	239
649	541	658
650	62	663
651	566	936
652	764	275
653	472	333
654	241	114
655	34	464
656	372	91
657	442	278
658	886	432
659	305	656
660	401	303
661	421	588
662	183	446
663	526	554
664	925	603
665	736	982
666	968	843
667	102	633
668	158	112
669	140	644
670	483	120
671	780	320
672	75	855
673	447	851
674	384	935
675	999	192
676	780	600
677	731	388
678	345	140
679	592	651
680	156	191
681	696	939
682	579	766
683	119	82
684	379	871
685	17	846
686	433	392
687	758	53
688	316	663
689	391	604
690	391	981
691	759	357
692	161	888
693	631	253
694	833	858
695	998	696
696	294	897
697	301	910
698	624	667
699	79	183
700	681	841
701	492	197
702	739	845
703	159	861
704	752	374
705	761	856
706	686	839
707	303	394
708	658	239
709	241	390
710	565	209
711	614	218
712	286	586
713	431	354
714	28	563
715	13	396
716	90	262
717	375	915
718	578	910
719	204	838
720	56	584
721	388	773
722	0	943
723	778	887
724	630	497
725	867	72
726	9	715
727	148	769
728	336	62
729	404	899
730	543	106
731	974	809
732	639	857
733	973	917
734	641	114
735	70	867
736	370	985
737	441	404
738	345	194
739	117	32
740	348	326
741	917	256
742	272	519
743	788	266
744	604	442
745	608	406
746	634	291
747	79	288
748	978	417
749	98	479
750	1000	386
751	8	594
752	646	226
753	325	471
754	451	279
755	238	533
756	156	519
757	866	327
758	747	593
759	763	346
760	201	51
761	202	722
762	550	605
763	702	191
764	957	15
765	518	384
766	74	20
767	721	860
768	242	874
769	359	121
770	589	796
771	397	403
772	135	125
773	464	258
774	939	919
775	428	438
776	605	752
777	28	446
778	530	445
779	622	355
780	461	60
781	52	79
782	192	21
783	970	154
784	197	68
785	428	986
786	977	313
787	155	429
788	832	954
789	154	650
790	357	120
791	348	768
792	835	443
793	106	566
794	770	722
795	568	232
796	737	257
797	461	551
798	407	850
799	757	970
800	91	937
801	665	257
802	566	518
803	470	328
804	720	484
805	0	795
806	706	121
807	756	298
808	248	450
809	640	339
810	194	697
811	721	141
812	594	341
813	357	601
814	881	178
815	375	847
816	746	910
817	8	598
818	38	845
819	249	477
820	653	815
821	825	399
822	420	140
823	852	640
824	69	580
825	910	172
826	990	618
827	19	84
828	623	761
829	824	819
830	682	952
831	58	34
832	624	271
833	456	869
834	990	865
835	772	754
836	730	766
837	386	178
838	147	722
839	551	75
840	533	40
841	164	206
842	584	170
843	778	481
844	754	660
845	768	147
846	837	450
847	431	488
848	273	901
849	294	528
850	66	300
851	593	308
852	451	876
853	927	689
854	363	477
855	429	860
856	328	160
857	383	311
858	746	207
859	129	720
860	140	671
861	838	20
862	212	600
863	524	931
864	955	227
865	647	159
866	111	835
867	720	403
868	506	764
869	183	670
870	61	508
871	185	721
872	77	919
873	938	432
874	371	766
875	554	37
876	456	64
877	57	321
878	144	547
879	620	437
880	999	376
881	5	859
882	491	871
883	978	71
884	879	619
885	934	73
886	96	703
887	37	29
888	770	585
889	786	474
890	368	62
891	47	107
892	88	274
893	244	435
894	498	253
895	946	64
896	595	635
897	733	991
898	95	674
899	370	550
900	97	229
901	715	168
902	550	933
903	514	99
904	232	279
905	392	955
906	78	727
907	419	595
908	913	294
909	197	578
910	136	661
911	135	174
912	465	216
913	122	859
914	136	175
915	338	183
916	428	615
917	0	894
918	345	695
919	53	817
920	530	338
921	899	631
922	61	101
923	876	244
924	765	478
925	386	76
926	19	762
927	375	427
928	767	562
929	264	916
930	483	938
931	663	198
932	958	65
933	489	122
934	620	777
935	10	199
936	673	693
937	458	661
938	54	197
939	105	810
940	325	444
941	807	508
942	521	908
943	5	884
944	500	735
945	142	179
946	129	568
947	231	482
948	898	516
949	640	984
950	499	416
951	219	712
952	767	427
953	833	323
954	171	756
955	829	448
956	591	425
957	684	618
958	636	981
959	381	994
960	485	568
961	788	722
962	599	949
963	111	850
964	861	238
965	745	522
966	874	807
967	308	771
968	383	852
969	585	838
970	344	974
971	138	683
972	260	441
973	177	123
974	671	1
975	951	649
976	718	52
977	590	172
978	971	313
979	748	813
980	824	200
981	521	978
982	338	522
983	321	394
984	365	612
985	572	652
986	461	148
987	890	91
988	849	360
989	994	517
990	98	87
991	133	954
992	126	815
993	127	802
994	506	966
995	818	930
996	525	666
997	908	610
998	108	406
999	464	728
1000	667	237
1001	323	763
DEMAND_SECTION
1	0
2	1
3	9
4	1
5	4
6	7
7	4
8	3
9	2
10	7
11	3
12	5
13	4
14	8
15	8
16	7
17	9
18	2
19	6
20	3
21	9
22	7
23	7
24	8
25	6
26	3
27	9
28	6
29	3
30	1
31	5
32	6
33	3
34	9
35	8
36	1
37	9
38	4
39	2
40	4
41	5
42	4
43	1
44	6
45	5
46	2
47	9
48	4
49	8
50	2
51	4
52	1
53	1
54	5
55	2
56	6
57	4
58	9
59	1
60	9
61	8
62	8
63	9
64	4
65	6
66	9
67	8
68	6
69	9
70	1
71	2
72	1
73	9
74	5
75	6
76	3
77	1
78	2
79	8
80	3
81	9
82	2
83	9
84	6
85	8
86	2
87	4
88	9
89	4
90	4
91	1
92	4
93	9
94	5
95	1
96	4
97	1
98	2
99	1
100	9
101	5
102	6
103	8
104	9
105	8
106	9
107	8
108	1
109	2
110	3
111	3
112	2
113	2
114	3
115	8
116	2
117	9
118	4
119	3
120	5
121	7
122	5
123	6
124	5
125	6
126	9
127	1
128	5
129	6
130	5
131	3
132	4
133	9
134	4
135	6
136	3
137	5
138	9
139	1
140	7
141	8
142	4
143	6
144	9
145	2
146	4
147	5
148	5
149	8
150	3
151	7
152	8
153	1
154	7
155	5
156	2
157	5
158	3
159	5
160	6
161	9
162	8
163	8
164	3
165	7
166	9
167	1
168	7
169	7
170	1
171	3
172	6
173	5
174	6
175	4
176	7
177	3
178	9
179	3
180	9
181	6
182	9
183	4
184	6
185	1
186	6
187	9
188	4
189	8
190	5
191	6
192	5
193	1
194	2
195	2
196	4
197	7
198	6
199	9
200	1
201	3
202	8
203	8
204	4
205	1
206	7
207	2
208	3
209	7
210	1
211	8
212	3
213	3
214	8
215	3
216	6
217	6
218	5
219	6
220	1
221	5
222	7
223	2
224	7
225	2
226	9
227	2
228	1
229	7
230	8
231	1
232	8
233	1
234	5
235	2
236	3
237	9
238	5
239	7
240	2
241	3
242	4
243	3
244	7
245	7
246	3
247	5
248	7
249	6
250	2
251	5
252	8
253	1
254	6
255	6
256	9
257	4
258	5
259	5
260	5
261	5
262	7
263	9
264	9
265	1
266	4
267	1
268	2
269	3
270	8
271	2
272	5
273	3
274	2
275	1
276	4
277	6
278	1
279	7
280	9
281	4
282	3
283	1
284	5
285	5
286	7
287	7
288	8
289	7
290	2
291	6
292	8
293	1
294	4
295	9
296	8
297	8
298	3
299	5
300	4
301	2
302	4
303	8
304	5
305	8
306	8
307	2
308	9
309	2
310	9
311	9
312	1
313	1
314	8
315	8
316	6
317	3
318	2
319	1
320	2
321	8
322	4
323	5
324	6
325	9
326	2
327	6
328	2
329	4
330	8
331	4
332	1
333	8
334	7
335	3
336	6
337	1
338	5
339	5
340	4
341	4
342	3
343	8
344	9
345	3
346	4
347	3
348	7
349	1
350	7
351	7
352	1
353	6
354	6
355	3
356	9
357	3
358	4
359	3
360	6
361	3
362	2
363	8
364	1
365	5
366	3
367	7
368	8
369	4
370	3
371	1
372	1
373	4
374	1
375	3
376	9
377	6
378	2
379	6
380	2
381	9
382	4
383	4
384	2
385	6
386	3
387	7
388	4
389	7
390	8
391	1
392	7
393	3
394	8
395	1
396	9
397	4
398	3
399	4
400	3
401	6
402	9
403	6
404	4
405	9
406	5
407	1
408	4
409	1
410	4
411	9
412	4
413	3
414	8
415	4
416	8
417	3
418	9
419	4
420	8
421	2
422	3
423	8
424	7
425	9
426	8
427	5
428	2
429	5
430	5
431	2
432	6
433	9
434	4
435	9
436	1
437	4
438	2
439	4
440	4
441	9
442	6
443	1
444	4
445	3
446	3
447	4
448	1
449	8
450	9
451	7
452	2
453	9
454	1
455	1
456	9
457	1
458	1
459	3
460	9
461	6
462	3
463	4
464	3
465	6
466	9
467	7
468	6
469	4
470	4
471	8
472	9
473	5
474	7
475	6
476	8
477	9
478	4
479	5
480	6
481	8
482	2
483	1
484	3
485	6
486	3
487	7
488	2
489	7
490	5
491	9
492	1
493	3
494	6
495	1
496	3
497	1
498	8
499	7
500	7
501	8
502	6
503	5
504	5
505	8
506	3
507	8
508	3
509	4
510	1
511	4
512	1
513	2
514	4
515	2
516	1
517	5
518	5
519	9
520	9
521	4
522	2
523	2
524	6
525	1
526	4
527	1
528	6
529	1
530	8
531	5
532	4
533	5
534	7
535	1
536	7
537	5
538	1
539	4
540	6
541	2
542	9
543	8
544	3
545	9
546	1
547	1
548	5
549	9
550	9
551	3
552	1
553	1
554	1
555	3
556	8
557	7
558	5
559	8
560	3
561	6
562	7
563	6
564	7
565	8
566	9
567	8
568	4
569	6
570	7
571	7
572	2
573	3
574	8
575	7
576	4
577	3
578	8
579	1
580	6
581	1
582	1
583	4
584	2
585	2
586	9
587	6
588	7
589	5
590	6
591	6
592	8
593	9
594	8
595	3
596	6
597	7
598	6
599	3
600	3
601	1
602	4
603	3
604	2
605	7
606	7
607	4
608	1
609	7
610	7
611	5
612	9
613	7
614	3
615	2
616	3
617	5
618	2
619	1
620	9
621	1
622	7
623	7
624	1
625	3
626	2
627	6
628	3
629	1
630	2
631	7
632	8
633	9
634	5
635	9
636	7
637	2
638	8
639	7
640	7
641	2
642	2
643	1
644	3
645	4
646	6
647	8
648	4
649	2
650	1
651	9
652	7
653	7
654	4
655	3
656	6
657	5
658	7
659	7
660	8
661	4
662	3
663	4
664	2
665	5
666	5
667	1
668	9
669	5
670	3
671	6
672	8
673	4
674	4
675	8
676	3
677	7
678	6
679	3
680	1
681	9
682	1
683	1
684	3
685	3
686	1
687	2
688	5
689	8
690	4
691	9
692	2
693	4
694	6
695	8
696	7
697	4
698	2
699	8
700	3
701	9
702	6
703	9
704	9
705	8
706	8
707	7
708	8
709	9
710	6
711	4
712	5
713	2
714	4
715	4
716	8
717	5
718	8
719	6
720	7
721	7
722	8
723	9
724	9
725	7
726	9
727	6
728	1
729	3
730	6
731	5
732	7
733	6
734	1
735	7
736	1
737	4
738	5
739	7
740	7
741	1
742	5
743	4
744	8
745	3
746	4
747	4
748	6
749	3
750	9
751	2
752	7
753	5
754	3
755	8
756	8
757	9
758	9
759	8
760	7
761	4
762	7
763	9
764	9
765	9
766	7
767	4
768	6
769	2
770	2
771	3
772	9
773	9
774	6
775	6
776	1
777	9
778	6
779	2
780	5
781	2
782	6
783	9
784	9
785	8
786	6
787	7
788	7
789	2
790	6
791	4
792	5
793	9
794	1
795	9
796	7
797	3
798	5
799	6
800	5
801	1
802	4
803	7
804	3
805	5
806	3
807	7
808	8
809	3
810	1
811	5
812	9
813	3
814	9
815	8
816	3
817	6
818	3
819	8
820	2
821	3
822	2
823	2
824	4
825	1
826	4
827	2
828	2
829	3
830	6
831	8
832	4
833	3
834	4
835	5
836	6
837	9
838	6
839	7
840	7
841	2
842	2
843	1
844	1
845	3
846	9
847	3
848	8
849	9
850	1
851	1
852	6
853	1
854	1
855	4
856	2
857	2
858	6
859	3
860	9
861	9
862	6
863	7
864	1
865	8
866	4
867	8
868	5
869	8
870	7
871	7
872	2
873	9
874	3
875	2
876	1
877	2
878	7
879	1
880	2
881	6
882	5
883	3
884	5
885	8
886	4
887	3
888	8
889	9
890	6
891	1
892	2
893	6
894	1
895	4
896	5
897	5
898	7
899	8
900	2
901	5
902	7
903	1
904	7
905	2
906	7
907	5
908	8
909	8
910	5
911	6
912	4
913	6
914	6
915	5
916	9
917	5
918	1
919	2
920	1
921	3
922	8
923	8
924	3
925	2
926	9
927	7
928	5
929	7
930	1
931	9
932	2
933	6
934	5
935	4
936	4
937	3
938	3
939	2
940	8
941	5
942	4
943	5
944	3
945	4
946	8
947	6
948	5
949	7
950	4
951	1
952	2
953	2
954	6
955	7
956	8
957	6
958	5
959	6
960	2
961	4
962	3
963	7
964	3
965	9
966	8
967	2
968	9
969	3
970	6
971	3
972	7
973	6
974	2
975	5
976	4
977	3
978	2
979	1
980	3
981	8
982	6
983	6
984	3
985	2
986	7
987	4
988	1
989	9
990	8
991	7
992	4
993	6
994	5
995	4
996	9
997	6
998	7
999	5
1000	5
1001	9
TIME_WINDOW_SECTION
1	0	3000
2	1314	1919
3	1090	2533
4	376	2038
5	1680	2131
6	1123	2759
7	606	2504
8	889	2626
9	1487	2102
10	422	679
11	190	1553
12	1556	3000
13	911	2515
14	978	1727
15	1118	2324
16	770	1905
17	1051	1324
18	410	1893
19	0	1559
20	91	1159
21	1051	2685
22	696	2439
23	605	1515
24	1619	1986
25	163	1893
26	544	1963
27	866	1802
28	958	2639
29	804	2139
30	941	2043
31	1440	1950
32	1178	1401
33	664	2350
34	136	1311
35	384	1221
36	941	1761
37	1241	2028
38	0	1756
39	768	1896
40	448	2071
41	0	711
42	1333	1886
43	760	2324
44	530	2319
45	1062	2176
46	612	2366
47	0	1791
48	865	1542
49	394	2024
50	885	2633
51	829	2697
52	1217	2692
53	789	2366
54	1722	2205
55	915	1658
56	741	1777
57	1918	3000
58	1430	2109
59	1157	2069
60	550	2039
61	1775	2286
62	646	1892
63	1221	2477
64	1239	2554
65	893	2516
66	1129	1415
67	597	1818
68	1936	2691
69	956	2179
70	758	1936
71	1477	2273
72	592	1170
73	926	2457
74	1788	2113
75	820	1399
76	833	2350
77	144	1631
78	989	1808
79	1588	2015
80	1063	1699
81	935	1892
82	786	2213
83	1216	1567
84	272	1884
85	1129	3000
86	1019	2039
87	607	2420
88	295	924
89	821	2373
90	1193	2052
91	670	1287
92	934	2584
93	810	1952
94	1249	1549
95	749	1886
96	375	2145
97	940	1876
98	804	1251
99	1025	2139
100	601	1743
101	906	2381
102	512	999
103	153	1897
104	490	1103
105	652	2141
106	860	1989
107	0	1711
108	880	2460
109	1263	2747
110	1027	1916
111	293	1742
112	846	1213
113	1691	2699
114	912	2452
115	791	1981
116	687	1694
117	1113	1988
118	0	1571
119	0	1348
120	1076	2354
121	88	1740
122	1724	2809
123	986	2811
124	878	1270
125	946	2346
126	498	1513
127	420	1653
128	1071	2039
129	1369	2868
130	1000	2995
131	392	1332
132	1212	2154
133	526	1753
134	385	711
135	830	2294
136	1092	1616
137	879	2672
138	1267	1849
139	2223	2431
140	177	2018
141	1102	2097
142	1212	1614
143	2163	2517
144	1399	2108
145	524	1518
146	743	1931
147	596	2540
148	942	1838
149	1980	2372
150	733	1167
151	535	2377
152	1382	2032
153	851	1368
154	1152	2926
155	406	2364
156	0	1271
157	728	2112
158	1016	1519
159	1286	2657
160	819	2325
161	424	1214
162	513	2118
163	387	2287
164	843	2361
165	1296	2805
166	806	1888
167	918	1180
168	205	1830
169	1060	1912
170	1553	1952
171	733	1617
172	1233	2815
173	520	2465
174	761	2240
175	1598	1848
176	1634	2935
177	243	562
178	0	1477
179	2001	2240
180	1195	2376
181	1025	2150
182	1103	2024
183	733	1629
184	880	2177
185	751	1638
186	378	2323
187	0	1314
188	1768	2251
189	748	1985
190	656	1704
191	1313	2654
192	1565	2465
193	910	1788
194	1697	2414
195	703	1630
196	1053	1686
197	442	2093
198	0	1658
199	850	2023
200	888	2612
201	1151	1434
202	774	2471
203	1316	1622
204	853	2469
205	0	1124
206	1119	2245
207	822	1870
208	439	2037
209	1373	1974
210	335	2130
211	782	1506
212	357	1543
213	1325	2526
214	1005	2178
215	1435	1695
216	1511	2191
217	1876	3000
218	1146	1874
219	381	1267
220	1121	1992
221	499	1446
222	565	1057
223	1532	2215
224	861	2182
225	1250	2348
226	814	2063
227	570	1894
228	157	1905
229	0	903
230	661	2023
231	715	2117
232	815	1730
233	838	2698
234	2425	2724
235	749	1435
236	1672	2063
237	495	2302
238	671	1155
239	1579	2469
240	870	1358
241	1163	2563
242	1438	1969
243	309	1713
244	554	2230
245	634	1754
246	1957	3000
247	839	1974
248	1304	2248
249	1439	1732
250	889	1357
251	1602	2503
252	1345	1601
253	1502	2355
254	454	1035
255	1243	2472
256	955	1332
257	811	2405
258	485	2226
259	1849	2976
260	185	1725
261	943	2272
262	2147	2717
263	575	1098
264	1317	2603
265	818	2237
266	1741	2529
267	392	1257
268	590	1408
269	1137	1396
270	2397	2841
271	0	1458
272	998	1968
273	1204	1844
274	531	1418
275	1398	1666
276	529	1344
277	489	1799
278	0	784
279	1003	1991
280	1423	2227
281	899	1654
282	1224	2466
283	86	1875
284	1017	1288
285	453	2158
286	343	2058
287	1256	1583
288	1258	1777
289	684	1874
290	1153	2080
291	172	1051
292	162	1749
293	417	1904
294	635	1855
295	1176	1418
296	694	2386
297	978	1332
298	395	2186
299	489	1341
300	1156	2328
301	1610	2063
302	1729	2569
303	1316	1846
304	1083	1375
305	493	729
306	1021	2050
307	570	2098
308	1317	1571
309	867	1886
310	1134	1691
311	932	1887
312	697	2367
313	383	2236
314	1033	2734
315	774	2424
316	194	2150
317	1065	1303
318	0	999
319	811	2173
320	816	1747
321	814	1197
322	1075	2190
323	1029	1897
324	1227	2001
325	1959	2653
326	679	2471
327	314	1647
328	1290	2011
329	1363	2151
330	868	2011
331	1634	2433
332	1126	1500
333	218	884
334	602	1859
335	1431	2162
336	1093	2675
337	679	1262
338	354	2177
339	126	1557
340	1182	1645
341	1411	1914
342	978	1982
343	1081	2578
344	634	1315
345	596	2327
346	219	2128
347	1505	2691
348	466	1540
349	868	1074
350	0	1102
351	1523	2251
352	1141	3000
353	1193	1633
354	1575	1775
355	1085	2972
356	1446	1803
357	0	1615
358	669	2458
359	163	1900
360	928	1267
361	648	2196
362	641	2217
363	2167	2697
364	1808	2582
365	1542	2076
366	1325	1667
367	285	1688
368	193	1674
369	720	2267
370	1131	2224
371	1083	1718
372	1262	1465
373	94	1045
374	84	1174
375	1139	2773
376	593	1601
377	119	1705
378	1442	1967
379	958	1510
380	583	1774
381	609	1443
382	1224	2509
383	1242	1749
384	1337	2440
385	1510	2396
386	1487	1864
387	1643	2206
388	348	2298
389	181	2008
390	1046	1271
391	1366	1629
392	587	1506
393	271	1712
394	797	2627
395	1451	1975
396	821	1403
397	751	1366
398	852	1324
399	414	726
400	880	1929
401	1648	2786
402	1512	2093
403	457	2113
404	459	1560
405	547	1303
406	914	1613
407	470	1365
408	562	1935
409	985	2060
410	298	1975
411	0	1188
412	1281	1606
413	640	1313
414	1175	2088
415	695	1456
416	1274	2386
417	373	2043
418	1960	2794
419	1618	1878
420	406	2095
421	1370	2459
422	671	1294
423	1086	2069
424	313	1684
425	228	1734
426	1213	2410
427	1344	1856
428	1061	2154
429	547	1142
430	1873	2212
431	1071	2418
432	1081	2233
433	1161	2406
434	1033	1272
435	285	2097
436	194	1956
437	514	1999
438	1007	1613
439	1010	2019
440	434	2367
441	931	2447
442	1725	2683
443	0	1755
444	420	2281
445	1196	1551
446	654	2331
447	0	1316
448	0	1648
449	643	1875
450	436	1112
451	358	826
452	1184	1551
453	752	1913
454	742	2600
455	1004	3000
456	0	1461
457	887	2128
458	1053	1934
459	1354	2639
460	618	1136
461	469	1342
462	1246	1815
463	1038	2175
464	416	1729
465	385	1844
466	1331	1672
467	1261	2751
468	1184	3000
469	694	1530
470	1102	1951
471	802	1646
472	1591	2076
473	1588	2081
474	1131	1432
475	1057	2054
476	856	2037
477	968	1673
478	967	1204
479	1530	1985
480	923	2440
481	730	1852
482	672	1239
483	130	2003
484	495	1766
485	1194	1672
486	637	1755
487	1402	1822
488	1119	1974
489	796	2647
490	878	1529
491	947	1607
492	1224	3000
493	1203	1841
494	884	1967
495	190	725
496	611	1768
497	620	2081
498	996	1570
499	1118	2341
500	1024	2212
501	927	2340
502	933	2127
503	1516	2148
504	861	1559
505	2175	2548
506	1623	1852
507	708	1313
508	697	2283
509	525	1967
510	929	1547
511	146	1937
512	1009	2716
513	1172	2548
514	1136	2304
515	1015	2481
516	1505	1855
517	138	1963
518	41	1133
519	1299	2802
520	950	2431
521	1499	1827
522	1278	2227
523	699	1897
524	542	2409
525	740	1140
526	317	1987
527	248	1861
528	527	1476
529	923	2414
530	863	1393
531	882	2625
532	400	2120
533	832	1306
534	971	1395
535	1084	2903
536	1509	3000
537	858	1966
538	582	967
539	841	2017
540	249	2127
541	320	2236
542	616	2067
543	673	1067
544	1121	1473
545	444	2224
546	1511	1763
547	628	1468
548	975	2693
549	1012	2375
550	138	1513
551	1139	1659
552	979	1484
553	550	2424
554	745	1718
555	0	957
556	1886	2129
557	787	2397
558	283	1202
559	541	2116
560	1032	1576
561	479	1842
562	876	1173
563	367	2140
564	451	1387
565	1530	2587
566	511	2465
567	1136	1384
568	574	2350
569	805	2399
570	1018	1425
571	682	1977
572	1173	2377
573	1043	1405
574	1731	2198
575	591	1017
576	515	1810
577	433	1201
578	1339	2210
579	465	1743
580	943	2402
581	3	960
582	1060	2513
583	35	1991
584	569	828
585	0	1310
586	1235	2403
587	397	2017
588	1328	2259
589	1013	2226
590	735	1567
591	289	2015
592	1182	1882
593	1473	1827
594	679	1740
595	993	2087
596	830	2047
597	1216	1707
598	1010	1587
599	852	1275
600	499	1757
601	1583	1915
602	237	1782
603	2178	3000
604	1569	2011
605	334	831
606	579	2451
607	737	2728
608	887	2006
609	1109	2923
610	988	2223
611	832	2793
612	1197	3000
613	599	1526
614	383	1911
615	1169	3000
616	518	1439
617	347	1666
618	817	2316
619	1132	2213
620	991	2793
621	358	1304
622	500	1753
623	785	2128
624	1162	2232
625	1603	2165
626	1514	1954
627	1432	2052
628	801	2335
629	680	1912
630	1064	1513
631	1191	2347
632	575	1104
633	1505	1745
634	1448	2231
635	1388	2516
636	1045	1461
637	767	1468
638	382	1196
639	1067	1629
640	1390	2957
641	907	1805
642	1923	2410
643	293	668
644	1041	1868
645	135	1861
646	312	1719
647	706	2154
648	514	1993
649	824	1639
650	86	1614
651	1180	2141
652	1045	1823
653	788	1475
654	1399	3000
655	1610	2990
656	1225	1811
657	1258	2159
658	1065	2107
659	1747	2240
660	1400	2888
661	0	1700
662	1567	2747
663	1018	2997
664	1006	1911
665	691	1693
666	547	2282
667	164	1937
668	1001	2788
669	595	2366
670	630	1327
671	1164	2039
672	717	2049
673	752	2495
674	792	2082
675	1221	1682
676	1186	1927
677	981	2809
678	1467	2735
679	838	1039
680	0	964
681	605	1706
682	493	2166
683	861	1801
684	884	1118
685	1081	2741
686	913	1286
687	421	1487
688	798	2111
689	649	1102
690	1027	2192
691	1348	1902
692	286	1539
693	64	1303
694	655	2030
695	776	1714
696	427	1891
697	997	2751
698	1546	2002
699	1634	2973
700	673	1414
701	1252	2148
702	1569	1829
703	1023	2381
704	1346	1663
705	951	1271
706	1306	1991
707	1825	2674
708	752	2523
709	278	791
710	917	1403
711	1789	2401
712	0	1562
713	0	1854
714	33	1445
715	2108	2492
716	1263	2157
717	707	1932
718	1307	1633
719	504	1072
720	1050	2788
721	596	2573
722	913	2456
723	1030	2042
724	893	2615
725	1319	2358
726	69	2005
727	0	1792
728	371	2319
729	320	2213
730	516	1066
731	781	2092
732	811	2110
733	516	2144
734	1142	1923
735	667	1197
736	797	2052
737	1031	1930
738	778	2638
739	876	2830
740	1281	1927
741	787	1859
742	0	1289
743	1509	2467
744	761	1510
745	864	2115
746	552	2254
747	913	2327
748	580	2483
749	1101	2882
750	1151	1939
751	718	1254
752	1111	1574
753	359	1474
754	2017	2437
755	156	957
756	702	1982
757	1337	1811
758	776	1411
759	1472	2129
760	1993	3000
761	765	1808
762	953	1779
763	1109	2710
764	1346	2247
765	6	1203
766	938	1264
767	1069	2406
768	345	2292
769	1095	1528
770	1315	1741
771	0	1758
772	306	1164
773	1261	3000
774	1052	1867
775	285	1313
776	919	2655
777	166	1960
778	569	1358
779	1434	2572
780	0	1706
781	0	783
782	892	2485
783	611	2285
784	81	1477
785	1030	1332
786	756	2085
787	654	2007
788	443	2167
789	611	1709
790	1879	2765
791	574	1234
792	1323	1996
793	1632	2896
794	860	1915
795	499	1940
796	650	2530
797	1044	1253
798	912	1384
799	1042	1830
800	167	1552
801	1868	2283
802	349	1725
803	1307	1626
804	881	2109
805	393	1713
806	1482	2544
807	1765	2070
808	795	2354
809	1332	1769
810	1223	1563
811	741	2472
812	1330	1637
813	1147	3000
814	944	1424
815	1595	1980
816	1138	1560
817	604	1849
818	884	2416
819	0	1655
820	1168	1602
821	313	2262
822	312	1891
823	303	1846
824	560	2079
825	935	2147
826	1104	1863
827	1558	3000
828	1141	2344
829	928	2021
830	317	2005
831	954	2624
832	1701	2442
833	197	2063
834	508	2096
835	256	1858
836	780	2703
837	1107	2065
838	252	2156
839	470	2375
840	1200	2082
841	508	723
842	772	978
843	996	1266
844	485	1747
845	629	1291
846	496	2027
847	899	2201
848	1020	2427
849	403	1975
850	798	2332
851	1700	1955
852	1490	1906
853	1212	1516
854	12	1617
855	489	1763
856	1546	2983
857	912	2405
858	512	1579
859	101	1645
860	1780	1998
861	1791	2043
862	1756	2179
863	911	1679
864	455	2400
865	1786	2329
866	864	1265
867	1493	1917
868	655	1301
869	939	2678
870	335	606
871	266	1967
872	1431	1833
873	716	1867
874	1298	2144
875	715	2474
876	1493	1751
877	742	1085
878	421	2058
879	1281	2458
880	555	2140
881	484	1571
882	698	2265
883	875	1867
884	1080	2008
885	219	1943
886	1480	2214
887	270	497
888	590	1900
889	850	1488
890	1893	2268
891	2033	2930
892	1805	2913
893	478	1356
894	441	2160
895	848	2440
896	621	1991
897	947	1799
898	1012	1429
899	1543	2720
900	865	2318
901	12	1975
902	763	1592
903	1428	2763
904	1591	2070
905	449	1663
906	785	2583
907	1624	2593
908	755	2729
909	362	1853
910	559	2241
911	1056	2500
912	234	2230
913	1309	2238
914	1023	2545
915	1099	2199
916	0	1596
917	435	1717
918	558	1421
919	1268	1934
920	1388	2891
921	1018	1449
922	0	1253
923	1203	1937
924	1007	1810
925	810	1874
926	209	2154
927	1057	2820
928	1011	2097
929	861	1520
930	844	1753
931	0	1468
932	1164	2068
933	931	2925
934	1252	2020
935	942	1742
936	806	1273
937	976	2432
938	1130	3000
939	1515	2221
940	1398	2174
941	645	2047
942	281	1684
943	173	1617
944	580	2153
945	1622	3000
946	1078	2177
947	0	1329
948	886	1172
949	789	2178
950	750	1983
951	158	1320
952	36	1695
953	1482	1716
954	1019	1896
955	780	2704
956	342	1446
957	1443	1715
958	548	2367
959	403	2138
960	98	2067
961	1188	2145
962	627	1676
963	640	2298
964	478	2121
965	1291	1995
966	493	2092
967	123	1874
968	721	1799
969	609	1365
970	399	2059
971	1515	2202
972	1044	2890
973	1875	2423
974	1407	2624
975	1443	1834
976	1238	2506
977	641	1564
978	394	2123
979	540	1548
980	1300	2150
981	532	1848
982	861	1089
983	2102	2541
984	1564	2014
985	1209	1521
986	1726	2127
987	1274	1766
988	1402	2081
989	324	2057
990	570	2554
991	693	1562
992	1317	1820
993	272	1862
994	731	2365
995	920	1671
996	864	2272
997	1124	1909
998	483	1928
999	1261	1635
1000	1574	2378
1001	0	1913
BACKHAUL_SECTION
8	19	28	30	31	39	40	42	45	46	49	58	66	72	73	89	90	104	106	111	121	126	127	128	134	137	145	150	152	155	189	191	203	204	206	220	233	236	239	241	242	246	248	259	260	270	279	298	305	307	308	311	313	316	325	330	331	342	343	344	347	350	352	357	366	369	371	372	375	392	400	401	407	412	416	417	431	432	441	444	447	455	462	463	466	467	472	474	489	495	501	506	513	514	516	520	522	523	527	531	534	541	545	547	557	567	576	581	585	586	589	592	596	599	607	617	622	635	642	649	653	665	666	668	670	684	689	692	693	695	700	717	720	722	723	724	728	733	737	743	748	750	752	755	757	764	766	780	788	789	790	791	793	796	800	801	802	815	816	817	818	823	825	833	836	838	843	845	857	862	871	875	889	897	902	904	909	910	915	924	928	936	941	943	944	945	955	957	959	961	966	968	972	974	983	984	994	996	997	999	-1
DEPOT_SECTION
1
-1
EOF
