NAME : n1001-0026
COMMENT : "Generated by pyvrp_manuel (VRPBTW)"
TYPE : VRPBTW
DIMENSION : 1001
EDGE_WEIGHT_TYPE : EUC_2D
CAPACITY : 150
VEHICLES : 1000
SERVICE_TIME : 200
NODE_COORD_SECTION
1	239	367
2	385	593
3	246	357
4	825	929
5	918	891
6	386	935
7	129	505
8	575	627
9	301	103
10	257	788
11	717	567
12	151	463
13	915	77
14	694	128
15	654	366
16	444	925
17	429	150
18	476	351
19	274	896
20	127	886
21	808	869
22	289	647
23	212	90
24	629	203
25	535	311
26	789	17
27	635	371
28	965	939
29	203	793
30	734	173
31	4	531
32	970	58
33	176	641
34	135	946
35	368	149
36	593	438
37	627	420
38	108	567
39	7	961
40	594	360
41	829	794
42	39	162
43	196	894
44	449	155
45	514	574
46	759	631
47	464	260
48	606	988
49	375	952
50	697	523
51	653	223
52	321	69
53	118	589
54	414	2
55	186	507
56	809	750
57	490	662
58	936	650
59	255	676
60	445	45
61	956	736
62	842	764
63	103	533
64	683	874
65	122	403
66	668	816
67	91	408
68	377	460
69	257	966
70	709	937
71	597	537
72	184	342
73	65	717
74	11	979
75	634	560
76	373	875
77	211	186
78	532	916
79	953	225
80	979	240
81	476	973
82	666	977
83	74	286
84	839	877
85	263	969
86	887	69
87	800	638
88	811	977
89	165	180
90	797	171
91	775	510
92	977	632
93	928	969
94	507	350
95	749	900
96	438	89
97	766	915
98	284	657
99	569	683
100	168	826
101	654	278
102	569	823
103	652	491
104	711	404
105	203	19
106	587	709
107	422	190
108	755	235
109	281	542
110	41	714
111	649	426
112	651	942
113	337	582
114	573	980
115	650	867
116	287	179
117	797	373
118	762	141
119	83	745
120	508	38
121	599	53
122	640	125
123	257	901
124	105	180
125	800	809
126	267	994
127	255	995
128	195	698
129	674	755
130	547	552
131	731	774
132	97	228
133	314	523
134	199	788
135	491	417
136	744	688
137	24	855
138	832	203
139	931	906
140	500	273
141	897	567
142	194	450
143	551	245
144	865	278
145	75	222
146	91	86
147	107	203
148	589	378
149	26	234
150	752	200
151	256	227
152	438	569
153	806	383
154	478	617
155	730	351
156	510	646
157	862	159
158	592	265
159	267	486
160	865	109
161	75	383
162	901	528
163	28	705
164	544	408
165	107	536
166	446	840
167	458	632
168	546	817
169	550	816
170	255	951
171	235	735
172	91	649
173	987	359
174	708	128
175	272	579
176	763	687
177	408	623
178	846	972
179	383	929
180	167	608
181	4	172
182	423	921
183	102	497
184	30	373
185	594	147
186	276	312
187	885	275
188	506	625
189	58	472
190	134	152
191	261	942
192	712	663
193	417	857
194	319	426
195	96	550
196	845	109
197	903	758
198	499	798
199	960	819
200	929	929
201	413	415
202	530	321
203	379	871
204	176	292
205	745	943
206	793	340
207	681	886
208	906	726
209	653	221
210	912	626
211	27	917
212	635	489
213	543	389
214	814	991
215	759	401
216	709	606
217	42	146
218	747	270
219	754	939
220	183	652
221	715	949
222	51	435
223	860	363
224	268	792
225	702	50
226	47	246
227	659	826
228	623	505
229	293	968
230	904	482
231	190	467
232	591	717
233	664	615
234	534	864
235	4	593
236	610	817
237	263	791
238	49	110
239	96	718
240	748	169
241	664	915
242	311	171
243	22	248
244	282	348
245	55	428
246	721	429
247	344	352
248	774	64
249	360	130
250	525	509
251	391	533
252	750	857
253	119	249
254	278	221
255	307	599
256	378	98
257	184	998
258	3	16
259	890	429
260	525	404
261	256	880
262	340	687
263	461	754
264	426	111
265	743	360
266	984	522
267	432	131
268	358	140
269	209	281
270	649	786
271	616	499
272	414	585
273	994	667
274	209	703
275	802	669
276	891	19
277	349	206
278	100	805
279	184	57
280	7	270
281	247	62
282	961	696
283	800	637
284	907	127
285	154	94
286	109	307
287	166	398
288	383	677
289	386	211
290	204	399
291	14	577
292	283	569
293	784	242
294	215	692
295	45	617
296	714	859
297	266	582
298	661	992
299	152	817
300	624	188
301	399	503
302	712	420
303	669	170
304	446	703
305	312	387
306	174	290
307	207	279
308	719	784
309	77	283
310	549	7
311	785	400
312	71	889
313	694	132
314	826	281
315	137	363
316	37	87
317	704	111
318	791	839
319	399	792
320	648	996
321	762	127
322	864	614
323	487	488
324	770	572
325	599	568
326	755	108
327	842	380
328	85	193
329	539	361
330	870	705
331	410	270
332	37	127
333	405	679
334	43	367
335	108	944
336	417	837
337	219	549
338	156	280
339	824	335
340	239	166
341	662	192
342	899	178
343	320	813
344	187	128
345	788	233
346	318	916
347	967	690
348	609	164
349	654	819
350	127	855
351	62	459
352	304	250
353	563	978
354	121	742
355	952	418
356	975	464
357	878	207
358	620	290
359	964	236
360	935	698
361	224	110
362	298	347
363	17	89
364	998	16
365	247	31
366	522	131
367	879	515
368	431	580
369	998	354
370	841	671
371	278	414
372	2	433
373	979	30
374	590	991
375	279	97
376	869	892
377	293	330
378	873	425
379	565	135
380	730	499
381	85	808
382	525	885
383	753	677
384	760	493
385	423	87
386	656	901
387	638	548
388	980	451
389	395	228
390	810	351
391	815	846
392	407	644
393	248	496
394	397	506
395	644	799
396	971	122
397	177	306
398	777	986
399	712	962
400	275	44
401	723	330
402	86	934
403	212	979
404	285	218
405	642	959
406	390	767
407	91	930
408	147	982
409	439	558
410	542	909
411	316	362
412	456	195
413	129	407
414	228	451
415	934	186
416	662	810
417	970	352
418	276	142
419	791	741
420	749	424
421	195	421
422	570	858
423	901	510
424	655	144
425	90	401
426	190	218
427	772	526
428	122	235
429	759	480
430	988	702
431	947	482
432	714	929
433	811	353
434	692	553
435	379	671
436	133	86
437	499	778
438	701	144
439	59	317
440	453	375
441	925	47
442	638	114
443	410	414
444	393	124
445	648	50
446	977	795
447	439	142
448	454	440
449	212	457
450	719	399
451	125	935
452	171	117
453	373	584
454	735	561
455	892	159
456	147	758
457	680	45
458	331	733
459	845	794
460	342	547
461	256	603
462	23	383
463	314	941
464	94	614
465	204	357
466	859	355
467	942	630
468	244	128
469	186	973
470	614	812
471	516	13
472	399	867
473	555	76
474	325	975
475	417	115
476	516	520
477	659	961
478	675	648
479	260	789
480	803	343
481	299	48
482	590	693
483	530	34
484	380	57
485	521	668
486	232	243
487	396	808
488	640	477
489	838	981
490	337	481
491	327	172
492	987	393
493	535	716
494	831	331
495	451	287
496	444	699
497	806	233
498	511	356
499	818	304
500	621	374
501	92	749
502	485	331
503	8	902
504	995	84
505	494	840
506	284	122
507	89	263
508	82	973
509	481	21
510	180	459
511	805	2
512	488	171
513	267	195
514	312	27
515	215	464
516	671	773
517	968	805
518	656	119
519	387	625
520	13	708
521	861	604
522	180	94
523	249	638
524	465	319
525	424	14
526	308	603
527	954	392
528	253	880
529	107	759
530	901	435
531	613	567
532	628	925
533	805	147
534	907	161
535	804	248
536	117	962
537	550	310
538	603	333
539	104	681
540	847	593
541	887	275
542	224	753
543	154	914
544	571	44
545	175	288
546	496	543
547	518	212
548	93	649
549	368	250
550	132	480
551	698	122
552	556	862
553	462	389
554	327	424
555	840	517
556	150	815
557	726	376
558	166	232
559	426	158
560	257	172
561	976	112
562	242	904
563	416	965
564	48	668
565	612	713
566	818	174
567	772	100
568	115	794
569	962	451
570	207	78
571	576	0
572	302	664
573	867	438
574	71	350
575	787	714
576	409	951
577	103	703
578	963	874
579	773	234
580	146	637
581	731	90
582	858	990
583	249	698
584	83	75
585	20	537
586	810	484
587	468	192
588	171	699
589	285	438
590	186	200
591	953	773
592	97	876
593	177	971
594	974	442
595	597	242
596	445	190
597	824	598
598	246	400
599	448	901
600	761	749
601	575	428
602	495	204
603	25	933
604	740	359
605	363	354
606	16	428
607	624	685
608	751	743
609	314	805
610	574	477
611	829	162
612	554	51
613	716	100
614	770	284
615	228	96
616	538	213
617	668	201
618	792	927
619	772	565
620	196	92
621	720	118
622	188	672
623	274	924
624	956	839
625	471	549
626	311	699
627	983	420
628	444	611
629	96	649
630	453	75
631	251	552
632	484	588
633	622	302
634	677	316
635	551	932
636	103	8
637	273	64
638	997	851
639	655	896
640	118	632
641	483	558
642	723	915
643	820	769
644	692	263
645	123	672
646	23	673
647	977	338
648	518	46
649	842	392
650	812	578
651	508	596
652	851	682
653	994	835
654	512	993
655	868	121
656	699	114
657	133	954
658	486	306
659	181	546
660	596	517
661	699	408
662	934	574
663	245	681
664	16	495
665	214	806
666	351	296
667	259	575
668	2	630
669	678	613
670	209	908
671	803	508
672	245	262
673	284	555
674	213	738
675	369	268
676	912	895
677	73	504
678	571	246
679	135	354
680	105	299
681	735	114
682	195	77
683	129	47
684	714	130
685	69	311
686	874	118
687	535	224
688	148	936
689	323	597
690	859	927
691	712	137
692	434	585
693	566	231
694	465	250
695	991	287
696	827	853
697	847	50
698	120	178
699	146	177
700	595	498
701	594	944
702	62	659
703	342	113
704	49	993
705	38	741
706	234	647
707	765	440
708	535	825
709	273	54
710	546	344
711	558	889
712	786	309
713	229	144
714	882	81
715	970	919
716	33	911
717	250	364
718	651	694
719	350	681
720	563	10
721	416	222
722	541	939
723	134	718
724	614	317
725	741	685
726	492	705
727	78	706
728	204	604
729	744	598
730	74	533
731	136	963
732	760	152
733	472	177
734	691	363
735	650	931
736	754	870
737	120	758
738	908	503
739	502	520
740	152	143
741	670	2
742	483	987
743	169	700
744	845	858
745	820	9
746	959	774
747	104	272
748	114	337
749	649	709
750	533	38
751	291	569
752	340	81
753	425	469
754	350	796
755	991	551
756	326	211
757	882	928
758	553	216
759	207	836
760	862	716
761	151	147
762	628	464
763	583	128
764	302	661
765	682	886
766	407	787
767	613	334
768	627	422
769	873	133
770	22	109
771	100	329
772	266	435
773	442	120
774	891	2
775	69	286
776	22	954
777	232	897
778	272	640
779	206	899
780	980	596
781	120	557
782	716	171
783	107	399
784	963	279
785	193	973
786	927	318
787	657	100
788	422	707
789	31	273
790	195	39
791	54	699
792	522	458
793	597	412
794	788	644
795	810	89
796	405	930
797	122	626
798	846	253
799	263	683
800	46	310
801	761	645
802	134	73
803	910	711
804	150	455
805	777	913
806	309	336
807	270	381
808	113	120
809	828	270
810	141	317
811	188	610
812	866	798
813	485	455
814	523	338
815	811	955
816	170	637
817	967	13
818	668	920
819	848	489
820	91	861
821	464	611
822	527	660
823	894	822
824	472	80
825	495	365
826	647	106
827	438	156
828	131	934
829	844	385
830	330	248
831	372	53
832	686	469
833	290	979
834	351	321
835	674	100
836	19	567
837	885	766
838	103	23
839	329	17
840	444	79
841	790	103
842	171	203
843	716	254
844	123	885
845	905	309
846	188	410
847	707	699
848	460	862
849	668	106
850	488	924
851	866	706
852	956	681
853	213	887
854	549	491
855	86	502
856	947	967
857	336	398
858	440	436
859	317	89
860	718	763
861	501	827
862	954	250
863	949	135
864	974	6
865	791	856
866	512	281
867	390	579
868	833	704
869	809	846
870	486	208
871	679	206
872	177	12
873	6	80
874	790	131
875	253	21
876	735	260
877	226	660
878	227	675
879	207	459
880	649	820
881	821	835
882	48	564
883	544	109
884	820	405
885	415	583
886	435	872
887	842	282
888	707	900
889	228	950
890	193	282
891	250	429
892	286	467
893	374	170
894	493	1
895	850	272
896	824	254
897	863	555
898	437	297
899	503	141
900	344	121
901	570	348
902	665	11
903	943	364
904	918	544
905	219	257
906	347	887
907	719	459
908	542	958
909	760	439
910	257	88
911	503	280
912	807	674
913	741	638
914	499	645
915	672	464
916	375	122
917	910	962
918	207	637
919	702	170
920	95	46
921	338	534
922	883	304
923	193	957
924	419	37
925	292	213
926	796	989
927	501	498
928	773	493
929	707	855
930	118	825
931	254	730
932	223	229
933	370	879
934	120	888
935	164	988
936	335	768
937	451	934
938	54	662
939	298	906
940	690	395
941	61	600
942	646	461
943	718	594
944	101	149
945	303	422
946	973	220
947	260	829
948	222	375
949	705	311
950	945	595
951	93	366
952	401	510
953	391	673
954	744	405
955	258	487
956	825	924
957	267	774
958	67	267
959	298	135
960	221	812
961	236	856
962	822	577
963	688	732
964	50	827
965	842	599
966	584	369
967	165	614
968	436	772
969	91	981
970	762	620
971	885	576
972	771	931
973	703	275
974	166	306
975	247	705
976	290	933
977	702	863
978	385	605
979	180	500
980	829	274
981	127	123
982	259	376
983	942	253
984	525	649
985	467	249
986	376	325
987	107	133
988	248	862
989	333	278
990	486	134
991	450	143
992	771	840
993	759	491
994	976	248
995	866	518
996	384	89
997	645	485
998	849	380
999	381	943
1000	450	379
1001	580	189
DEMAND_SECTION
1	0
2	4
3	4
4	9
5	4
6	9
7	9
8	9
9	4
10	6
11	8
12	1
13	8
14	6
15	3
16	8
17	7
18	6
19	4
20	8
21	4
22	6
23	8
24	2
25	9
26	5
27	3
28	2
29	7
30	8
31	7
32	3
33	7
34	6
35	2
36	5
37	2
38	5
39	1
40	1
41	4
42	1
43	2
44	2
45	4
46	4
47	7
48	6
49	3
50	6
51	3
52	2
53	7
54	5
55	5
56	7
57	5
58	6
59	8
60	3
61	5
62	6
63	1
64	2
65	3
66	8
67	4
68	9
69	8
70	6
71	2
72	1
73	5
74	3
75	6
76	7
77	9
78	7
79	3
80	1
81	1
82	8
83	1
84	7
85	3
86	1
87	9
88	4
89	6
90	9
91	5
92	8
93	1
94	5
95	7
96	3
97	8
98	8
99	3
100	2
101	3
102	4
103	8
104	2
105	8
106	6
107	4
108	3
109	7
110	3
111	6
112	9
113	5
114	1
115	4
116	9
117	7
118	2
119	3
120	1
121	7
122	6
123	7
124	2
125	8
126	1
127	7
128	5
129	9
130	7
131	8
132	8
133	6
134	5
135	3
136	9
137	5
138	7
139	7
140	5
141	6
142	3
143	3
144	8
145	4
146	8
147	5
148	7
149	7
150	3
151	7
152	3
153	8
154	6
155	4
156	5
157	2
158	2
159	3
160	4
161	4
162	8
163	1
164	2
165	9
166	8
167	9
168	9
169	1
170	9
171	5
172	7
173	4
174	2
175	3
176	8
177	3
178	1
179	5
180	8
181	9
182	1
183	6
184	5
185	9
186	2
187	7
188	7
189	5
190	7
191	1
192	5
193	8
194	6
195	1
196	2
197	8
198	2
199	4
200	1
201	6
202	2
203	6
204	2
205	8
206	9
207	9
208	4
209	6
210	1
211	8
212	4
213	2
214	1
215	7
216	9
217	1
218	4
219	9
220	3
221	6
222	8
223	5
224	5
225	7
226	2
227	7
228	8
229	9
230	8
231	2
232	8
233	2
234	6
235	3
236	7
237	5
238	3
239	1
240	6
241	3
242	6
243	1
244	2
245	4
246	1
247	3
248	2
249	4
250	2
251	4
252	1
253	7
254	6
255	8
256	8
257	3
258	2
259	3
260	7
261	6
262	5
263	6
264	5
265	1
266	9
267	6
268	5
269	1
270	5
271	3
272	4
273	1
274	2
275	6
276	9
277	9
278	9
279	2
280	8
281	1
282	5
283	2
284	4
285	1
286	2
287	2
288	4
289	3
290	4
291	3
292	8
293	4
294	5
295	3
296	5
297	8
298	5
299	4
300	1
301	2
302	6
303	4
304	6
305	2
306	3
307	9
308	6
309	6
310	6
311	3
312	4
313	5
314	7
315	6
316	6
317	9
318	9
319	3
320	8
321	2
322	1
323	3
324	3
325	9
326	8
327	3
328	2
329	6
330	2
331	6
332	7
333	1
334	3
335	7
336	2
337	6
338	2
339	7
340	5
341	6
342	9
343	5
344	4
345	5
346	8
347	8
348	4
349	6
350	4
351	3
352	7
353	6
354	8
355	7
356	4
357	6
358	6
359	8
360	7
361	5
362	9
363	3
364	2
365	9
366	4
367	3
368	5
369	4
370	9
371	5
372	8
373	9
374	5
375	2
376	6
377	7
378	8
379	6
380	8
381	8
382	3
383	5
384	7
385	1
386	5
387	5
388	2
389	2
390	1
391	3
392	2
393	9
394	8
395	1
396	4
397	1
398	2
399	9
400	8
401	2
402	8
403	8
404	3
405	5
406	7
407	4
408	1
409	7
410	3
411	4
412	4
413	6
414	6
415	6
416	2
417	2
418	4
419	4
420	4
421	1
422	1
423	3
424	2
425	7
426	6
427	8
428	7
429	1
430	1
431	1
432	6
433	2
434	9
435	2
436	1
437	2
438	6
439	4
440	5
441	5
442	7
443	6
444	9
445	7
446	4
447	4
448	1
449	8
450	4
451	9
452	2
453	4
454	1
455	3
456	2
457	8
458	9
459	6
460	1
461	8
462	1
463	2
464	6
465	2
466	7
467	1
468	7
469	2
470	1
471	6
472	5
473	5
474	4
475	5
476	3
477	4
478	8
479	1
480	1
481	2
482	7
483	7
484	8
485	5
486	4
487	9
488	6
489	5
490	4
491	7
492	5
493	5
494	9
495	6
496	5
497	7
498	2
499	5
500	8
501	5
502	7
503	3
504	1
505	3
506	5
507	4
508	4
509	9
510	5
511	2
512	4
513	1
514	4
515	9
516	4
517	7
518	4
519	8
520	1
521	5
522	1
523	7
524	5
525	8
526	6
527	3
528	2
529	1
530	7
531	4
532	8
533	2
534	6
535	2
536	4
537	6
538	3
539	6
540	8
541	8
542	9
543	4
544	1
545	6
546	6
547	2
548	5
549	7
550	2
551	6
552	7
553	5
554	8
555	4
556	4
557	9
558	9
559	6
560	2
561	3
562	9
563	6
564	9
565	3
566	7
567	7
568	1
569	4
570	5
571	7
572	8
573	3
574	2
575	1
576	4
577	3
578	5
579	4
580	3
581	4
582	2
583	8
584	3
585	8
586	4
587	2
588	6
589	4
590	5
591	6
592	7
593	6
594	8
595	9
596	2
597	9
598	1
599	2
600	6
601	6
602	7
603	5
604	1
605	3
606	9
607	8
608	5
609	7
610	6
611	6
612	6
613	8
614	3
615	9
616	6
617	7
618	6
619	6
620	6
621	8
622	9
623	2
624	4
625	7
626	7
627	5
628	4
629	6
630	8
631	9
632	8
633	7
634	6
635	9
636	5
637	9
638	5
639	7
640	4
641	5
642	8
643	8
644	3
645	2
646	8
647	7
648	7
649	2
650	3
651	3
652	7
653	8
654	7
655	3
656	4
657	7
658	1
659	7
660	2
661	5
662	6
663	3
664	1
665	3
666	7
667	1
668	2
669	3
670	7
671	9
672	1
673	3
674	9
675	1
676	2
677	3
678	9
679	4
680	3
681	5
682	9
683	1
684	3
685	7
686	1
687	9
688	1
689	6
690	8
691	9
692	1
693	2
694	8
695	3
696	1
697	2
698	8
699	2
700	1
701	3
702	5
703	3
704	9
705	2
706	8
707	9
708	8
709	3
710	5
711	9
712	2
713	9
714	9
715	7
716	9
717	5
718	9
719	9
720	8
721	1
722	7
723	2
724	2
725	9
726	7
727	7
728	2
729	9
730	3
731	5
732	1
733	3
734	7
735	7
736	2
737	8
738	5
739	1
740	5
741	9
742	1
743	2
744	9
745	6
746	5
747	4
748	2
749	4
750	1
751	9
752	9
753	7
754	6
755	7
756	3
757	6
758	7
759	7
760	1
761	5
762	6
763	5
764	6
765	2
766	5
767	5
768	1
769	6
770	7
771	9
772	6
773	2
774	9
775	7
776	5
777	6
778	4
779	9
780	1
781	9
782	5
783	2
784	5
785	5
786	5
787	8
788	6
789	9
790	6
791	8
792	1
793	5
794	9
795	3
796	5
797	4
798	9
799	6
800	4
801	7
802	6
803	2
804	9
805	9
806	4
807	6
808	3
809	2
810	2
811	3
812	5
813	9
814	4
815	4
816	1
817	5
818	8
819	9
820	4
821	7
822	5
823	5
824	2
825	5
826	4
827	3
828	8
829	1
830	1
831	3
832	1
833	4
834	2
835	8
836	9
837	8
838	1
839	4
840	9
841	3
842	4
843	2
844	2
845	8
846	1
847	7
848	3
849	1
850	8
851	6
852	2
853	5
854	8
855	7
856	7
857	1
858	8
859	9
860	6
861	3
862	9
863	6
864	6
865	6
866	4
867	7
868	4
869	5
870	3
871	9
872	2
873	8
874	9
875	3
876	8
877	2
878	6
879	4
880	2
881	1
882	6
883	4
884	5
885	6
886	7
887	2
888	6
889	5
890	2
891	7
892	7
893	5
894	6
895	4
896	1
897	2
898	6
899	5
900	8
901	5
902	3
903	5
904	8
905	4
906	6
907	2
908	8
909	6
910	1
911	1
912	1
913	5
914	2
915	7
916	3
917	7
918	3
919	4
920	6
921	5
922	9
923	7
924	3
925	4
926	6
927	4
928	1
929	3
930	7
931	8
932	2
933	9
934	8
935	6
936	1
937	2
938	2
939	8
940	1
941	4
942	3
943	7
944	1
945	2
946	5
947	6
948	3
949	4
950	8
951	9
952	2
953	7
954	2
955	3
956	1
957	5
958	9
959	2
960	1
961	5
962	3
963	5
964	5
965	3
966	2
967	6
968	6
969	5
970	4
971	5
972	1
973	8
974	8
975	7
976	9
977	4
978	9
979	5
980	5
981	5
982	5
983	8
984	5
985	8
986	4
987	7
988	6
989	2
990	9
991	9
992	6
993	4
994	1
995	6
996	9
997	6
998	4
999	9
1000	2
1001	7
TIME_WINDOW_SECTION
1	0	3000
2	836	1988
3	0	872
4	1305	2479
5	1044	2388
6	1159	2299
7	45	1734
8	0	1735
9	0	929
10	126	1144
11	851	1829
12	1292	3000
13	161	1652
14	498	1763
15	1406	2489
16	645	1025
17	1366	2695
18	145	1092
19	717	1498
20	147	1803
21	892	2026
22	2077	2610
23	166	1015
24	1409	2736
25	1626	2308
26	994	1725
27	698	2129
28	457	1476
29	1174	2557
30	287	1987
31	620	1894
32	361	1811
33	0	1233
34	214	1399
35	1528	2850
36	507	1817
37	1014	1570
38	780	1031
39	1188	1398
40	1239	1855
41	1182	2256
42	1565	2167
43	699	1943
44	1471	2735
45	0	997
46	341	2061
47	1826	2442
48	1446	2571
49	1609	2712
50	1340	1878
51	230	1556
52	1377	2090
53	0	1188
54	7	1603
55	243	1916
56	1140	2294
57	1266	2539
58	1063	2772
59	293	2024
60	497	2004
61	703	1138
62	313	1598
63	1681	2586
64	1038	2524
65	0	671
66	1405	1798
67	0	1693
68	1997	3000
69	477	2303
70	667	1162
71	1843	2658
72	439	2167
73	124	1530
74	1951	2295
75	562	1210
76	558	1550
77	0	1738
78	914	1916
79	1439	1731
80	485	1382
81	767	1968
82	1466	2082
83	376	1838
84	275	1742
85	707	1718
86	155	1641
87	583	2284
88	578	1681
89	0	1424
90	58	1735
91	1299	2891
92	727	2484
93	1027	1812
94	671	1775
95	0	1689
96	390	1231
97	1058	2523
98	1806	2184
99	501	992
100	1708	2612
101	313	1958
102	1794	2656
103	1078	1302
104	1078	1360
105	640	1684
106	262	1563
107	0	810
108	239	2145
109	1735	2927
110	843	1916
111	0	991
112	1385	2430
113	2347	2569
114	832	1644
115	842	1346
116	1232	2186
117	1341	2636
118	839	2500
119	992	2842
120	744	2111
121	591	966
122	414	1173
123	0	1658
124	0	1510
125	1493	2646
126	1309	2832
127	546	2394
128	615	1760
129	692	1460
130	1897	2405
131	258	1501
132	898	2632
133	448	1355
134	1343	3000
135	713	2565
136	1148	2281
137	235	1050
138	538	1217
139	1159	1543
140	309	1244
141	744	1775
142	2146	3000
143	600	858
144	1749	2046
145	1545	2139
146	1844	2456
147	1130	1676
148	713	2220
149	1264	1876
150	433	781
151	779	1612
152	500	1048
153	326	1478
154	1158	2037
155	1410	2986
156	926	2471
157	469	1189
158	139	830
159	1538	1883
160	1478	2275
161	1125	2287
162	553	2064
163	1860	2273
164	593	1042
165	1824	2342
166	610	1128
167	883	1690
168	1104	1341
169	1081	2185
170	113	1720
171	605	2012
172	1770	2238
173	1852	2146
174	1803	2447
175	781	2188
176	820	2412
177	1366	1837
178	752	1019
179	1527	2833
180	381	815
181	658	944
182	639	979
183	897	1853
184	1792	2380
185	1095	1499
186	1602	2018
187	1441	1930
188	1667	3000
189	1766	2980
190	760	1928
191	630	2107
192	448	1545
193	1693	2062
194	1201	2073
195	1445	2024
196	458	2068
197	766	1902
198	354	1348
199	468	1972
200	1533	2070
201	980	2645
202	165	1182
203	195	1609
204	203	503
205	454	1716
206	111	1669
207	767	2595
208	791	2286
209	217	1085
210	0	1509
211	537	1327
212	1476	3000
213	190	1849
214	1027	2582
215	1367	1707
216	2019	2487
217	1754	2493
218	1226	3000
219	806	2663
220	680	1988
221	654	931
222	1817	2241
223	633	1591
224	0	1435
225	534	1697
226	1426	2886
227	1097	2906
228	1700	2914
229	1189	3000
230	714	1126
231	0	561
232	2144	2389
233	760	1089
234	1396	2766
235	1017	2003
236	1904	2443
237	72	1433
238	1331	2197
239	135	1884
240	1515	2226
241	1257	2853
242	501	1334
243	1707	2633
244	0	1239
245	1373	2403
246	1068	2600
247	0	1569
248	0	1733
249	2060	2350
250	1446	2693
251	553	1167
252	1081	2221
253	1599	2341
254	1664	1882
255	1072	2315
256	2015	2777
257	1255	2166
258	0	1001
259	1184	2665
260	2301	2678
261	97	1573
262	1866	2314
263	440	2379
264	0	882
265	1070	3000
266	1537	2233
267	365	1758
268	2037	2255
269	24	1283
270	1131	1626
271	544	1151
272	229	1107
273	497	2169
274	864	1200
275	1626	2216
276	1537	1894
277	1066	2343
278	837	2402
279	0	650
280	1106	1955
281	0	1372
282	995	2249
283	785	2631
284	221	1340
285	1692	2059
286	1860	3000
287	1732	1944
288	0	917
289	0	851
290	791	1281
291	492	854
292	46	1679
293	1024	2184
294	1421	2376
295	1230	1761
296	1751	2114
297	1353	3000
298	1786	2244
299	232	1291
300	1616	2236
301	2166	2816
302	262	1779
303	947	2113
304	488	1888
305	632	1541
306	0	1024
307	81	1745
308	1517	2810
309	0	1056
310	0	1177
311	1205	2108
312	546	2412
313	573	789
314	496	784
315	1047	2398
316	1705	2752
317	1459	2809
318	18	1892
319	61	1844
320	1049	1422
321	1966	2480
322	1467	1842
323	971	1899
324	182	957
325	1558	3000
326	1013	1554
327	787	1064
328	459	2158
329	861	2486
330	1054	2650
331	2390	2631
332	1341	2152
333	208	1562
334	475	1302
335	1021	2318
336	1027	2052
337	1683	2227
338	1847	3000
339	733	956
340	2279	2576
341	37	1941
342	1129	2586
343	9	1005
344	118	763
345	95	1684
346	807	1295
347	351	1417
348	963	2068
349	0	1497
350	1637	2765
351	0	1633
352	689	1720
353	781	1372
354	1774	2733
355	1508	2175
356	1153	2912
357	317	1598
358	587	2153
359	1307	2426
360	1391	1844
361	1418	1716
362	0	1017
363	1385	2175
364	440	1386
365	771	1211
366	178	2037
367	1807	2406
368	525	838
369	301	2018
370	318	1588
371	0	1784
372	598	1303
373	987	1395
374	184	1750
375	0	1224
376	1037	1742
377	325	1055
378	862	1950
379	1522	2267
380	1844	2571
381	105	1400
382	1163	2264
383	662	1550
384	0	1769
385	0	1247
386	1125	2099
387	705	1059
388	1948	2150
389	668	1891
390	0	1595
391	771	2063
392	197	542
393	1368	1706
394	0	1964
395	329	1646
396	1232	2489
397	223	1811
398	1189	1979
399	983	2752
400	907	1335
401	1447	2686
402	1867	2528
403	1275	2000
404	224	2158
405	1222	1679
406	531	1504
407	1689	2538
408	1210	2704
409	732	2352
410	1165	1963
411	1139	2976
412	1633	2167
413	1114	1803
414	677	2207
415	283	1393
416	1546	1848
417	1219	1925
418	19	947
419	978	2145
420	588	1066
421	1752	2702
422	882	2359
423	1772	2185
424	1211	3000
425	0	841
426	996	2692
427	0	1343
428	2063	2968
429	921	2591
430	1575	1896
431	188	1620
432	378	1385
433	1098	2951
434	813	1747
435	1380	3000
436	1780	2481
437	963	2793
438	219	1274
439	1373	2534
440	1112	2084
441	744	2508
442	41	2008
443	445	1699
444	270	1757
445	698	905
446	256	1959
447	1847	2094
448	1038	2878
449	790	1430
450	1776	2221
451	785	1451
452	0	1224
453	1357	2510
454	1316	2406
455	284	2275
456	1144	1984
457	987	1515
458	802	2294
459	848	1636
460	947	2206
461	1765	2759
462	318	1407
463	371	1916
464	0	1481
465	784	2223
466	1840	2057
467	0	1873
468	0	767
469	98	1254
470	1382	2023
471	54	1741
472	641	1944
473	1615	2555
474	343	2317
475	4	1298
476	0	1523
477	582	1628
478	652	1889
479	0	1041
480	625	1120
481	1607	2169
482	1459	2608
483	0	1687
484	332	2131
485	1648	1876
486	474	1688
487	212	1984
488	206	1355
489	902	1560
490	1855	2156
491	1159	1408
492	790	1262
493	1429	1689
494	1351	1829
495	1647	2595
496	0	1595
497	1343	2545
498	1675	2832
499	677	1208
500	0	836
501	1042	1667
502	1445	2923
503	732	2274
504	1725	1969
505	1139	1556
506	211	836
507	0	803
508	208	2046
509	193	1284
510	0	511
511	561	1913
512	1287	2898
513	1006	1893
514	220	1136
515	15	1467
516	1036	2821
517	1418	2395
518	780	2018
519	0	1197
520	896	1713
521	47	1764
522	684	1930
523	2069	2321
524	775	1931
525	89	855
526	1843	2150
527	757	1691
528	1403	2472
529	493	2283
530	1579	1870
531	1623	3000
532	207	1661
533	1056	2903
534	564	2483
535	1047	2985
536	897	1101
537	1163	2815
538	1367	2287
539	1435	1642
540	415	2309
541	1239	2482
542	1480	1692
543	884	1575
544	1222	2562
545	725	2494
546	408	1037
547	1681	2453
548	474	1268
549	991	1516
550	1488	3000
551	1688	2148
552	757	1010
553	561	2365
554	593	2006
555	633	2184
556	0	1490
557	748	1265
558	236	1620
559	1884	2409
560	1266	2591
561	1326	1619
562	1477	1864
563	1093	2562
564	1531	3000
565	1032	2053
566	1254	1819
567	1673	2356
568	1676	2099
569	1175	2589
570	459	685
571	608	1249
572	1731	2981
573	323	1261
574	1386	1772
575	1463	2211
576	1321	2072
577	639	1282
578	1360	2406
579	528	1648
580	1148	2662
581	667	1371
582	346	2295
583	578	2411
584	846	2702
585	707	2605
586	484	2429
587	1163	2187
588	200	2105
589	1521	2140
590	333	1241
591	793	2063
592	482	2237
593	1117	2040
594	520	1093
595	499	1352
596	429	713
597	544	1691
598	0	620
599	584	1230
600	815	2490
601	1538	2269
602	0	1328
603	1312	2077
604	1334	3000
605	1419	2993
606	0	1335
607	35	1971
608	161	1162
609	1754	2439
610	1924	2398
611	1289	2320
612	0	1019
613	0	1635
614	1138	2379
615	440	1816
616	0	1835
617	0	1425
618	1466	2076
619	1194	3000
620	1126	1421
621	1126	2999
622	1192	2148
623	1157	1809
624	466	2450
625	124	824
626	1905	2206
627	496	2395
628	195	1867
629	1719	2239
630	542	1729
631	1062	2725
632	1013	1327
633	1348	1575
634	1296	2944
635	308	1815
636	536	1744
637	2035	2675
638	492	1497
639	1049	2276
640	839	1830
641	0	1623
642	1129	2553
643	493	1771
644	1511	2122
645	566	1745
646	0	1390
647	0	1771
648	0	1175
649	72	1267
650	1195	2675
651	1983	2438
652	1777	2188
653	1467	1735
654	525	2266
655	582	1613
656	483	2083
657	621	1333
658	417	2256
659	1474	2877
660	235	802
661	1131	2183
662	673	2157
663	1173	1722
664	71	1367
665	302	941
666	497	1015
667	153	1735
668	1409	1614
669	495	1365
670	871	2235
671	191	2012
672	1510	3000
673	1044	1433
674	1643	2197
675	82	2036
676	1046	2609
677	1846	2525
678	1304	2697
679	1507	2065
680	0	628
681	782	1215
682	66	1248
683	1319	2633
684	409	1968
685	281	1380
686	551	2334
687	1929	2571
688	1397	2926
689	202	1761
690	382	1455
691	1410	1771
692	223	806
693	230	1794
694	1676	2653
695	1310	1866
696	431	1324
697	1367	1695
698	909	1872
699	1064	1299
700	390	2082
701	916	1246
702	1454	2135
703	334	1010
704	715	1672
705	211	1085
706	485	1831
707	369	1482
708	953	2173
709	1071	1627
710	1160	2281
711	396	1350
712	1502	1794
713	2107	2653
714	1432	2760
715	531	2220
716	1251	1638
717	2531	2814
718	199	1846
719	1015	2638
720	722	1800
721	0	1293
722	908	2251
723	1698	2201
724	0	1336
725	1144	1812
726	288	1788
727	386	1628
728	1509	2946
729	984	1233
730	0	1184
731	1586	2565
732	1222	2260
733	1003	1849
734	1088	2782
735	1265	1624
736	521	1762
737	785	2002
738	462	1721
739	1815	3000
740	1123	2618
741	107	2022
742	511	1377
743	2117	2673
744	438	1561
745	1032	2459
746	1280	1728
747	1977	3000
748	505	924
749	1195	2392
750	347	929
751	468	2022
752	1129	1919
753	926	2918
754	1864	2602
755	0	1854
756	1394	2357
757	1291	2262
758	209	1461
759	499	2282
760	234	2042
761	1612	3000
762	153	1810
763	411	731
764	776	1143
765	571	2227
766	1143	1437
767	987	1564
768	108	1834
769	210	2084
770	1881	2148
771	1479	2326
772	1719	3000
773	0	893
774	1068	2790
775	0	472
776	224	1912
777	1028	1821
778	64	1105
779	0	1819
780	1658	2310
781	0	1383
782	592	1317
783	1405	1866
784	1154	1861
785	1005	2625
786	266	1963
787	543	1562
788	1356	2482
789	1693	2767
790	826	1777
791	1229	1875
792	176	708
793	560	1882
794	271	1994
795	703	2641
796	1959	2425
797	1079	1705
798	151	1677
799	1014	2622
800	858	2099
801	997	1254
802	1364	2875
803	1750	2259
804	1653	2464
805	268	1864
806	0	1258
807	807	2301
808	1616	3000
809	556	2101
810	687	2249
811	320	1277
812	978	2642
813	2418	2630
814	1017	1446
815	1458	1935
816	2050	2406
817	1482	2181
818	488	1158
819	355	981
820	433	1947
821	1186	1719
822	1378	2408
823	583	1599
824	1220	2145
825	476	1505
826	1348	1905
827	1483	1944
828	1657	2314
829	1212	2617
830	1894	3000
831	698	2560
832	474	1771
833	388	1089
834	1847	2179
835	416	1070
836	736	2411
837	178	1699
838	295	1015
839	0	1322
840	1993	2604
841	974	2068
842	126	1688
843	377	2200
844	818	1819
845	65	1554
846	643	2112
847	1674	2374
848	9	1884
849	1452	2492
850	1170	2213
851	1397	1982
852	1008	1719
853	557	1207
854	1153	2434
855	407	857
856	227	1680
857	1137	1414
858	2412	2725
859	1327	3000
860	1576	2498
861	1093	2051
862	438	2087
863	1121	1715
864	1443	2193
865	1307	2138
866	0	1122
867	0	1152
868	420	2232
869	773	2028
870	1298	2135
871	251	842
872	0	1455
873	1295	3000
874	946	1898
875	0	983
876	870	2362
877	15	1967
878	1711	2146
879	1720	1944
880	842	2451
881	1064	2852
882	1538	3000
883	258	591
884	1017	2557
885	1057	2722
886	1802	2680
887	688	2607
888	486	2122
889	363	1117
890	1029	1594
891	2024	2797
892	0	1230
893	1093	2347
894	896	2811
895	478	1728
896	954	1903
897	173	2106
898	1143	2781
899	1008	1774
900	821	2791
901	1158	3000
902	51	1799
903	608	1808
904	645	1557
905	0	692
906	353	960
907	536	2435
908	1564	2218
909	0	1692
910	1004	2239
911	1109	1969
912	578	869
913	1179	2790
914	690	939
915	343	1241
916	1202	3000
917	1581	2160
918	156	623
919	1712	2375
920	204	513
921	610	1322
922	776	2569
923	1954	2407
924	0	1652
925	358	783
926	1245	1845
927	434	1714
928	1009	1475
929	0	1769
930	0	1275
931	366	925
932	1686	2178
933	1202	3000
934	729	1484
935	1621	2271
936	0	1885
937	1105	2835
938	421	1512
939	259	904
940	975	2472
941	1060	2461
942	1113	2077
943	1930	2194
944	0	1503
945	0	814
946	642	1340
947	620	2314
948	114	532
949	0	1183
950	637	2192
951	408	1074
952	89	513
953	648	1324
954	609	1518
955	0	1437
956	752	1030
957	157	1164
958	1246	1531
959	0	1477
960	1187	2189
961	387	1306
962	132	1629
963	760	1568
964	415	1345
965	782	1973
966	1480	2587
967	0	1335
968	474	2114
969	1574	2172
970	941	2541
971	571	901
972	356	2187
973	1018	2208
974	1243	1877
975	231	732
976	1294	2216
977	1082	2701
978	191	564
979	0	892
980	683	2654
981	1920	2762
982	1745	2372
983	695	1130
984	743	1662
985	0	1054
986	2171	2621
987	1540	2089
988	1060	2138
989	199	1285
990	1303	2655
991	119	1920
992	1457	2111
993	1342	2088
994	1170	1789
995	1369	1921
996	1064	2279
997	1441	2434
998	680	2294
999	291	1430
1000	1109	2949
1001	0	1833
BACKHAUL_SECTION
8	19	28	30	31	39	40	42	45	46	49	58	66	72	73	89	90	104	106	111	121	126	127	128	134	137	145	150	152	155	189	191	203	204	206	220	233	236	239	241	242	246	248	259	260	270	279	298	305	307	308	311	313	316	325	330	331	342	343	344	347	350	352	357	366	369	371	372	375	392	400	401	407	412	416	417	431	432	441	444	447	455	462	463	466	467	472	474	489	495	501	506	513	514	516	520	522	523	527	531	534	541	545	547	557	567	576	581	585	586	589	592	596	599	607	617	622	635	642	649	653	665	666	668	670	684	689	692	693	695	700	717	720	722	723	724	728	733	737	743	748	750	752	755	757	764	766	780	788	789	790	791	793	796	800	801	802	815	816	817	818	823	825	833	836	838	843	845	857	862	871	875	889	897	902	904	909	910	915	924	928	936	941	943	944	945	955	957	959	961	966	968	972	974	983	984	994	996	997	999	-1
DEPOT_SECTION
1
-1
EOF
