NAME : n1001-0050
COMMENT : "Generated by pyvrp_manuel (VRPBTW)"
TYPE : VRPBTW
DIMENSION : 1001
EDGE_WEIGHT_TYPE : EUC_2D
CAPACITY : 150
VEHICLES : 1000
SERVICE_TIME : 200
NODE_COORD_SECTION
1	690	24
2	139	704
3	318	589
4	630	357
5	513	927
6	643	550
7	206	208
8	841	509
9	429	793
10	452	954
11	856	252
12	202	744
13	635	767
14	810	978
15	854	241
16	96	944
17	98	774
18	772	351
19	259	80
20	56	972
21	148	577
22	90	31
23	875	857
24	410	42
25	740	602
26	678	835
27	730	20
28	330	563
29	961	179
30	46	31
31	33	434
32	660	539
33	848	250
34	494	123
35	726	705
36	15	584
37	398	28
38	401	321
39	777	591
40	881	637
41	960	318
42	170	404
43	669	276
44	477	45
45	710	194
46	19	412
47	863	827
48	972	184
49	45	567
50	597	835
51	3	372
52	84	804
53	245	28
54	27	142
55	290	797
56	708	399
57	912	170
58	771	790
59	357	180
60	513	324
61	725	184
62	510	934
63	705	495
64	543	346
65	693	755
66	873	168
67	770	524
68	60	709
69	679	881
70	958	145
71	627	556
72	903	940
73	521	846
74	111	784
75	273	559
76	609	421
77	158	561
78	793	756
79	344	886
80	253	963
81	547	637
82	642	168
83	4	298
84	552	933
85	837	65
86	63	2
87	766	361
88	83	952
89	668	276
90	999	134
91	515	363
92	62	453
93	413	477
94	237	819
95	174	191
96	193	152
97	556	939
98	264	685
99	980	901
100	604	913
101	540	758
102	365	825
103	6	823
104	549	903
105	373	641
106	75	878
107	40	411
108	149	482
109	228	415
110	144	329
111	125	669
112	308	831
113	18	513
114	3	205
115	710	296
116	184	626
117	205	323
118	741	615
119	33	225
120	621	698
121	551	248
122	323	87
123	709	506
124	423	439
125	822	364
126	610	51
127	680	348
128	273	141
129	317	440
130	535	223
131	245	235
132	954	197
133	698	496
134	853	23
135	738	305
136	78	666
137	466	27
138	437	362
139	240	587
140	958	567
141	244	81
142	665	107
143	83	174
144	258	797
145	244	477
146	840	587
147	455	57
148	254	156
149	274	890
150	289	265
151	434	777
152	619	33
153	628	156
154	555	605
155	132	338
156	681	629
157	793	662
158	895	347
159	358	541
160	306	994
161	234	695
162	347	186
163	745	473
164	764	450
165	589	70
166	894	159
167	449	708
168	14	574
169	382	944
170	733	218
171	468	978
172	737	469
173	593	446
174	683	430
175	717	225
176	632	781
177	836	549
178	635	960
179	316	304
180	113	100
181	753	946
182	905	700
183	970	489
184	175	655
185	326	577
186	296	100
187	647	197
188	241	364
189	561	827
190	303	145
191	953	693
192	187	1
193	296	619
194	278	958
195	885	260
196	67	318
197	250	478
198	172	784
199	460	196
200	454	492
201	790	11
202	957	537
203	61	517
204	255	758
205	691	845
206	434	978
207	69	10
208	223	842
209	318	867
210	145	813
211	222	521
212	166	861
213	788	457
214	340	698
215	473	394
216	402	479
217	850	35
218	341	247
219	860	417
220	862	568
221	6	17
222	339	686
223	742	382
224	957	932
225	605	199
226	82	791
227	825	446
228	670	3
229	933	840
230	705	682
231	371	929
232	574	311
233	194	697
234	789	624
235	745	413
236	406	931
237	841	754
238	601	142
239	469	130
240	587	90
241	927	507
242	432	834
243	413	632
244	781	141
245	641	753
246	475	1000
247	451	960
248	642	362
249	811	976
250	557	260
251	253	181
252	412	84
253	567	57
254	106	852
255	534	387
256	802	702
257	17	739
258	186	636
259	39	437
260	443	312
261	133	95
262	476	230
263	735	197
264	593	741
265	496	502
266	365	994
267	270	289
268	926	722
269	219	313
270	995	314
271	885	245
272	429	727
273	939	203
274	650	259
275	684	286
276	898	516
277	876	901
278	402	134
279	694	747
280	8	670
281	691	147
282	413	861
283	821	918
284	542	438
285	27	910
286	212	898
287	213	306
288	302	819
289	972	275
290	298	521
291	794	541
292	690	537
293	794	370
294	626	495
295	459	873
296	965	912
297	979	479
298	425	387
299	834	111
300	305	929
301	610	503
302	99	49
303	709	644
304	616	966
305	939	445
306	628	417
307	866	173
308	897	501
309	974	207
310	8	549
311	179	352
312	768	648
313	357	903
314	709	297
315	737	839
316	751	941
317	415	533
318	284	516
319	849	735
320	567	925
321	592	0
322	498	41
323	180	19
324	866	158
325	115	275
326	21	396
327	895	620
328	778	597
329	639	413
330	640	781
331	9	215
332	246	914
333	454	66
334	832	29
335	218	459
336	51	78
337	938	15
338	874	758
339	102	821
340	814	509
341	690	928
342	22	759
343	433	28
344	66	590
345	477	54
346	36	713
347	236	254
348	820	738
349	324	736
350	255	550
351	929	687
352	795	905
353	124	156
354	757	434
355	333	135
356	188	504
357	170	895
358	593	499
359	244	512
360	854	273
361	235	171
362	932	859
363	464	238
364	642	575
365	449	892
366	314	331
367	837	884
368	685	50
369	401	635
370	377	14
371	756	623
372	33	831
373	404	815
374	385	185
375	366	252
376	698	406
377	72	718
378	392	158
379	311	40
380	201	904
381	16	801
382	943	556
383	123	176
384	884	585
385	677	259
386	867	404
387	55	839
388	471	896
389	743	858
390	26	27
391	638	369
392	211	386
393	713	876
394	931	708
395	470	826
396	975	454
397	855	590
398	908	95
399	533	94
400	690	282
401	887	550
402	160	250
403	57	67
404	939	307
405	542	609
406	630	171
407	29	702
408	352	550
409	533	203
410	863	890
411	706	665
412	139	94
413	167	309
414	799	14
415	298	785
416	20	18
417	693	93
418	458	447
419	304	25
420	129	20
421	275	552
422	416	760
423	651	820
424	550	786
425	325	588
426	549	802
427	801	763
428	476	748
429	779	313
430	370	587
431	145	180
432	586	860
433	406	792
434	303	733
435	1	75
436	918	89
437	831	497
438	25	756
439	28	315
440	780	385
441	970	780
442	770	897
443	654	777
444	635	751
445	823	304
446	700	227
447	627	129
448	514	109
449	532	6
450	567	439
451	821	562
452	694	721
453	327	974
454	611	530
455	377	15
456	584	819
457	24	198
458	755	338
459	821	902
460	674	958
461	204	556
462	980	468
463	896	571
464	113	992
465	641	374
466	310	153
467	292	104
468	239	387
469	992	573
470	626	374
471	897	710
472	137	111
473	316	690
474	945	873
475	931	330
476	511	243
477	366	119
478	729	730
479	638	0
480	719	517
481	260	28
482	115	35
483	164	883
484	379	408
485	886	333
486	788	671
487	630	702
488	37	226
489	260	85
490	872	903
491	520	741
492	949	308
493	989	547
494	558	914
495	746	924
496	43	265
497	365	170
498	778	973
499	930	905
500	552	858
501	757	368
502	878	76
503	864	511
504	128	99
505	1	894
506	140	62
507	326	437
508	947	795
509	434	289
510	61	655
511	63	482
512	699	52
513	154	307
514	928	163
515	426	858
516	80	296
517	314	805
518	248	898
519	303	742
520	673	61
521	193	538
522	853	353
523	426	180
524	309	928
525	318	874
526	640	660
527	499	154
528	444	838
529	40	451
530	785	204
531	66	293
532	682	88
533	110	717
534	624	93
535	224	300
536	60	554
537	42	490
538	232	907
539	245	295
540	939	696
541	911	288
542	263	91
543	879	802
544	623	2
545	469	800
546	357	954
547	73	420
548	399	793
549	97	577
550	37	906
551	525	774
552	204	472
553	918	229
554	193	801
555	907	172
556	162	698
557	631	358
558	95	305
559	467	342
560	706	838
561	238	764
562	535	482
563	465	813
564	127	948
565	904	299
566	384	810
567	84	457
568	285	227
569	318	860
570	706	938
571	481	749
572	832	473
573	313	762
574	954	829
575	309	265
576	838	816
577	642	278
578	508	268
579	242	550
580	784	967
581	670	712
582	870	370
583	564	136
584	978	892
585	243	703
586	868	625
587	786	284
588	464	533
589	313	955
590	562	177
591	88	489
592	612	272
593	275	403
594	44	900
595	30	436
596	197	429
597	940	4
598	203	484
599	58	116
600	20	543
601	433	817
602	827	131
603	740	45
604	239	759
605	28	693
606	338	101
607	599	671
608	575	632
609	113	401
610	529	385
611	126	114
612	501	737
613	184	113
614	314	796
615	306	881
616	673	386
617	742	920
618	762	78
619	785	433
620	587	870
621	679	493
622	336	495
623	603	287
624	516	961
625	316	304
626	101	563
627	867	272
628	830	233
629	677	897
630	364	207
631	935	776
632	251	642
633	390	221
634	784	474
635	866	900
636	485	827
637	301	0
638	828	664
639	793	930
640	232	436
641	958	357
642	206	551
643	290	147
644	882	497
645	197	973
646	83	225
647	912	447
648	468	705
649	666	842
650	84	476
651	516	881
652	805	356
653	428	162
654	41	68
655	508	640
656	815	226
657	34	861
658	366	303
659	18	19
660	645	580
661	424	260
662	964	346
663	9	879
664	410	862
665	991	955
666	392	54
667	11	695
668	216	229
669	85	776
670	479	104
671	655	888
672	28	873
673	329	564
674	727	510
675	246	813
676	88	290
677	414	156
678	323	131
679	250	237
680	866	291
681	497	941
682	26	508
683	640	714
684	262	293
685	526	683
686	628	187
687	761	103
688	116	736
689	359	200
690	892	383
691	239	879
692	677	560
693	571	334
694	577	978
695	848	129
696	743	320
697	116	771
698	688	720
699	796	577
700	761	87
701	300	191
702	411	677
703	119	770
704	370	426
705	846	353
706	107	667
707	876	115
708	264	531
709	207	886
710	356	147
711	46	242
712	30	528
713	30	944
714	162	457
715	277	911
716	908	431
717	528	85
718	188	536
719	131	446
720	894	616
721	523	233
722	524	906
723	478	899
724	844	615
725	782	623
726	467	146
727	947	703
728	875	426
729	170	251
730	349	812
731	798	169
732	811	219
733	989	387
734	792	553
735	470	465
736	851	655
737	746	980
738	226	439
739	460	86
740	462	607
741	422	581
742	25	132
743	915	66
744	876	677
745	992	735
746	820	911
747	795	600
748	539	598
749	331	83
750	663	244
751	137	340
752	499	190
753	94	952
754	461	703
755	80	394
756	127	677
757	388	132
758	688	607
759	827	224
760	131	713
761	872	71
762	686	836
763	802	897
764	453	707
765	557	370
766	20	434
767	567	715
768	135	819
769	634	466
770	301	415
771	21	102
772	137	697
773	54	399
774	877	902
775	579	560
776	689	684
777	744	587
778	217	819
779	758	321
780	292	299
781	408	170
782	750	49
783	764	109
784	242	297
785	853	124
786	63	304
787	328	10
788	526	369
789	305	251
790	383	767
791	119	677
792	64	95
793	111	419
794	661	503
795	852	615
796	112	507
797	84	413
798	782	772
799	105	155
800	508	788
801	43	242
802	995	754
803	568	95
804	834	664
805	725	853
806	464	849
807	144	991
808	514	605
809	161	928
810	915	73
811	587	373
812	328	772
813	531	296
814	281	492
815	171	11
816	527	348
817	526	640
818	4	647
819	674	891
820	769	341
821	14	288
822	150	226
823	667	521
824	602	15
825	991	373
826	604	477
827	946	366
828	591	20
829	368	510
830	672	14
831	526	696
832	566	950
833	321	794
834	907	534
835	284	125
836	344	611
837	158	421
838	36	918
839	76	850
840	610	706
841	264	249
842	909	848
843	242	563
844	972	860
845	197	688
846	626	967
847	65	464
848	584	271
849	235	814
850	45	303
851	283	29
852	308	934
853	723	414
854	188	137
855	743	604
856	526	521
857	374	137
858	907	457
859	267	579
860	488	397
861	359	980
862	111	97
863	398	894
864	681	141
865	159	977
866	275	697
867	541	809
868	354	80
869	275	807
870	923	429
871	319	779
872	982	139
873	717	819
874	298	433
875	814	796
876	154	467
877	109	707
878	537	885
879	181	408
880	367	696
881	208	720
882	527	168
883	854	231
884	446	410
885	107	835
886	298	426
887	87	633
888	20	422
889	217	692
890	970	588
891	360	703
892	803	877
893	532	924
894	315	143
895	762	591
896	42	641
897	668	266
898	653	51
899	409	637
900	460	613
901	344	719
902	620	686
903	520	961
904	804	304
905	569	238
906	567	492
907	430	414
908	667	6
909	271	928
910	919	776
911	483	581
912	244	931
913	68	8
914	53	136
915	260	183
916	202	348
917	822	197
918	948	30
919	530	585
920	602	680
921	148	471
922	104	129
923	21	377
924	888	804
925	97	310
926	124	522
927	378	583
928	95	502
929	763	135
930	989	491
931	475	519
932	985	153
933	617	165
934	86	53
935	716	457
936	832	466
937	575	386
938	157	417
939	935	94
940	726	716
941	406	562
942	307	154
943	671	598
944	998	402
945	623	994
946	927	802
947	568	560
948	888	657
949	135	754
950	210	890
951	834	824
952	362	658
953	702	520
954	127	158
955	142	364
956	538	105
957	872	649
958	864	942
959	650	681
960	810	891
961	298	542
962	981	155
963	730	270
964	147	736
965	13	569
966	565	844
967	821	377
968	565	661
969	147	313
970	621	277
971	74	324
972	183	870
973	9	326
974	601	365
975	872	108
976	716	114
977	213	788
978	959	557
979	400	615
980	656	169
981	214	288
982	404	28
983	857	225
984	639	110
985	541	953
986	286	191
987	806	8
988	633	333
989	67	718
990	43	776
991	133	944
992	871	553
993	800	567
994	892	656
995	4	837
996	43	222
997	87	518
998	455	57
999	29	921
1000	810	471
1001	310	237
DEMAND_SECTION
1	0
2	1
3	4
4	7
5	8
6	7
7	3
8	9
9	1
10	2
11	7
12	5
13	2
14	5
15	6
16	5
17	3
18	9
19	3
20	6
21	3
22	1
23	9
24	4
25	9
26	5
27	4
28	4
29	7
30	3
31	9
32	2
33	4
34	9
35	9
36	7
37	2
38	8
39	5
40	8
41	7
42	1
43	6
44	2
45	6
46	4
47	9
48	2
49	7
50	2
51	7
52	8
53	7
54	9
55	6
56	7
57	4
58	3
59	3
60	2
61	4
62	1
63	2
64	5
65	6
66	5
67	2
68	9
69	4
70	7
71	3
72	1
73	5
74	8
75	1
76	6
77	2
78	5
79	3
80	1
81	2
82	2
83	7
84	2
85	8
86	1
87	9
88	8
89	2
90	6
91	4
92	2
93	7
94	9
95	6
96	9
97	1
98	8
99	3
100	1
101	5
102	2
103	3
104	2
105	5
106	9
107	7
108	2
109	7
110	9
111	8
112	1
113	3
114	7
115	8
116	8
117	9
118	4
119	7
120	9
121	2
122	8
123	2
124	9
125	8
126	4
127	2
128	3
129	1
130	3
131	6
132	7
133	9
134	7
135	2
136	8
137	7
138	7
139	8
140	8
141	4
142	6
143	8
144	5
145	7
146	5
147	7
148	4
149	4
150	7
151	6
152	8
153	6
154	7
155	2
156	6
157	4
158	8
159	4
160	8
161	2
162	7
163	8
164	9
165	7
166	5
167	2
168	9
169	3
170	4
171	6
172	8
173	5
174	9
175	8
176	7
177	8
178	9
179	7
180	6
181	2
182	2
183	2
184	5
185	9
186	5
187	4
188	6
189	2
190	4
191	7
192	1
193	6
194	1
195	6
196	4
197	3
198	6
199	5
200	5
201	5
202	8
203	4
204	2
205	2
206	1
207	5
208	5
209	5
210	1
211	9
212	2
213	5
214	2
215	8
216	2
217	7
218	4
219	4
220	8
221	1
222	3
223	1
224	2
225	9
226	4
227	6
228	5
229	2
230	8
231	5
232	2
233	3
234	2
235	3
236	9
237	3
238	2
239	1
240	2
241	8
242	9
243	6
244	3
245	5
246	8
247	6
248	5
249	3
250	5
251	6
252	4
253	2
254	5
255	7
256	6
257	1
258	6
259	1
260	6
261	6
262	8
263	7
264	4
265	1
266	9
267	3
268	5
269	6
270	5
271	6
272	2
273	9
274	5
275	9
276	8
277	9
278	1
279	4
280	6
281	2
282	4
283	7
284	6
285	1
286	3
287	7
288	6
289	9
290	4
291	8
292	7
293	9
294	4
295	3
296	9
297	4
298	9
299	9
300	6
301	4
302	4
303	4
304	7
305	6
306	9
307	7
308	6
309	1
310	4
311	1
312	2
313	7
314	1
315	1
316	7
317	6
318	1
319	9
320	3
321	9
322	3
323	4
324	9
325	6
326	2
327	5
328	6
329	9
330	8
331	4
332	1
333	3
334	2
335	7
336	2
337	9
338	1
339	9
340	4
341	3
342	8
343	2
344	9
345	8
346	8
347	7
348	1
349	6
350	4
351	9
352	4
353	1
354	2
355	2
356	1
357	3
358	2
359	6
360	8
361	3
362	9
363	3
364	3
365	2
366	5
367	4
368	5
369	6
370	7
371	3
372	1
373	2
374	3
375	1
376	1
377	3
378	1
379	4
380	7
381	1
382	8
383	2
384	8
385	7
386	6
387	9
388	1
389	4
390	1
391	2
392	3
393	1
394	6
395	9
396	3
397	9
398	5
399	5
400	3
401	2
402	3
403	6
404	2
405	8
406	4
407	3
408	5
409	4
410	1
411	5
412	1
413	6
414	2
415	8
416	3
417	4
418	5
419	6
420	7
421	1
422	8
423	1
424	3
425	1
426	9
427	7
428	7
429	9
430	7
431	8
432	3
433	6
434	7
435	4
436	3
437	5
438	2
439	4
440	6
441	2
442	5
443	4
444	7
445	8
446	3
447	3
448	4
449	3
450	4
451	8
452	2
453	9
454	8
455	7
456	5
457	4
458	4
459	1
460	3
461	7
462	7
463	8
464	4
465	9
466	9
467	1
468	2
469	7
470	2
471	9
472	7
473	4
474	7
475	2
476	2
477	8
478	6
479	6
480	8
481	2
482	2
483	5
484	1
485	1
486	2
487	6
488	3
489	7
490	1
491	3
492	4
493	7
494	6
495	5
496	8
497	6
498	2
499	4
500	9
501	7
502	9
503	3
504	7
505	9
506	3
507	7
508	8
509	7
510	7
511	4
512	7
513	7
514	6
515	3
516	1
517	5
518	8
519	4
520	2
521	9
522	4
523	9
524	8
525	5
526	1
527	4
528	8
529	4
530	5
531	4
532	9
533	9
534	7
535	2
536	8
537	6
538	8
539	3
540	3
541	9
542	9
543	3
544	3
545	8
546	3
547	5
548	5
549	9
550	6
551	3
552	5
553	2
554	2
555	8
556	7
557	6
558	9
559	3
560	7
561	1
562	6
563	4
564	8
565	4
566	6
567	1
568	9
569	1
570	8
571	9
572	1
573	7
574	4
575	5
576	1
577	8
578	4
579	7
580	6
581	5
582	1
583	1
584	4
585	7
586	4
587	7
588	8
589	8
590	6
591	6
592	4
593	7
594	4
595	6
596	7
597	8
598	1
599	8
600	8
601	9
602	8
603	3
604	2
605	4
606	3
607	9
608	4
609	5
610	2
611	7
612	4
613	4
614	4
615	9
616	8
617	9
618	9
619	5
620	8
621	3
622	3
623	3
624	6
625	2
626	9
627	8
628	1
629	4
630	2
631	9
632	2
633	4
634	1
635	2
636	2
637	5
638	8
639	6
640	2
641	3
642	7
643	5
644	2
645	1
646	2
647	1
648	7
649	3
650	3
651	9
652	9
653	6
654	6
655	7
656	8
657	5
658	7
659	4
660	2
661	7
662	9
663	3
664	2
665	5
666	1
667	4
668	9
669	3
670	3
671	3
672	6
673	1
674	1
675	5
676	3
677	7
678	6
679	2
680	3
681	3
682	3
683	4
684	1
685	6
686	7
687	1
688	6
689	3
690	3
691	7
692	5
693	7
694	1
695	6
696	4
697	8
698	7
699	3
700	8
701	6
702	5
703	1
704	6
705	7
706	2
707	1
708	5
709	4
710	9
711	6
712	6
713	7
714	9
715	9
716	6
717	6
718	4
719	8
720	1
721	7
722	3
723	2
724	7
725	9
726	5
727	2
728	4
729	2
730	2
731	5
732	7
733	4
734	4
735	9
736	5
737	6
738	2
739	2
740	7
741	8
742	2
743	6
744	8
745	8
746	6
747	3
748	8
749	9
750	1
751	7
752	2
753	7
754	4
755	3
756	3
757	4
758	1
759	1
760	8
761	9
762	5
763	2
764	8
765	2
766	8
767	5
768	4
769	6
770	8
771	8
772	2
773	8
774	2
775	1
776	9
777	9
778	2
779	5
780	4
781	1
782	4
783	4
784	5
785	7
786	7
787	3
788	3
789	8
790	1
791	4
792	9
793	8
794	6
795	1
796	4
797	1
798	9
799	4
800	9
801	7
802	2
803	6
804	9
805	9
806	1
807	9
808	6
809	8
810	4
811	3
812	5
813	9
814	2
815	2
816	5
817	2
818	9
819	4
820	3
821	7
822	6
823	8
824	9
825	2
826	1
827	4
828	3
829	5
830	9
831	7
832	3
833	9
834	2
835	9
836	5
837	6
838	6
839	7
840	8
841	3
842	7
843	3
844	9
845	3
846	5
847	5
848	4
849	2
850	7
851	3
852	4
853	3
854	9
855	1
856	6
857	5
858	8
859	7
860	1
861	5
862	3
863	8
864	3
865	2
866	3
867	2
868	1
869	3
870	2
871	5
872	6
873	8
874	7
875	8
876	9
877	3
878	4
879	9
880	8
881	8
882	1
883	3
884	9
885	1
886	4
887	5
888	1
889	1
890	7
891	8
892	2
893	9
894	4
895	2
896	5
897	1
898	8
899	8
900	5
901	3
902	9
903	3
904	7
905	5
906	7
907	6
908	5
909	7
910	1
911	6
912	7
913	4
914	4
915	8
916	2
917	3
918	5
919	6
920	5
921	1
922	2
923	3
924	9
925	3
926	2
927	3
928	6
929	1
930	8
931	5
932	1
933	2
934	6
935	1
936	8
937	2
938	3
939	6
940	3
941	5
942	5
943	5
944	8
945	7
946	5
947	6
948	4
949	2
950	5
951	5
952	7
953	5
954	1
955	5
956	2
957	1
958	7
959	1
960	7
961	3
962	2
963	6
964	4
965	9
966	6
967	1
968	5
969	3
970	2
971	3
972	4
973	5
974	2
975	2
976	2
977	1
978	9
979	5
980	6
981	1
982	7
983	8
984	4
985	3
986	6
987	1
988	4
989	4
990	1
991	7
992	8
993	2
994	6
995	4
996	1
997	6
998	8
999	2
1000	5
1001	8
TIME_WINDOW_SECTION
1	0	3000
2	1286	2303
3	1361	2000
4	299	1398
5	1283	2044
6	408	1642
7	1518	2097
8	275	2068
9	241	1679
10	1129	2082
11	1577	2142
12	839	2808
13	460	1416
14	1239	1736
15	0	778
16	931	1652
17	121	1911
18	1719	2132
19	0	1611
20	497	2331
21	377	1254
22	1355	2092
23	551	1635
24	576	1751
25	799	2396
26	75	1679
27	1266	1509
28	59	1336
29	372	1014
30	178	2027
31	738	2556
32	1788	2598
33	152	1645
34	405	1223
35	1490	2353
36	1075	2606
37	1703	2007
38	1385	3000
39	914	1873
40	831	2245
41	950	2947
42	1386	2459
43	1020	2067
44	0	1748
45	0	977
46	0	1664
47	292	2291
48	1659	3000
49	659	2439
50	164	2000
51	1810	2242
52	1191	1716
53	268	1438
54	1005	1410
55	1212	1550
56	1520	2466
57	753	1506
58	281	1370
59	259	2225
60	514	745
61	1140	1508
62	853	1623
63	1525	2626
64	2016	2749
65	1064	1471
66	831	2714
67	1971	2377
68	1143	2303
69	338	1529
70	1110	3000
71	1324	3000
72	934	2652
73	417	2056
74	936	2301
75	694	1935
76	1803	2677
77	942	2024
78	1042	2852
79	716	1420
80	732	1446
81	1351	2896
82	1912	2775
83	0	1869
84	1183	2137
85	1514	2803
86	704	2469
87	1702	2465
88	871	1467
89	2241	2708
90	257	1140
91	485	1860
92	390	1154
93	1103	1315
94	1188	1598
95	825	1800
96	936	1876
97	1070	1697
98	772	2650
99	907	1578
100	739	2539
101	400	1500
102	872	1150
103	646	1705
104	668	2215
105	544	2346
106	870	1604
107	1164	2296
108	0	1656
109	1075	2826
110	1029	2983
111	1284	1801
112	763	2005
113	557	1590
114	1103	2464
115	947	1286
116	1475	2023
117	0	1756
118	1481	2063
119	775	1052
120	235	1679
121	611	984
122	337	1088
123	1517	1895
124	1149	2952
125	1057	1809
126	241	1488
127	758	1196
128	1557	2232
129	329	2027
130	907	1319
131	930	1636
132	946	1974
133	183	1488
134	0	1193
135	1309	2199
136	0	1835
137	0	1760
138	254	1443
139	766	1633
140	1041	1664
141	964	2038
142	0	1114
143	156	1270
144	1155	1972
145	1488	2428
146	11	1320
147	146	537
148	0	1369
149	176	2097
150	889	1495
151	58	2019
152	0	1590
153	0	783
154	706	2235
155	783	2295
156	38	1201
157	1478	2302
158	1230	2868
159	1369	2804
160	1056	1768
161	291	2268
162	635	1979
163	1053	1628
164	941	2126
165	1026	2695
166	190	1000
167	412	1440
168	1100	1976
169	540	2376
170	11	1825
171	1326	1797
172	890	1755
173	200	958
174	1282	2116
175	1134	2593
176	868	2099
177	1318	2222
178	1737	1945
179	0	1333
180	1070	1633
181	960	1819
182	1284	2134
183	393	2377
184	1380	2017
185	0	1668
186	1741	2671
187	1551	2731
188	221	1802
189	986	1930
190	797	1225
191	1245	2844
192	402	1341
193	735	1574
194	430	1899
195	0	977
196	697	1471
197	0	1882
198	749	2638
199	951	2546
200	1789	2749
201	0	1430
202	757	1067
203	304	1401
204	1168	2435
205	1003	2810
206	674	1399
207	1930	2151
208	203	2146
209	359	1982
210	1690	1937
211	938	1600
212	1060	1728
213	766	2176
214	466	1551
215	816	2276
216	1040	2620
217	206	1688
218	1185	2927
219	996	2879
220	540	2444
221	821	2013
222	936	2502
223	912	2104
224	923	1553
225	1748	3000
226	301	1941
227	2121	2457
228	449	2317
229	466	2012
230	931	1567
231	1226	2350
232	1086	1666
233	1370	1800
234	1300	1857
235	1249	1797
236	526	2300
237	1036	1244
238	1680	2348
239	388	1164
240	1429	3000
241	1016	1945
242	885	1276
243	779	2403
244	711	1459
245	1253	2666
246	573	2352
247	1294	2090
248	0	1217
249	710	1687
250	1348	2395
251	943	1920
252	2044	2624
253	1506	1991
254	548	1891
255	816	2449
256	1562	2633
257	321	2014
258	305	1604
259	643	1049
260	1123	3000
261	1587	2530
262	63	1712
263	1796	2914
264	535	1797
265	1093	2946
266	1437	2118
267	127	986
268	1444	2642
269	1498	2620
270	151	1891
271	0	1135
272	1116	2261
273	1218	2818
274	0	1225
275	1356	1690
276	1349	2092
277	863	2172
278	641	913
279	784	1368
280	621	1846
281	612	1128
282	193	1886
283	458	1862
284	238	1077
285	765	1770
286	911	2025
287	1296	2743
288	1415	1885
289	571	1792
290	1484	2679
291	951	1511
292	1565	2894
293	2072	2439
294	1608	2502
295	7	1956
296	517	1552
297	1630	2720
298	1522	2250
299	1045	2055
300	655	1954
301	668	1259
302	1217	2542
303	414	827
304	1677	1902
305	1418	2301
306	252	1607
307	1249	3000
308	711	1389
309	712	2633
310	931	1357
311	621	2486
312	533	1822
313	243	2185
314	1801	2743
315	1360	1862
316	436	1734
317	0	1456
318	701	1831
319	875	2360
320	819	1365
321	1618	2788
322	1954	2440
323	2065	2387
324	551	1712
325	983	2369
326	898	2281
327	323	1953
328	1460	2483
329	832	2484
330	1361	2532
331	1191	2381
332	756	1664
333	1400	2858
334	776	2696
335	1892	2338
336	1219	2836
337	0	1290
338	462	2123
339	40	2000
340	1682	2891
341	1195	2283
342	1003	1580
343	524	1597
344	758	1036
345	153	1217
346	373	2235
347	606	2219
348	1521	2028
349	719	1987
350	1211	1609
351	1217	2650
352	1119	2316
353	1300	1776
354	2079	2285
355	221	1446
356	1459	2558
357	1616	1831
358	970	2698
359	2013	2250
360	1241	1888
361	1397	2248
362	884	1323
363	1547	2920
364	1187	1753
365	751	1104
366	1268	2479
367	668	1757
368	1709	3000
369	258	1650
370	490	2356
371	164	1973
372	1351	1826
373	270	2151
374	1506	3000
375	551	1457
376	1383	2499
377	1209	1939
378	1629	2163
379	268	644
380	752	2031
381	528	1805
382	539	1303
383	761	2380
384	846	2453
385	5	982
386	408	1115
387	1004	1287
388	979	1600
389	455	1376
390	1328	1714
391	465	1697
392	1246	1585
393	900	1566
394	1385	2230
395	513	1829
396	1339	2598
397	545	2152
398	1753	2292
399	0	489
400	1106	1716
401	2006	2397
402	1033	1849
403	1283	1801
404	1061	2018
405	474	865
406	1415	2876
407	1106	2251
408	1118	2717
409	1120	1970
410	726	2001
411	790	1271
412	768	2707
413	1358	1729
414	1285	2215
415	1387	1623
416	248	1703
417	0	1193
418	38	1777
419	1482	3000
420	0	1694
421	454	1527
422	740	2545
423	318	1909
424	1017	2132
425	617	980
426	1595	1903
427	1060	1987
428	1423	2381
429	1004	1286
430	987	2202
431	0	1624
432	103	1835
433	266	1618
434	382	2321
435	1112	1374
436	0	1384
437	1031	1593
438	867	1745
439	1695	2068
440	1941	2833
441	1422	2006
442	440	1825
443	799	2620
444	746	1618
445	408	643
446	433	730
447	360	2083
448	0	1579
449	1544	2053
450	470	1583
451	685	2071
452	1291	2443
453	984	1643
454	1129	1401
455	0	941
456	1343	2163
457	775	1025
458	1024	1372
459	1234	2301
460	722	1831
461	0	1859
462	1950	2404
463	234	958
464	536	1836
465	1438	1646
466	1474	3000
467	1177	2091
468	1097	1940
469	889	2033
470	784	1628
471	1020	2603
472	1236	2423
473	1144	2441
474	1254	2425
475	129	917
476	410	999
477	1726	2203
478	206	1514
479	2253	2656
480	1801	2736
481	8	1170
482	509	1562
483	939	1414
484	1334	2471
485	1042	2603
486	1794	2049
487	907	2268
488	1342	2277
489	1251	2018
490	1051	2011
491	719	1825
492	0	1154
493	0	1436
494	1123	1393
495	745	1157
496	866	2398
497	1142	2326
498	1027	1653
499	319	1543
500	1007	1745
501	840	2146
502	74	1087
503	947	2262
504	619	1321
505	849	2509
506	0	1693
507	910	2541
508	292	1593
509	1270	2984
510	871	1714
511	729	1110
512	0	1286
513	136	1179
514	930	1504
515	1003	2748
516	203	2092
517	1069	1601
518	427	2150
519	667	1604
520	368	775
521	737	1854
522	1234	1741
523	0	1939
524	940	1262
525	959	2355
526	928	1569
527	1585	2624
528	284	1451
529	1683	2296
530	322	1997
531	307	1204
532	453	1432
533	764	1306
534	1020	1694
535	1810	2125
536	837	1856
537	1276	2587
538	992	2164
539	950	2820
540	520	1766
541	49	936
542	293	1015
543	818	2352
544	1323	2042
545	1619	2022
546	970	1278
547	1076	2875
548	133	1721
549	474	2256
550	846	1624
551	1222	2455
552	177	1937
553	1227	2946
554	508	2100
555	0	1049
556	961	1467
557	30	1550
558	381	1610
559	1316	2736
560	980	1638
561	1577	2217
562	1061	2119
563	726	2342
564	1051	1890
565	92	849
566	758	2359
567	971	2875
568	600	1648
569	1486	1907
570	862	1176
571	800	1843
572	432	2008
573	974	1922
574	1180	2427
575	1780	2484
576	964	2328
577	1988	2378
578	0	1546
579	132	1950
580	867	1985
581	1267	2462
582	1459	2453
583	0	1547
584	410	2294
585	446	2064
586	1032	1381
587	20	759
588	1090	1334
589	712	1417
590	208	1437
591	1544	2099
592	1208	2935
593	1298	2914
594	517	2102
595	429	1704
596	1406	2481
597	0	751
598	259	1657
599	848	1461
600	1090	1643
601	879	1984
602	658	1308
603	2147	2711
604	435	1887
605	789	1877
606	833	1287
607	1285	1577
608	1755	2151
609	1202	2672
610	1527	2414
611	0	1555
612	1198	2356
613	1247	1885
614	887	1832
615	1572	1918
616	2003	2755
617	1448	2118
618	560	1804
619	181	1062
620	57	1760
621	0	1349
622	1402	2702
623	0	910
624	1040	1454
625	1845	2280
626	763	2478
627	1435	3000
628	833	1184
629	359	2327
630	1519	2433
631	598	1915
632	910	1742
633	979	2848
634	1053	2287
635	409	1777
636	304	1690
637	423	1561
638	256	1155
639	622	1275
640	911	1136
641	575	2042
642	623	1196
643	1204	2973
644	166	1948
645	910	1610
646	864	1901
647	1408	2968
648	1024	2336
649	445	1297
650	1046	1477
651	1522	2315
652	312	1988
653	2264	2726
654	0	1399
655	1038	2418
656	193	1533
657	847	1389
658	2183	2489
659	257	1505
660	657	1599
661	0	1255
662	1013	2325
663	236	2121
664	579	1890
665	845	1395
666	1522	3000
667	570	2271
668	109	1233
669	709	2693
670	1131	1372
671	380	1707
672	701	1774
673	1135	2350
674	1261	2233
675	1214	2161
676	447	1517
677	1513	3000
678	1727	2474
679	159	1965
680	20	823
681	789	1658
682	562	1809
683	877	2709
684	377	1242
685	943	2677
686	107	1730
687	1651	2698
688	947	1456
689	1557	2003
690	1746	2233
691	339	1903
692	1220	2482
693	1025	1667
694	418	2394
695	1806	2443
696	753	1649
697	660	2300
698	975	2847
699	822	2460
700	1165	2511
701	0	1694
702	457	2210
703	995	2267
704	1428	1642
705	51	1703
706	992	1390
707	1191	2797
708	1798	2447
709	1200	1545
710	2142	2638
711	1188	1637
712	1166	2715
713	842	2132
714	1605	1962
715	432	1869
716	1464	3000
717	205	1226
718	985	1966
719	1511	2592
720	1825	2335
721	1727	2214
722	870	2292
723	1233	1648
724	482	1335
725	1004	2758
726	2056	2958
727	1197	2536
728	159	1467
729	125	1900
730	794	2492
731	0	1331
732	445	1226
733	263	1021
734	667	896
735	462	1916
736	1610	2387
737	860	2739
738	56	1218
739	1801	3000
740	375	1023
741	311	1587
742	19	1914
743	1747	2426
744	641	2003
745	733	1019
746	259	1578
747	800	1647
748	1118	1332
749	712	2692
750	136	1087
751	0	1528
752	181	1684
753	908	1629
754	1168	2681
755	1516	2156
756	524	1229
757	650	1703
758	1232	2210
759	0	1455
760	1160	1701
761	696	1989
762	148	2122
763	1033	1466
764	597	1863
765	1455	3000
766	787	1311
767	979	2818
768	1011	1779
769	1169	3000
770	1488	1896
771	1198	2453
772	529	2119
773	1408	2626
774	756	2373
775	1085	1918
776	549	1400
777	1686	2111
778	512	1339
779	1631	1867
780	595	1462
781	713	1465
782	769	2343
783	0	1218
784	1344	1965
785	1466	1714
786	1140	1956
787	278	2009
788	1456	2407
789	1534	1793
790	819	2553
791	1675	1901
792	1235	3000
793	1598	1908
794	864	1536
795	1093	2848
796	505	1693
797	1159	2646
798	1306	2327
799	1018	2539
800	653	1602
801	1034	1639
802	50	1608
803	323	578
804	314	1151
805	204	1833
806	958	2113
807	780	1446
808	180	1597
809	1077	2379
810	1665	3000
811	1829	2564
812	1049	1287
813	108	1518
814	360	2070
815	0	1417
816	1926	2620
817	697	1425
818	431	1827
819	1287	2171
820	485	1206
821	0	1663
822	110	2068
823	1375	2591
824	0	1429
825	1212	2173
826	234	744
827	1215	1852
828	71	477
829	950	2073
830	1983	3000
831	457	1874
832	178	1880
833	881	1659
834	991	2133
835	1647	2078
836	634	1352
837	280	2030
838	703	2374
839	743	1522
840	928	1399
841	1346	3000
842	437	1567
843	1194	1437
844	946	1717
845	784	1177
846	839	2672
847	1022	2753
848	641	2508
849	733	2343
850	1136	2238
851	684	1809
852	1387	1598
853	318	709
854	865	2109
855	642	1865
856	1804	2526
857	639	2539
858	763	2616
859	1327	2846
860	793	1973
861	1135	2053
862	649	1947
863	659	2020
864	406	1694
865	794	1760
866	1417	1786
867	340	1710
868	266	859
869	378	2217
870	1328	2398
871	1679	2013
872	1609	3000
873	1749	1953
874	0	1869
875	781	1471
876	1360	1860
877	1088	2405
878	560	1271
879	1375	1587
880	77	1774
881	775	1708
882	275	907
883	191	1681
884	0	1353
885	754	2045
886	1385	2987
887	617	1397
888	495	2357
889	1555	2115
890	1252	1512
891	1217	2086
892	501	2259
893	1333	2012
894	1087	2440
895	0	1731
896	150	1962
897	2271	2829
898	155	2057
899	944	1661
900	1206	1424
901	1526	1939
902	1450	2361
903	845	1995
904	1266	2593
905	1061	2107
906	1135	2899
907	1573	1784
908	0	1012
909	1417	1718
910	1554	2143
911	896	1995
912	843	2696
913	1652	1894
914	451	1099
915	500	2467
916	844	2062
917	909	1684
918	1281	2842
919	1788	2638
920	950	1913
921	1630	1977
922	102	1594
923	471	1626
924	402	1963
925	1195	1503
926	950	1934
927	1301	1840
928	949	2105
929	950	2196
930	1276	2633
931	0	1603
932	0	1493
933	0	1450
934	376	1525
935	870	1358
936	46	2018
937	520	1239
938	1653	2064
939	0	1375
940	997	1948
941	1748	2636
942	1156	2450
943	986	2121
944	1525	2108
945	828	2117
946	488	1230
947	1130	3000
948	180	1747
949	296	2154
950	936	2027
951	927	1298
952	284	2204
953	1582	2076
954	63	1832
955	887	2002
956	169	1031
957	1410	2003
958	914	1464
959	719	1655
960	1020	2609
961	853	1900
962	1274	2952
963	1606	2781
964	1407	2352
965	798	2552
966	1007	2235
967	801	2446
968	1094	2333
969	801	2011
970	36	1950
971	732	1489
972	643	1933
973	898	2551
974	2202	2496
975	1206	1797
976	416	780
977	1635	2089
978	440	1808
979	383	1986
980	0	1252
981	1967	2426
982	814	2288
983	718	1529
984	315	892
985	343	1831
986	984	2266
987	655	2267
988	367	1620
989	1115	1834
990	760	1329
991	1074	2090
992	1075	2410
993	278	2211
994	285	1064
995	573	1973
996	1038	1925
997	1694	1907
998	23	1918
999	152	2126
1000	1397	2002
1001	1628	2428
BACKHAUL_SECTION
8	19	28	30	31	39	40	42	45	46	49	58	66	72	73	89	90	104	106	111	121	126	127	128	134	137	145	150	152	155	189	191	203	204	206	220	233	236	239	241	242	246	248	259	260	270	279	298	305	307	308	311	313	316	325	330	331	342	343	344	347	350	352	357	366	369	371	372	375	392	400	401	407	412	416	417	431	432	441	444	447	455	462	463	466	467	472	474	489	495	501	506	513	514	516	520	522	523	527	531	534	541	545	547	557	567	576	581	585	586	589	592	596	599	607	617	622	635	642	649	653	665	666	668	670	684	689	692	693	695	700	717	720	722	723	724	728	733	737	743	748	750	752	755	757	764	766	780	788	789	790	791	793	796	800	801	802	815	816	817	818	823	825	833	836	838	843	845	857	862	871	875	889	897	902	904	909	910	915	924	928	936	941	943	944	945	955	957	959	961	966	968	972	974	983	984	994	996	997	999	-1
DEPOT_SECTION
1
-1
EOF
