NAME : n1001-0021
COMMENT : "Generated by pyvrp_manuel (VRPBTW)"
TYPE : VRPBTW
DIMENSION : 1001
EDGE_WEIGHT_TYPE : EUC_2D
CAPACITY : 150
VEHICLES : 1000
SERVICE_TIME : 200
NODE_COORD_SECTION
1	681	199
2	273	596
3	500	293
4	766	914
5	494	949
6	87	480
7	926	963
8	315	459
9	471	692
10	283	730
11	904	12
12	221	66
13	325	696
14	860	957
15	153	347
16	512	113
17	249	216
18	913	808
19	212	782
20	110	233
21	278	491
22	622	447
23	974	388
24	410	158
25	765	666
26	988	261
27	683	947
28	826	549
29	729	195
30	123	756
31	744	873
32	722	320
33	125	348
34	212	218
35	743	614
36	181	952
37	745	849
38	177	660
39	385	640
40	302	548
41	571	331
42	458	222
43	483	358
44	978	19
45	693	707
46	395	127
47	235	132
48	502	520
49	812	987
50	328	411
51	664	411
52	828	934
53	599	11
54	424	252
55	247	39
56	529	947
57	57	71
58	820	577
59	912	14
60	622	360
61	707	139
62	953	985
63	954	846
64	448	942
65	99	129
66	246	260
67	796	107
68	21	787
69	213	718
70	991	418
71	492	602
72	809	279
73	96	507
74	426	27
75	659	522
76	256	216
77	858	735
78	286	674
79	853	48
80	646	779
81	947	648
82	548	103
83	285	563
84	552	672
85	972	390
86	60	224
87	93	777
88	24	908
89	661	398
90	782	184
91	759	394
92	157	685
93	598	92
94	347	31
95	891	646
96	249	605
97	641	742
98	644	583
99	17	587
100	752	77
101	933	692
102	823	794
103	590	916
104	993	256
105	473	139
106	575	289
107	779	961
108	789	122
109	160	192
110	666	704
111	810	711
112	241	937
113	381	377
114	159	758
115	322	81
116	554	55
117	788	351
118	492	700
119	575	118
120	829	178
121	231	967
122	106	853
123	296	300
124	185	490
125	211	232
126	325	222
127	931	594
128	365	572
129	108	983
130	307	804
131	807	311
132	801	15
133	745	580
134	142	310
135	61	198
136	793	107
137	770	234
138	324	513
139	338	81
140	6	161
141	549	292
142	605	732
143	143	794
144	622	167
145	504	577
146	364	644
147	654	323
148	399	123
149	957	257
150	625	323
151	282	977
152	851	8
153	729	203
154	939	428
155	65	703
156	166	677
157	348	33
158	359	233
159	992	680
160	893	899
161	326	31
162	253	270
163	282	724
164	131	809
165	192	589
166	523	574
167	848	684
168	60	799
169	537	318
170	724	254
171	522	819
172	512	145
173	18	198
174	68	494
175	521	343
176	259	468
177	999	78
178	317	114
179	264	827
180	483	313
181	601	144
182	167	365
183	924	164
184	879	636
185	395	236
186	955	41
187	840	843
188	750	554
189	300	795
190	331	709
191	118	153
192	487	573
193	288	123
194	134	386
195	388	124
196	420	471
197	378	785
198	982	278
199	646	427
200	322	279
201	20	489
202	929	621
203	415	91
204	832	662
205	373	63
206	619	458
207	978	211
208	337	895
209	340	654
210	466	54
211	299	921
212	255	102
213	421	361
214	734	121
215	114	341
216	852	957
217	828	396
218	48	33
219	803	856
220	21	281
221	157	108
222	626	288
223	361	274
224	343	392
225	579	399
226	881	713
227	731	360
228	497	109
229	56	737
230	992	638
231	699	37
232	887	975
233	663	341
234	591	765
235	922	6
236	887	286
237	319	552
238	966	390
239	944	293
240	600	542
241	581	68
242	761	387
243	990	764
244	445	321
245	630	392
246	972	554
247	137	448
248	462	243
249	12	350
250	347	207
251	259	774
252	72	930
253	100	162
254	347	897
255	667	284
256	760	81
257	943	19
258	417	168
259	845	384
260	322	983
261	973	382
262	572	964
263	953	99
264	707	124
265	298	558
266	372	459
267	113	659
268	326	713
269	625	600
270	433	910
271	402	356
272	38	191
273	21	658
274	722	695
275	172	462
276	52	208
277	293	59
278	683	728
279	526	655
280	557	943
281	260	808
282	751	599
283	201	944
284	73	155
285	607	644
286	348	536
287	117	94
288	661	499
289	871	397
290	443	380
291	458	530
292	514	112
293	498	66
294	228	183
295	801	77
296	831	280
297	641	266
298	230	205
299	619	527
300	553	261
301	677	718
302	733	886
303	998	786
304	685	839
305	773	445
306	834	850
307	611	172
308	453	378
309	410	551
310	57	427
311	900	999
312	430	843
313	445	130
314	849	649
315	654	445
316	913	118
317	452	535
318	661	284
319	635	931
320	490	267
321	792	83
322	206	546
323	923	803
324	696	740
325	181	811
326	902	44
327	624	571
328	687	699
329	54	759
330	310	83
331	616	227
332	190	366
333	708	917
334	612	741
335	162	90
336	919	421
337	309	257
338	122	336
339	695	52
340	655	894
341	362	371
342	986	988
343	187	6
344	982	20
345	772	333
346	306	306
347	368	349
348	392	751
349	2	199
350	571	466
351	892	510
352	669	440
353	69	332
354	911	612
355	98	595
356	473	423
357	712	475
358	943	891
359	747	433
360	164	697
361	63	541
362	843	696
363	892	638
364	729	137
365	853	205
366	516	156
367	748	895
368	213	573
369	965	730
370	939	832
371	11	136
372	790	423
373	827	248
374	978	504
375	965	184
376	130	713
377	773	796
378	53	552
379	291	95
380	446	147
381	972	353
382	581	270
383	76	513
384	144	236
385	657	153
386	937	155
387	582	652
388	892	198
389	477	339
390	339	544
391	707	671
392	963	670
393	631	877
394	320	368
395	276	850
396	8	992
397	792	574
398	873	724
399	722	7
400	63	371
401	174	824
402	461	233
403	381	847
404	151	697
405	194	395
406	733	941
407	308	65
408	873	901
409	409	163
410	9	960
411	401	386
412	282	909
413	584	458
414	761	728
415	287	795
416	723	132
417	722	435
418	531	544
419	887	832
420	672	313
421	655	335
422	546	89
423	353	848
424	64	992
425	919	341
426	533	372
427	304	30
428	993	164
429	579	802
430	348	610
431	715	850
432	160	366
433	590	513
434	725	494
435	789	267
436	834	834
437	53	638
438	365	904
439	475	621
440	700	281
441	659	51
442	95	274
443	700	997
444	529	90
445	116	2
446	812	457
447	272	792
448	820	495
449	260	13
450	881	485
451	101	621
452	383	70
453	302	180
454	835	316
455	719	626
456	315	860
457	306	810
458	673	35
459	324	795
460	141	368
461	974	29
462	935	51
463	66	215
464	299	370
465	77	490
466	225	765
467	149	306
468	830	218
469	106	456
470	266	951
471	629	523
472	892	61
473	110	307
474	620	916
475	109	895
476	702	847
477	984	741
478	721	463
479	587	490
480	969	327
481	820	513
482	258	692
483	938	706
484	991	341
485	913	133
486	11	194
487	837	709
488	574	247
489	277	270
490	969	289
491	590	148
492	970	574
493	815	6
494	554	104
495	849	83
496	220	561
497	113	709
498	872	209
499	215	314
500	203	415
501	312	423
502	394	305
503	580	312
504	829	842
505	79	667
506	736	222
507	335	8
508	493	165
509	490	95
510	679	727
511	797	76
512	428	151
513	128	216
514	835	941
515	427	904
516	262	232
517	853	686
518	614	513
519	267	545
520	904	409
521	782	596
522	187	55
523	952	840
524	100	223
525	919	503
526	986	579
527	141	553
528	330	41
529	213	281
530	340	205
531	409	10
532	953	276
533	469	393
534	314	920
535	667	902
536	498	904
537	86	985
538	135	843
539	200	607
540	917	682
541	207	233
542	560	343
543	185	414
544	797	38
545	312	549
546	954	13
547	277	670
548	61	583
549	354	354
550	280	609
551	134	158
552	423	7
553	39	537
554	464	152
555	179	458
556	591	589
557	651	112
558	236	35
559	875	642
560	647	380
561	844	320
562	166	185
563	383	502
564	977	914
565	531	533
566	838	545
567	812	774
568	28	246
569	975	253
570	439	326
571	671	168
572	417	608
573	834	534
574	537	970
575	559	254
576	474	434
577	324	446
578	627	24
579	439	510
580	296	622
581	504	74
582	392	482
583	378	860
584	414	180
585	518	5
586	803	4
587	405	710
588	60	233
589	228	895
590	835	819
591	899	305
592	673	608
593	590	117
594	63	248
595	466	146
596	667	849
597	598	42
598	193	901
599	89	0
600	73	660
601	176	998
602	480	60
603	766	491
604	475	205
605	905	425
606	449	939
607	481	262
608	652	551
609	89	734
610	142	539
611	439	508
612	147	49
613	822	827
614	848	435
615	967	132
616	487	532
617	862	388
618	558	915
619	658	681
620	498	845
621	60	961
622	107	343
623	921	832
624	902	242
625	292	392
626	696	359
627	987	472
628	422	783
629	603	33
630	399	60
631	542	491
632	770	179
633	924	970
634	370	946
635	794	55
636	203	501
637	620	771
638	638	128
639	402	970
640	387	618
641	673	141
642	243	259
643	153	803
644	930	242
645	330	904
646	424	107
647	214	952
648	625	929
649	768	539
650	897	925
651	385	501
652	588	831
653	55	628
654	536	691
655	869	304
656	985	716
657	896	414
658	103	446
659	241	127
660	856	459
661	628	751
662	760	632
663	724	963
664	443	880
665	391	424
666	417	716
667	636	423
668	779	807
669	338	320
670	862	568
671	811	66
672	199	916
673	959	938
674	724	131
675	235	688
676	833	304
677	847	979
678	598	590
679	744	93
680	4	51
681	88	350
682	292	675
683	291	377
684	24	139
685	277	44
686	892	428
687	402	328
688	930	467
689	952	517
690	222	471
691	321	505
692	673	390
693	423	235
694	288	98
695	610	876
696	273	182
697	967	516
698	781	160
699	203	233
700	845	471
701	371	399
702	706	508
703	143	319
704	980	206
705	579	67
706	334	651
707	855	333
708	125	769
709	111	39
710	432	424
711	918	435
712	757	369
713	661	533
714	55	554
715	807	184
716	592	112
717	298	336
718	259	474
719	682	956
720	407	717
721	573	909
722	416	190
723	625	849
724	460	796
725	821	942
726	913	277
727	285	99
728	656	276
729	213	440
730	431	572
731	136	905
732	107	683
733	484	512
734	268	253
735	526	345
736	183	759
737	806	807
738	820	424
739	78	884
740	347	525
741	346	161
742	725	577
743	724	431
744	447	356
745	876	533
746	597	578
747	637	773
748	705	69
749	406	980
750	114	695
751	286	19
752	550	330
753	234	993
754	880	819
755	981	964
756	397	447
757	342	268
758	646	818
759	439	862
760	89	351
761	664	383
762	537	338
763	358	595
764	914	547
765	126	623
766	645	680
767	39	78
768	296	254
769	378	405
770	80	30
771	969	516
772	543	10
773	536	538
774	64	410
775	830	567
776	16	366
777	256	121
778	989	962
779	712	220
780	357	217
781	952	224
782	970	618
783	452	835
784	689	980
785	121	4
786	462	764
787	702	822
788	913	777
789	529	191
790	925	767
791	963	698
792	868	170
793	519	79
794	633	257
795	396	31
796	474	689
797	821	426
798	710	505
799	565	38
800	587	692
801	265	461
802	266	232
803	682	596
804	384	290
805	467	115
806	514	436
807	53	670
808	347	499
809	701	192
810	511	304
811	53	393
812	114	740
813	6	998
814	160	875
815	427	162
816	980	705
817	797	89
818	88	796
819	674	605
820	986	816
821	687	86
822	927	114
823	652	796
824	34	246
825	149	123
826	774	421
827	794	68
828	812	731
829	575	592
830	90	855
831	224	298
832	996	849
833	623	557
834	583	197
835	423	502
836	170	253
837	213	477
838	834	311
839	684	209
840	747	715
841	836	98
842	239	504
843	984	341
844	57	346
845	143	91
846	277	831
847	109	660
848	740	170
849	627	650
850	710	317
851	125	468
852	227	731
853	105	870
854	759	876
855	850	54
856	253	865
857	661	869
858	264	934
859	412	88
860	833	844
861	140	238
862	731	472
863	825	956
864	556	136
865	178	256
866	457	73
867	925	884
868	899	186
869	795	853
870	26	220
871	660	419
872	554	833
873	208	981
874	803	431
875	914	351
876	283	174
877	930	880
878	456	375
879	468	282
880	356	683
881	437	913
882	203	755
883	152	75
884	638	712
885	891	571
886	844	243
887	931	980
888	14	40
889	843	564
890	696	755
891	434	466
892	897	192
893	743	167
894	442	908
895	849	175
896	176	70
897	877	725
898	57	951
899	739	974
900	272	432
901	35	146
902	359	748
903	590	296
904	76	332
905	371	362
906	626	56
907	535	694
908	941	783
909	322	423
910	945	743
911	725	859
912	982	801
913	171	596
914	112	940
915	135	983
916	663	872
917	820	432
918	486	270
919	98	549
920	808	629
921	916	865
922	333	459
923	479	719
924	20	890
925	556	980
926	289	686
927	505	403
928	754	740
929	298	983
930	256	469
931	407	525
932	280	221
933	363	679
934	933	88
935	634	501
936	19	675
937	65	527
938	612	832
939	723	701
940	412	425
941	779	783
942	503	698
943	425	680
944	671	109
945	170	848
946	173	70
947	634	964
948	751	257
949	77	284
950	316	307
951	253	185
952	314	54
953	24	379
954	360	68
955	96	971
956	516	773
957	74	976
958	700	222
959	341	439
960	733	1000
961	608	486
962	305	700
963	567	44
964	163	776
965	264	649
966	353	59
967	805	18
968	848	443
969	12	312
970	829	145
971	317	71
972	441	41
973	58	639
974	53	403
975	188	710
976	594	64
977	534	821
978	682	340
979	515	618
980	470	396
981	575	899
982	321	41
983	973	107
984	93	727
985	672	481
986	680	273
987	330	232
988	467	263
989	908	706
990	690	567
991	441	708
992	357	872
993	835	390
994	503	557
995	814	651
996	627	263
997	817	852
998	849	797
999	489	987
1000	972	731
1001	381	527
DEMAND_SECTION
1	0
2	5
3	8
4	4
5	4
6	1
7	9
8	9
9	9
10	3
11	9
12	6
13	3
14	4
15	1
16	4
17	8
18	7
19	2
20	2
21	9
22	7
23	9
24	4
25	2
26	4
27	9
28	6
29	6
30	1
31	4
32	6
33	1
34	9
35	3
36	7
37	9
38	2
39	9
40	4
41	2
42	6
43	8
44	6
45	7
46	9
47	2
48	3
49	7
50	6
51	4
52	7
53	3
54	8
55	2
56	1
57	4
58	8
59	3
60	9
61	4
62	7
63	2
64	9
65	4
66	4
67	5
68	3
69	2
70	2
71	3
72	7
73	5
74	1
75	4
76	8
77	1
78	4
79	1
80	6
81	2
82	3
83	3
84	9
85	4
86	5
87	7
88	5
89	8
90	3
91	8
92	2
93	2
94	7
95	3
96	5
97	1
98	5
99	4
100	4
101	6
102	9
103	4
104	1
105	5
106	3
107	4
108	4
109	6
110	8
111	2
112	8
113	8
114	1
115	6
116	2
117	9
118	8
119	1
120	5
121	4
122	1
123	1
124	8
125	5
126	2
127	4
128	1
129	3
130	7
131	3
132	8
133	2
134	4
135	3
136	6
137	1
138	5
139	3
140	7
141	5
142	8
143	5
144	9
145	2
146	1
147	4
148	8
149	4
150	9
151	6
152	7
153	3
154	4
155	9
156	6
157	1
158	3
159	6
160	1
161	3
162	8
163	4
164	9
165	4
166	1
167	7
168	7
169	2
170	4
171	1
172	6
173	6
174	9
175	1
176	1
177	4
178	5
179	4
180	8
181	3
182	7
183	8
184	4
185	7
186	7
187	4
188	2
189	4
190	5
191	9
192	9
193	5
194	2
195	9
196	6
197	3
198	4
199	3
200	9
201	7
202	8
203	3
204	9
205	4
206	4
207	3
208	6
209	2
210	6
211	3
212	7
213	7
214	1
215	9
216	5
217	9
218	9
219	8
220	6
221	5
222	9
223	7
224	8
225	6
226	1
227	5
228	4
229	7
230	6
231	8
232	1
233	7
234	6
235	1
236	8
237	9
238	7
239	6
240	5
241	3
242	4
243	8
244	2
245	4
246	6
247	6
248	5
249	9
250	3
251	2
252	9
253	7
254	1
255	7
256	8
257	4
258	4
259	8
260	3
261	2
262	3
263	3
264	9
265	4
266	2
267	1
268	1
269	5
270	2
271	5
272	5
273	6
274	4
275	1
276	2
277	8
278	6
279	9
280	5
281	4
282	7
283	6
284	1
285	9
286	4
287	8
288	1
289	1
290	9
291	6
292	7
293	4
294	5
295	9
296	8
297	7
298	1
299	6
300	8
301	3
302	1
303	8
304	3
305	5
306	1
307	8
308	4
309	5
310	1
311	1
312	4
313	8
314	3
315	2
316	9
317	3
318	3
319	6
320	7
321	4
322	5
323	9
324	6
325	5
326	8
327	9
328	8
329	3
330	2
331	4
332	2
333	7
334	3
335	4
336	1
337	3
338	7
339	8
340	8
341	8
342	2
343	5
344	8
345	6
346	7
347	5
348	2
349	5
350	6
351	2
352	7
353	9
354	7
355	8
356	2
357	7
358	9
359	6
360	4
361	5
362	3
363	8
364	9
365	8
366	5
367	2
368	1
369	8
370	9
371	5
372	2
373	5
374	7
375	6
376	4
377	1
378	5
379	3
380	4
381	1
382	7
383	3
384	4
385	2
386	7
387	5
388	4
389	2
390	7
391	7
392	9
393	1
394	1
395	8
396	5
397	1
398	9
399	1
400	7
401	4
402	3
403	9
404	8
405	4
406	2
407	8
408	2
409	6
410	9
411	8
412	3
413	6
414	4
415	2
416	6
417	8
418	7
419	9
420	9
421	8
422	5
423	5
424	3
425	9
426	6
427	7
428	2
429	5
430	5
431	5
432	6
433	3
434	3
435	4
436	3
437	5
438	6
439	5
440	6
441	1
442	6
443	8
444	1
445	6
446	9
447	8
448	3
449	3
450	7
451	9
452	9
453	7
454	3
455	3
456	9
457	8
458	6
459	3
460	8
461	2
462	3
463	9
464	7
465	3
466	1
467	9
468	5
469	1
470	9
471	1
472	6
473	5
474	7
475	9
476	5
477	9
478	5
479	4
480	8
481	3
482	4
483	8
484	9
485	1
486	9
487	8
488	2
489	7
490	5
491	9
492	1
493	4
494	1
495	3
496	5
497	4
498	5
499	6
500	9
501	8
502	6
503	4
504	4
505	4
506	9
507	8
508	3
509	1
510	2
511	3
512	5
513	1
514	1
515	5
516	2
517	1
518	9
519	2
520	8
521	8
522	5
523	4
524	6
525	6
526	4
527	4
528	6
529	9
530	8
531	5
532	6
533	5
534	6
535	5
536	1
537	1
538	8
539	5
540	4
541	5
542	4
543	7
544	4
545	7
546	3
547	2
548	6
549	5
550	6
551	3
552	7
553	5
554	1
555	3
556	3
557	4
558	3
559	9
560	7
561	4
562	7
563	2
564	9
565	4
566	1
567	3
568	2
569	2
570	2
571	8
572	7
573	7
574	9
575	8
576	3
577	4
578	8
579	6
580	1
581	7
582	8
583	8
584	1
585	6
586	9
587	7
588	8
589	3
590	9
591	9
592	9
593	7
594	9
595	9
596	1
597	5
598	7
599	5
600	1
601	8
602	9
603	4
604	4
605	3
606	9
607	1
608	7
609	8
610	2
611	8
612	5
613	7
614	4
615	9
616	2
617	6
618	5
619	8
620	4
621	1
622	7
623	1
624	9
625	8
626	6
627	9
628	3
629	6
630	3
631	8
632	5
633	9
634	6
635	8
636	8
637	5
638	4
639	9
640	4
641	9
642	8
643	9
644	2
645	4
646	6
647	4
648	8
649	1
650	2
651	7
652	5
653	1
654	1
655	9
656	6
657	1
658	8
659	4
660	9
661	6
662	8
663	3
664	8
665	2
666	7
667	8
668	6
669	4
670	7
671	1
672	8
673	3
674	5
675	6
676	8
677	4
678	4
679	7
680	7
681	6
682	8
683	9
684	2
685	6
686	6
687	7
688	8
689	2
690	1
691	5
692	4
693	5
694	6
695	9
696	2
697	1
698	1
699	9
700	8
701	9
702	1
703	5
704	4
705	9
706	4
707	3
708	5
709	5
710	1
711	2
712	2
713	1
714	8
715	4
716	9
717	2
718	7
719	5
720	6
721	8
722	6
723	7
724	8
725	2
726	5
727	3
728	9
729	4
730	2
731	8
732	5
733	8
734	3
735	5
736	2
737	6
738	4
739	1
740	9
741	6
742	5
743	5
744	1
745	5
746	4
747	2
748	5
749	3
750	9
751	8
752	2
753	8
754	9
755	9
756	4
757	3
758	7
759	6
760	9
761	3
762	8
763	7
764	1
765	9
766	3
767	1
768	5
769	9
770	6
771	7
772	9
773	4
774	2
775	6
776	6
777	4
778	5
779	6
780	3
781	6
782	3
783	2
784	1
785	8
786	5
787	7
788	6
789	3
790	3
791	5
792	4
793	2
794	4
795	8
796	3
797	8
798	8
799	2
800	5
801	5
802	7
803	5
804	9
805	4
806	4
807	3
808	9
809	2
810	1
811	6
812	2
813	3
814	4
815	1
816	9
817	2
818	7
819	4
820	1
821	4
822	4
823	7
824	9
825	9
826	8
827	2
828	7
829	4
830	9
831	3
832	3
833	5
834	2
835	7
836	7
837	5
838	4
839	6
840	9
841	8
842	9
843	3
844	4
845	8
846	8
847	4
848	3
849	7
850	1
851	6
852	4
853	7
854	2
855	3
856	9
857	1
858	4
859	2
860	2
861	4
862	5
863	5
864	4
865	8
866	5
867	4
868	8
869	3
870	1
871	3
872	1
873	6
874	1
875	4
876	9
877	2
878	1
879	1
880	8
881	4
882	6
883	7
884	2
885	6
886	1
887	6
888	9
889	7
890	5
891	9
892	9
893	8
894	2
895	8
896	6
897	8
898	2
899	7
900	8
901	3
902	1
903	8
904	7
905	6
906	9
907	7
908	5
909	9
910	2
911	7
912	9
913	9
914	8
915	2
916	6
917	2
918	5
919	3
920	6
921	8
922	7
923	6
924	9
925	1
926	3
927	3
928	6
929	3
930	3
931	9
932	9
933	8
934	1
935	3
936	3
937	9
938	5
939	4
940	3
941	8
942	9
943	6
944	1
945	3
946	4
947	7
948	4
949	1
950	4
951	3
952	9
953	1
954	2
955	8
956	7
957	4
958	3
959	5
960	2
961	9
962	6
963	5
964	5
965	7
966	8
967	5
968	6
969	4
970	9
971	2
972	7
973	9
974	6
975	4
976	3
977	5
978	8
979	6
980	4
981	5
982	6
983	1
984	9
985	4
986	1
987	3
988	7
989	1
990	8
991	6
992	5
993	9
994	5
995	1
996	7
997	1
998	3
999	9
1000	1
1001	2
TIME_WINDOW_SECTION
1	0	3000
2	0	1370
3	321	554
4	1868	2121
5	1054	2565
6	1004	2992
7	1015	1939
8	1702	2117
9	1469	1824
10	1723	1954
11	1651	2237
12	1204	2555
13	0	1464
14	1087	2664
15	74	1169
16	1568	3000
17	309	1636
18	1476	1681
19	629	944
20	1031	1255
21	0	1833
22	958	1842
23	691	1850
24	1612	2028
25	1356	1576
26	163	2146
27	385	1398
28	1451	2261
29	620	971
30	1619	2302
31	533	1013
32	227	2012
33	497	1874
34	1658	2536
35	238	849
36	1055	2166
37	1003	1908
38	697	1999
39	169	2060
40	0	1079
41	1212	3000
42	1734	2847
43	262	762
44	651	1403
45	868	2717
46	686	2247
47	1560	2028
48	1861	2865
49	175	1923
50	1111	2676
51	1797	3000
52	430	1105
53	6	1330
54	658	891
55	1549	2141
56	1007	2329
57	691	1606
58	0	1319
59	1315	2392
60	951	1840
61	755	2329
62	1046	2262
63	347	1147
64	246	2029
65	815	2539
66	1112	2415
67	1584	3000
68	1179	2068
69	631	1300
70	1265	1719
71	1068	2034
72	0	1475
73	169	1710
74	169	732
75	1366	3000
76	264	817
77	1485	2266
78	992	2054
79	670	1094
80	1153	1690
81	865	2237
82	1972	3000
83	587	2129
84	498	1701
85	447	863
86	686	1614
87	766	1671
88	1069	1915
89	1324	1852
90	1734	1935
91	2218	2498
92	0	1734
93	1635	3000
94	199	1650
95	1396	1675
96	1604	2417
97	1167	2126
98	439	1039
99	1060	2035
100	1657	2846
101	756	1454
102	1871	2467
103	785	1961
104	1531	1817
105	1436	1983
106	370	1443
107	1064	2620
108	1462	2970
109	1265	1933
110	1700	2082
111	1218	1750
112	737	1594
113	1133	2648
114	452	2051
115	1038	2811
116	1644	3000
117	1471	2496
118	0	1820
119	1323	2031
120	1792	2377
121	576	2538
122	764	2362
123	1100	2928
124	81	1478
125	859	1821
126	1024	2611
127	0	1417
128	438	1940
129	1393	1671
130	350	1737
131	391	1903
132	1811	3000
133	1663	2173
134	1002	1712
135	1169	1532
136	176	1601
137	1368	1874
138	1108	2114
139	1388	3000
140	690	2301
141	1473	2807
142	0	1700
143	870	2810
144	2065	2435
145	861	2542
146	1049	2477
147	1134	3000
148	949	2429
149	786	1188
150	453	1766
151	1067	1300
152	1502	2171
153	1005	1512
154	565	1664
155	923	2458
156	638	1140
157	1056	2655
158	1790	2349
159	234	1401
160	1554	2306
161	1552	2653
162	495	2223
163	858	1702
164	1701	2039
165	0	1942
166	733	1612
167	1143	1563
168	275	1905
169	0	1109
170	365	1243
171	993	1429
172	1767	2162
173	1015	1258
174	299	1148
175	1245	2608
176	766	1450
177	0	1293
178	1648	3000
179	804	2080
180	1609	3000
181	0	1946
182	898	2124
183	413	1967
184	803	1465
185	296	1351
186	247	2163
187	727	2283
188	341	913
189	551	883
190	0	1629
191	1154	2808
192	54	1874
193	172	1315
194	1164	1735
195	1463	1923
196	540	2052
197	1093	2939
198	1212	2279
199	0	821
200	239	675
201	0	1599
202	0	1783
203	924	2686
204	1300	3000
205	0	1737
206	286	1761
207	784	1107
208	635	2296
209	422	1308
210	0	1124
211	1069	2037
212	816	1740
213	201	1244
214	41	245
215	196	1364
216	492	2123
217	295	1058
218	1354	2354
219	257	2017
220	1576	2048
221	1832	2243
222	670	1995
223	39	930
224	482	2049
225	1174	2578
226	1402	3000
227	699	2317
228	251	1815
229	87	1819
230	436	1862
231	1727	3000
232	914	1216
233	1821	3000
234	657	1325
235	1953	2511
236	764	1677
237	604	1763
238	1526	3000
239	312	2118
240	0	1159
241	1543	3000
242	578	1849
243	301	1165
244	1369	1826
245	0	1908
246	1921	2240
247	556	1892
248	1536	3000
249	612	1558
250	1909	3000
251	1311	2355
252	1247	2326
253	572	2263
254	769	1700
255	1146	1916
256	1427	2989
257	392	695
258	1223	2115
259	1916	2532
260	657	1209
261	0	1026
262	54	2011
263	1616	3000
264	0	1070
265	1710	2467
266	1823	2436
267	880	2624
268	600	1024
269	1850	2703
270	1097	2233
271	694	1701
272	50	1512
273	1134	2548
274	0	1669
275	1227	2625
276	889	1355
277	1134	2328
278	459	1250
279	809	2058
280	1035	1614
281	1045	2585
282	2083	2501
283	790	1999
284	1665	2669
285	1137	1556
286	1121	1774
287	1137	1492
288	198	903
289	28	2008
290	917	2055
291	0	1139
292	1466	3000
293	873	1719
294	1077	2948
295	1788	2869
296	0	1292
297	1425	2331
298	1116	1655
299	1213	1869
300	1762	3000
301	1282	2236
302	1364	1791
303	119	2062
304	619	2167
305	0	1666
306	1494	1713
307	0	500
308	696	2627
309	1760	2188
310	593	1542
311	1241	2023
312	1295	2587
313	1701	3000
314	888	1197
315	269	1267
316	195	408
317	0	1198
318	0	1220
319	697	2295
320	943	2421
321	0	1196
322	987	2120
323	76	1268
324	250	1933
325	1105	2134
326	681	2352
327	1351	1608
328	860	1567
329	1177	2189
330	373	1639
331	0	1637
332	1222	3000
333	898	1357
334	676	914
335	941	2022
336	1762	2174
337	485	2376
338	647	1377
339	877	1990
340	1757	1977
341	1391	2927
342	1371	1675
343	448	1829
344	796	2376
345	992	2225
346	0	1774
347	1644	2645
348	474	1598
349	1014	1976
350	0	1502
351	17	1873
352	0	930
353	1566	2750
354	0	1783
355	871	1849
356	1215	2700
357	456	759
358	1131	2222
359	1209	1733
360	104	2043
361	592	2543
362	716	1910
363	0	1191
364	0	1506
365	1204	2101
366	99	390
367	377	1770
368	457	1253
369	258	2084
370	676	1323
371	635	1876
372	571	1060
373	414	2101
374	1650	2117
375	363	812
376	1816	2232
377	102	1333
378	1220	1741
379	0	988
380	135	1745
381	0	1269
382	336	1059
383	129	1356
384	0	1833
385	0	1759
386	0	1321
387	1423	2340
388	126	906
389	281	1753
390	55	927
391	1224	1477
392	1305	2614
393	406	2218
394	126	2104
395	1504	2353
396	1128	1464
397	41	929
398	1034	2916
399	782	2295
400	570	1015
401	1126	2207
402	835	2637
403	1778	2013
404	1454	2434
405	203	1541
406	712	1881
407	1192	1700
408	1534	2585
409	111	963
410	619	2097
411	871	2644
412	1034	2928
413	1572	2046
414	1251	2970
415	1532	2094
416	474	2087
417	650	1798
418	456	1861
419	648	1414
420	2196	3000
421	1654	3000
422	1447	3000
423	411	1914
424	103	1973
425	1380	3000
426	983	2343
427	109	1165
428	137	1679
429	1335	2014
430	1376	1675
431	418	1069
432	81	1083
433	1376	2035
434	1074	1899
435	1099	2487
436	141	1344
437	744	1923
438	1051	2727
439	251	2235
440	1007	2823
441	414	1907
442	943	2422
443	1400	2325
444	883	1091
445	863	2515
446	1002	2222
447	1298	1811
448	572	976
449	303	1129
450	1986	2790
451	177	1346
452	1499	3000
453	1236	3000
454	175	734
455	1368	2067
456	1419	1836
457	1525	2561
458	0	1330
459	73	1556
460	1474	2903
461	367	2245
462	492	1683
463	501	1222
464	514	1565
465	673	1071
466	1106	1811
467	0	1328
468	518	741
469	1292	2441
470	910	1543
471	2068	2849
472	2004	2799
473	812	1021
474	1867	2072
475	746	1812
476	857	1614
477	962	1583
478	605	2314
479	0	865
480	1341	1738
481	1477	2047
482	844	1423
483	0	1444
484	472	1069
485	1677	2040
486	1159	2089
487	1153	1742
488	1809	2786
489	0	1052
490	380	1468
491	499	1904
492	298	1585
493	996	2572
494	1728	2101
495	2133	3000
496	461	1523
497	371	1385
498	324	694
499	1221	2929
500	9	1455
501	317	1885
502	1179	2232
503	0	1070
504	883	2518
505	862	1670
506	2333	3000
507	2048	2321
508	470	912
509	1149	1830
510	1151	2061
511	242	942
512	2076	2555
513	128	1196
514	1483	1986
515	690	2438
516	938	1833
517	0	1525
518	191	2099
519	195	1658
520	927	1527
521	220	653
522	1553	2781
523	593	1716
524	586	2542
525	891	2817
526	678	2270
527	348	2305
528	903	2146
529	495	1303
530	175	1170
531	359	1449
532	1372	2407
533	740	2728
534	233	1702
535	691	2164
536	624	2581
537	1541	1837
538	1674	2220
539	1879	2133
540	1729	2375
541	859	2669
542	339	1447
543	1206	2198
544	0	1596
545	417	1245
546	1531	2685
547	481	2002
548	594	2502
549	1681	2663
550	1079	1609
551	136	1173
552	1463	3000
553	1444	2591
554	9	863
555	679	1015
556	2095	2307
557	2141	2630
558	1720	2090
559	1074	2463
560	618	1944
561	81	1698
562	1465	3000
563	670	1489
564	1132	2660
565	493	1422
566	0	1222
567	479	1779
568	1241	1493
569	1776	1981
570	192	1801
571	952	1473
572	373	2052
573	211	555
574	1063	2582
575	0	931
576	1610	3000
577	811	2000
578	2202	2864
579	872	2438
580	743	1045
581	765	1982
582	1670	2130
583	815	2083
584	0	835
585	763	1517
586	828	2624
587	819	1719
588	771	1798
589	722	1090
590	1366	2840
591	1393	1637
592	1584	2768
593	1172	2426
594	1448	1758
595	0	621
596	1230	1926
597	0	1369
598	1245	1482
599	258	1885
600	407	1546
601	610	2352
602	9	1034
603	513	1446
604	1889	2457
605	68	693
606	1768	2149
607	414	1209
608	1319	1688
609	681	1925
610	702	2128
611	272	808
612	200	1308
613	455	2215
614	67	1187
615	1723	2662
616	839	1074
617	0	1751
618	1536	2251
619	1290	2833
620	767	1210
621	646	2237
622	906	2100
623	429	1395
624	879	2168
625	1362	3000
626	1146	2844
627	1714	2606
628	1253	2632
629	17	1058
630	667	1410
631	967	2075
632	1250	1581
633	509	2408
634	600	1161
635	969	2839
636	1209	2356
637	529	1109
638	1239	2538
639	1149	2250
640	0	1843
641	0	625
642	1757	2020
643	231	2125
644	902	1657
645	1646	2307
646	35	1947
647	804	2301
648	1264	2637
649	1635	2891
650	523	1764
651	1280	2703
652	921	1478
653	1785	2186
654	1716	2685
655	804	2167
656	461	1081
657	182	1055
658	1796	2295
659	150	784
660	1387	3000
661	0	1434
662	1102	2474
663	118	1860
664	353	1606
665	1370	2160
666	688	1179
667	1965	2292
668	259	1957
669	810	2068
670	1026	2027
671	0	1506
672	571	1929
673	1268	2284
674	0	999
675	1251	2036
676	326	764
677	1467	2095
678	1596	2787
679	18	678
680	1372	2011
681	762	2555
682	635	1908
683	859	1764
684	1490	2253
685	781	2682
686	220	1752
687	1486	3000
688	0	1421
689	1181	2622
690	87	1879
691	1129	2949
692	1831	3000
693	1869	2099
694	1595	2548
695	602	1415
696	302	1362
697	1617	2156
698	1419	2526
699	1505	2913
700	316	1833
701	1034	2263
702	1887	3000
703	1378	2832
704	201	457
705	1168	2132
706	1614	2051
707	1336	1900
708	130	1899
709	1324	2763
710	1230	1731
711	408	825
712	538	1528
713	1042	2567
714	927	2567
715	860	1683
716	512	2054
717	544	1605
718	1531	2116
719	1154	1487
720	1888	2452
721	1132	1845
722	941	2216
723	571	2218
724	363	1851
725	1056	1500
726	1116	2798
727	726	2660
728	0	881
729	771	1970
730	341	844
731	1660	2121
732	308	2242
733	1233	1686
734	826	1769
735	1243	2030
736	1283	2172
737	1490	1805
738	1160	3000
739	688	2118
740	842	1306
741	469	925
742	1570	2295
743	0	1008
744	1682	2642
745	1664	1876
746	301	830
747	37	1428
748	1482	3000
749	1449	1843
750	299	1384
751	97	1938
752	125	1125
753	1097	1608
754	455	1493
755	0	1749
756	230	1068
757	155	1746
758	121	1627
759	1108	2396
760	1051	1277
761	1424	2576
762	145	1798
763	1340	2918
764	372	665
765	1322	2419
766	0	1399
767	1279	1836
768	1576	2347
769	840	2567
770	578	2231
771	1365	2704
772	0	1010
773	322	1810
774	73	1998
775	321	1928
776	1218	2678
777	148	1460
778	1531	2207
779	1152	2735
780	535	1701
781	1858	3000
782	278	1920
783	1316	2670
784	924	1163
785	733	1308
786	908	2400
787	105	1270
788	1080	1607
789	2091	2364
790	1098	2767
791	1600	1974
792	331	882
793	1655	1982
794	616	1851
795	2222	2698
796	1313	1760
797	1465	2278
798	448	1280
799	909	2820
800	1550	2284
801	1126	1762
802	1603	2058
803	765	2315
804	444	1802
805	2271	2861
806	0	1140
807	428	1593
808	276	656
809	0	747
810	0	862
811	1871	2402
812	480	1627
813	475	1993
814	1615	2187
815	1358	2797
816	1375	3000
817	2055	3000
818	1225	2365
819	1684	2870
820	371	1603
821	0	1129
822	1295	3000
823	735	1847
824	963	2225
825	1036	1511
826	277	1856
827	1676	2661
828	377	1237
829	625	960
830	1121	2451
831	578	848
832	1061	2493
833	319	903
834	0	1283
835	1254	3000
836	586	2242
837	0	1420
838	785	1931
839	522	1020
840	661	2502
841	1185	2066
842	10	1152
843	1329	1640
844	1110	2369
845	0	1525
846	1248	2349
847	342	1159
848	1646	2085
849	353	2338
850	1552	3000
851	332	906
852	762	2476
853	293	1797
854	510	2401
855	1135	3000
856	1457	1719
857	915	2004
858	1434	2382
859	0	1857
860	662	1838
861	333	799
862	2077	2328
863	1460	2592
864	0	1018
865	664	932
866	997	1771
867	1360	2202
868	1198	2163
869	601	941
870	782	2432
871	2252	2740
872	995	1502
873	1104	1475
874	1401	1751
875	1355	2379
876	1822	2866
877	0	1641
878	1500	2477
879	1536	3000
880	1544	2000
881	413	1460
882	798	1313
883	854	2403
884	568	1286
885	690	2393
886	787	1360
887	396	1789
888	0	1684
889	95	1869
890	653	1177
891	915	1924
892	1193	1994
893	1819	2126
894	393	1267
895	2088	2730
896	398	1243
897	1330	1682
898	197	2062
899	539	1399
900	0	1284
901	980	2874
902	229	1157
903	456	1836
904	1304	1826
905	0	1010
906	1679	1914
907	630	1933
908	521	2171
909	0	1178
910	736	2315
911	549	803
912	1622	2062
913	960	1330
914	912	1638
915	848	2606
916	363	1060
917	0	1733
918	478	1208
919	1002	2350
920	899	1306
921	0	1703
922	189	2036
923	426	1161
924	527	1541
925	1678	2097
926	1106	2605
927	1436	2981
928	1009	2645
929	925	1343
930	282	1500
931	1060	2395
932	177	1756
933	1145	1716
934	1707	2678
935	253	1398
936	1414	1834
937	1012	2376
938	281	1313
939	1634	2182
940	1354	3000
941	1264	2720
942	1559	2031
943	1632	2005
944	244	879
945	473	1428
946	1250	1652
947	308	1457
948	651	967
949	0	1770
950	1694	1943
951	475	1982
952	671	1606
953	0	1802
954	667	1238
955	469	1655
956	665	1248
957	1165	2080
958	1291	3000
959	0	1453
960	1750	2139
961	234	1891
962	986	2109
963	1863	2565
964	962	1613
965	1279	2751
966	1175	2919
967	269	1681
968	1565	3000
969	0	1687
970	2086	3000
971	1540	1986
972	1438	3000
973	894	1635
974	0	1631
975	1685	2283
976	124	2001
977	969	2943
978	1506	2015
979	918	2872
980	90	543
981	854	2667
982	460	1375
983	1609	2663
984	605	1246
985	48	1750
986	286	2011
987	1624	2685
988	154	1425
989	1644	2777
990	381	1578
991	1048	2141
992	1147	2715
993	267	1991
994	191	1254
995	1938	2619
996	1931	2924
997	404	1987
998	1303	2464
999	715	1165
1000	220	1094
1001	1277	1902
BACKHAUL_SECTION
8	19	28	30	31	39	40	42	45	46	49	58	66	72	73	89	90	104	106	111	121	126	127	128	134	137	145	150	152	155	189	191	203	204	206	220	233	236	239	241	242	246	248	259	260	270	279	298	305	307	308	311	313	316	325	330	331	342	343	344	347	350	352	357	366	369	371	372	375	392	400	401	407	412	416	417	431	432	441	444	447	455	462	463	466	467	472	474	489	495	501	506	513	514	516	520	522	523	527	531	534	541	545	547	557	567	576	581	585	586	589	592	596	599	607	617	622	635	642	649	653	665	666	668	670	684	689	692	693	695	700	717	720	722	723	724	728	733	737	743	748	750	752	755	757	764	766	780	788	789	790	791	793	796	800	801	802	815	816	817	818	823	825	833	836	838	843	845	857	862	871	875	889	897	902	904	909	910	915	924	928	936	941	943	944	945	955	957	959	961	966	968	972	974	983	984	994	996	997	999	-1
DEPOT_SECTION
1
-1
EOF
