NAME : n1001-0016
COMMENT : "Generated by pyvrp_manuel (VRPBTW)"
TYPE : VRPBTW
DIMENSION : 1001
EDGE_WEIGHT_TYPE : EUC_2D
CAPACITY : 150
VEHICLES : 1000
SERVICE_TIME : 200
NODE_COORD_SECTION
1	792	996
2	770	411
3	2	677
4	149	791
5	225	203
6	862	374
7	231	886
8	270	600
9	200	237
10	261	508
11	511	819
12	353	34
13	239	901
14	246	796
15	117	701
16	835	820
17	975	449
18	570	25
19	132	20
20	631	42
21	391	429
22	146	686
23	599	939
24	774	479
25	864	237
26	81	933
27	643	118
28	640	862
29	139	185
30	542	716
31	752	573
32	291	980
33	800	856
34	680	568
35	184	776
36	837	383
37	310	432
38	155	220
39	34	311
40	828	993
41	121	949
42	219	923
43	628	732
44	372	468
45	162	241
46	894	549
47	571	57
48	815	434
49	379	48
50	147	110
51	652	648
52	332	702
53	535	24
54	502	381
55	48	996
56	862	514
57	225	401
58	319	400
59	567	377
60	347	645
61	203	511
62	912	285
63	596	45
64	795	798
65	695	448
66	551	102
67	852	208
68	295	655
69	847	104
70	395	476
71	266	970
72	16	361
73	756	68
74	894	430
75	999	109
76	86	379
77	758	431
78	514	218
79	578	387
80	679	299
81	237	381
82	169	679
83	924	584
84	999	698
85	325	21
86	804	340
87	3	274
88	189	122
89	632	111
90	753	756
91	550	187
92	427	948
93	153	981
94	430	368
95	971	548
96	693	742
97	188	796
98	356	704
99	199	918
100	992	660
101	879	527
102	667	850
103	47	884
104	380	451
105	304	726
106	271	216
107	665	81
108	814	293
109	650	990
110	958	567
111	531	757
112	118	175
113	650	333
114	58	890
115	416	748
116	257	135
117	85	871
118	337	276
119	605	561
120	339	709
121	488	742
122	592	619
123	429	50
124	138	825
125	800	48
126	464	392
127	110	761
128	833	236
129	900	875
130	781	695
131	693	201
132	263	510
133	781	481
134	641	916
135	82	395
136	151	622
137	572	715
138	902	243
139	305	246
140	556	882
141	18	180
142	818	662
143	112	16
144	494	950
145	146	504
146	13	838
147	131	928
148	531	905
149	247	542
150	277	349
151	752	473
152	932	732
153	778	123
154	894	825
155	34	702
156	990	811
157	596	964
158	847	290
159	132	323
160	534	116
161	52	470
162	238	89
163	493	64
164	78	847
165	132	379
166	342	535
167	664	984
168	213	277
169	238	334
170	950	166
171	612	56
172	685	300
173	972	767
174	108	806
175	103	995
176	383	276
177	761	211
178	742	435
179	475	230
180	688	137
181	803	868
182	677	762
183	990	587
184	614	143
185	633	622
186	828	907
187	433	453
188	843	640
189	166	162
190	908	635
191	884	511
192	698	212
193	885	628
194	537	562
195	124	374
196	202	128
197	922	452
198	246	885
199	99	955
200	80	911
201	31	930
202	860	423
203	569	525
204	728	194
205	898	861
206	861	780
207	206	515
208	807	276
209	722	233
210	31	862
211	785	538
212	601	907
213	469	402
214	603	436
215	995	738
216	168	419
217	136	49
218	415	558
219	317	643
220	520	24
221	836	768
222	502	717
223	980	241
224	783	640
225	370	352
226	360	283
227	907	985
228	546	810
229	629	95
230	361	144
231	482	712
232	732	54
233	832	612
234	227	866
235	410	459
236	941	591
237	72	656
238	272	707
239	536	941
240	346	763
241	741	279
242	467	979
243	256	443
244	388	508
245	62	113
246	934	671
247	438	723
248	434	503
249	549	366
250	971	599
251	390	352
252	200	573
253	519	320
254	474	153
255	525	153
256	502	851
257	188	965
258	868	53
259	450	37
260	736	582
261	57	618
262	680	910
263	740	393
264	385	534
265	920	386
266	436	41
267	970	473
268	234	831
269	43	324
270	613	585
271	904	891
272	212	424
273	309	787
274	558	945
275	903	664
276	372	299
277	725	422
278	477	322
279	216	355
280	690	549
281	53	27
282	286	413
283	457	650
284	175	859
285	555	906
286	897	788
287	23	507
288	724	788
289	816	935
290	804	299
291	938	917
292	963	258
293	819	457
294	750	176
295	933	16
296	831	549
297	484	287
298	91	621
299	286	363
300	297	643
301	931	154
302	922	467
303	628	67
304	257	779
305	381	17
306	925	115
307	923	818
308	247	572
309	975	958
310	455	4
311	344	511
312	264	672
313	629	215
314	584	296
315	745	57
316	741	697
317	339	927
318	985	443
319	787	523
320	389	197
321	859	666
322	371	523
323	439	471
324	903	994
325	951	668
326	887	700
327	358	981
328	770	446
329	104	561
330	468	969
331	455	265
332	500	892
333	68	997
334	390	129
335	450	635
336	132	299
337	210	77
338	124	704
339	484	558
340	478	655
341	44	899
342	486	29
343	837	190
344	571	693
345	5	518
346	90	142
347	478	480
348	123	284
349	200	146
350	645	44
351	144	814
352	627	842
353	361	36
354	51	123
355	630	223
356	572	757
357	856	584
358	777	115
359	933	617
360	856	545
361	752	921
362	231	98
363	171	363
364	58	568
365	300	122
366	11	362
367	71	558
368	710	784
369	996	417
370	482	765
371	413	516
372	376	442
373	758	687
374	496	356
375	38	894
376	897	721
377	309	128
378	124	513
379	693	164
380	993	769
381	368	180
382	473	375
383	546	608
384	195	395
385	731	335
386	271	21
387	78	55
388	503	911
389	904	190
390	381	35
391	181	711
392	98	155
393	897	305
394	480	766
395	93	52
396	671	89
397	947	272
398	200	1
399	511	403
400	981	24
401	531	470
402	682	415
403	220	828
404	292	586
405	309	241
406	878	230
407	393	398
408	303	306
409	223	196
410	397	662
411	220	178
412	333	733
413	971	814
414	689	631
415	942	261
416	822	991
417	946	96
418	507	655
419	414	213
420	617	595
421	197	360
422	913	708
423	197	184
424	672	363
425	791	799
426	959	159
427	721	454
428	663	306
429	180	566
430	0	17
431	238	280
432	236	101
433	795	69
434	961	820
435	856	778
436	326	756
437	751	587
438	903	572
439	643	726
440	393	329
441	226	991
442	512	380
443	823	741
444	849	628
445	93	16
446	968	147
447	616	487
448	545	328
449	459	965
450	855	330
451	835	44
452	874	504
453	721	55
454	541	946
455	69	40
456	662	48
457	784	752
458	648	570
459	673	976
460	27	785
461	723	339
462	876	660
463	388	939
464	529	404
465	58	942
466	926	720
467	657	94
468	784	127
469	269	705
470	551	467
471	571	831
472	767	191
473	274	153
474	427	278
475	259	851
476	306	404
477	643	450
478	197	456
479	706	756
480	839	313
481	49	471
482	610	635
483	641	626
484	833	116
485	224	631
486	995	945
487	233	392
488	140	941
489	824	274
490	938	551
491	338	314
492	82	288
493	382	822
494	245	475
495	990	380
496	139	580
497	524	90
498	339	786
499	475	836
500	268	607
501	706	13
502	330	957
503	858	732
504	276	10
505	592	784
506	38	786
507	589	984
508	602	275
509	205	754
510	884	472
511	712	818
512	384	115
513	465	214
514	468	829
515	688	565
516	704	33
517	142	783
518	893	381
519	311	839
520	221	708
521	294	899
522	80	256
523	74	175
524	781	78
525	979	316
526	445	470
527	936	342
528	698	279
529	779	159
530	141	710
531	794	592
532	788	490
533	495	845
534	553	147
535	330	108
536	898	545
537	196	820
538	347	54
539	957	512
540	94	363
541	712	848
542	76	881
543	681	13
544	268	25
545	414	540
546	560	206
547	183	188
548	413	381
549	244	126
550	638	137
551	327	386
552	398	972
553	380	197
554	160	476
555	743	893
556	721	516
557	392	258
558	362	578
559	815	773
560	597	460
561	29	689
562	420	124
563	81	730
564	802	923
565	107	723
566	935	877
567	709	702
568	38	818
569	105	785
570	569	139
571	961	194
572	830	438
573	63	357
574	242	826
575	298	234
576	845	346
577	646	720
578	768	864
579	352	454
580	648	615
581	843	754
582	505	905
583	908	275
584	701	903
585	421	517
586	215	143
587	315	568
588	721	452
589	426	768
590	285	821
591	748	791
592	283	643
593	768	800
594	578	502
595	452	439
596	465	914
597	783	2
598	53	392
599	397	760
600	979	79
601	98	474
602	458	233
603	791	533
604	63	750
605	30	118
606	264	238
607	524	287
608	185	650
609	879	349
610	748	410
611	502	599
612	521	487
613	297	151
614	363	398
615	802	391
616	129	949
617	36	168
618	926	499
619	981	292
620	273	742
621	760	446
622	530	893
623	907	365
624	661	445
625	522	643
626	206	294
627	511	223
628	899	906
629	382	237
630	512	360
631	809	361
632	457	53
633	71	795
634	492	697
635	984	413
636	805	537
637	203	810
638	428	863
639	374	713
640	244	852
641	964	117
642	576	327
643	124	997
644	277	137
645	419	214
646	168	330
647	515	657
648	879	771
649	614	527
650	244	458
651	139	805
652	251	461
653	610	163
654	274	330
655	488	705
656	890	29
657	202	6
658	225	242
659	706	428
660	905	703
661	208	932
662	910	425
663	14	70
664	507	596
665	430	864
666	51	852
667	498	716
668	7	782
669	335	519
670	531	38
671	32	471
672	921	472
673	598	765
674	998	125
675	154	134
676	897	855
677	392	430
678	657	636
679	599	727
680	8	641
681	473	165
682	237	18
683	0	319
684	323	169
685	296	86
686	600	28
687	819	668
688	981	176
689	365	980
690	901	641
691	552	136
692	765	421
693	174	575
694	313	234
695	677	448
696	901	35
697	180	571
698	533	623
699	150	753
700	9	110
701	306	424
702	331	21
703	873	571
704	407	716
705	74	992
706	648	255
707	337	468
708	49	35
709	126	667
710	406	206
711	365	764
712	882	505
713	995	317
714	87	350
715	274	924
716	467	213
717	232	415
718	370	275
719	164	30
720	259	34
721	562	827
722	321	719
723	200	741
724	861	647
725	925	812
726	678	290
727	112	148
728	185	950
729	745	185
730	967	671
731	587	258
732	390	510
733	561	529
734	379	245
735	150	936
736	736	920
737	955	287
738	684	575
739	317	588
740	656	950
741	944	830
742	527	924
743	193	346
744	406	385
745	565	134
746	547	481
747	361	372
748	269	317
749	528	844
750	299	924
751	938	271
752	113	819
753	50	214
754	724	747
755	979	417
756	381	583
757	274	288
758	761	123
759	821	987
760	424	230
761	396	481
762	906	644
763	443	350
764	20	659
765	672	656
766	934	261
767	822	898
768	670	839
769	606	426
770	974	491
771	483	879
772	281	721
773	465	982
774	414	773
775	361	742
776	842	97
777	733	38
778	177	499
779	953	207
780	250	355
781	825	377
782	446	462
783	243	134
784	463	85
785	714	753
786	192	136
787	713	584
788	34	433
789	354	610
790	297	864
791	128	856
792	214	616
793	916	940
794	346	403
795	624	124
796	536	978
797	315	66
798	660	107
799	932	330
800	850	4
801	87	221
802	329	785
803	210	4
804	185	338
805	222	317
806	718	126
807	375	132
808	148	790
809	329	341
810	53	926
811	49	912
812	144	986
813	368	457
814	219	285
815	342	566
816	776	898
817	359	451
818	447	989
819	260	9
820	986	941
821	124	470
822	59	661
823	976	179
824	68	913
825	859	335
826	731	776
827	23	741
828	844	626
829	383	778
830	717	207
831	997	610
832	878	296
833	453	29
834	836	344
835	676	19
836	256	636
837	917	104
838	427	664
839	64	303
840	313	840
841	857	939
842	30	906
843	403	48
844	39	49
845	299	39
846	610	847
847	1	965
848	265	355
849	633	784
850	656	122
851	486	106
852	698	360
853	767	660
854	983	513
855	3	499
856	959	542
857	464	90
858	143	483
859	700	484
860	103	281
861	235	243
862	609	53
863	585	256
864	437	327
865	696	958
866	27	886
867	87	912
868	235	491
869	688	529
870	857	166
871	483	683
872	182	832
873	690	844
874	356	549
875	307	912
876	13	916
877	677	995
878	686	729
879	195	269
880	192	989
881	259	754
882	263	875
883	232	388
884	656	79
885	348	936
886	200	574
887	823	918
888	626	272
889	93	127
890	310	151
891	546	520
892	837	787
893	630	40
894	365	571
895	312	284
896	738	927
897	814	776
898	838	565
899	944	742
900	366	473
901	520	484
902	775	507
903	175	355
904	638	772
905	916	194
906	670	540
907	803	140
908	564	391
909	525	446
910	620	494
911	522	83
912	686	414
913	209	814
914	771	903
915	598	970
916	71	112
917	77	931
918	675	115
919	214	40
920	116	745
921	84	369
922	462	574
923	116	156
924	136	486
925	244	332
926	547	825
927	496	949
928	767	623
929	491	511
930	15	765
931	628	421
932	627	242
933	480	269
934	79	445
935	133	864
936	629	107
937	733	651
938	151	449
939	487	485
940	730	132
941	199	673
942	156	385
943	456	657
944	46	58
945	25	636
946	712	34
947	896	406
948	694	506
949	398	241
950	203	814
951	519	425
952	533	379
953	226	863
954	240	912
955	712	850
956	683	39
957	796	929
958	504	66
959	952	118
960	686	75
961	626	979
962	273	288
963	948	803
964	452	830
965	43	829
966	654	335
967	731	523
968	600	60
969	157	319
970	444	395
971	91	485
972	743	67
973	792	594
974	593	947
975	777	851
976	68	800
977	546	53
978	592	942
979	713	607
980	138	847
981	341	979
982	62	63
983	968	116
984	3	581
985	619	200
986	646	218
987	329	106
988	224	808
989	604	677
990	455	710
991	51	960
992	617	845
993	858	528
994	870	381
995	795	423
996	947	483
997	923	512
998	862	254
999	152	934
1000	609	962
1001	187	529
DEMAND_SECTION
1	0
2	4
3	3
4	1
5	8
6	7
7	4
8	5
9	9
10	4
11	8
12	4
13	9
14	4
15	5
16	9
17	8
18	4
19	7
20	6
21	1
22	6
23	1
24	5
25	6
26	6
27	8
28	7
29	8
30	3
31	6
32	4
33	2
34	6
35	8
36	1
37	2
38	2
39	1
40	4
41	7
42	5
43	9
44	8
45	3
46	1
47	5
48	7
49	1
50	4
51	6
52	6
53	7
54	5
55	2
56	7
57	5
58	1
59	3
60	6
61	7
62	8
63	9
64	6
65	9
66	4
67	3
68	4
69	4
70	6
71	4
72	8
73	9
74	5
75	4
76	5
77	1
78	6
79	1
80	9
81	9
82	9
83	9
84	7
85	3
86	9
87	7
88	2
89	3
90	8
91	8
92	3
93	3
94	3
95	7
96	7
97	6
98	9
99	4
100	2
101	7
102	4
103	1
104	3
105	6
106	3
107	2
108	4
109	5
110	9
111	6
112	2
113	8
114	4
115	8
116	7
117	4
118	3
119	5
120	3
121	3
122	4
123	6
124	7
125	5
126	8
127	1
128	9
129	6
130	7
131	4
132	7
133	7
134	6
135	3
136	5
137	7
138	8
139	2
140	5
141	8
142	2
143	6
144	9
145	7
146	1
147	3
148	2
149	3
150	3
151	3
152	1
153	4
154	1
155	2
156	5
157	2
158	9
159	2
160	9
161	4
162	7
163	1
164	2
165	9
166	8
167	3
168	2
169	3
170	8
171	5
172	2
173	8
174	9
175	8
176	1
177	1
178	6
179	4
180	6
181	9
182	3
183	4
184	8
185	7
186	9
187	5
188	3
189	5
190	5
191	9
192	7
193	8
194	5
195	2
196	4
197	4
198	1
199	9
200	1
201	3
202	6
203	2
204	4
205	3
206	8
207	7
208	6
209	4
210	8
211	3
212	1
213	2
214	6
215	3
216	2
217	5
218	4
219	1
220	2
221	5
222	7
223	7
224	8
225	2
226	4
227	9
228	1
229	4
230	8
231	5
232	6
233	5
234	9
235	3
236	9
237	4
238	2
239	4
240	7
241	3
242	7
243	4
244	2
245	6
246	9
247	2
248	6
249	8
250	6
251	1
252	6
253	1
254	9
255	8
256	5
257	7
258	3
259	7
260	7
261	1
262	6
263	8
264	7
265	7
266	2
267	4
268	1
269	9
270	9
271	9
272	2
273	2
274	3
275	2
276	6
277	5
278	8
279	4
280	3
281	4
282	3
283	7
284	5
285	3
286	1
287	3
288	2
289	3
290	3
291	9
292	3
293	6
294	6
295	7
296	1
297	4
298	8
299	1
300	8
301	8
302	5
303	8
304	2
305	7
306	9
307	2
308	5
309	4
310	4
311	9
312	6
313	8
314	8
315	1
316	9
317	3
318	2
319	4
320	3
321	3
322	5
323	6
324	4
325	1
326	3
327	3
328	8
329	2
330	4
331	9
332	1
333	9
334	8
335	1
336	5
337	5
338	9
339	3
340	3
341	4
342	8
343	6
344	1
345	8
346	1
347	4
348	8
349	3
350	2
351	5
352	8
353	4
354	2
355	3
356	5
357	3
358	4
359	6
360	2
361	4
362	6
363	6
364	2
365	8
366	8
367	5
368	3
369	7
370	6
371	4
372	8
373	5
374	2
375	8
376	4
377	1
378	3
379	8
380	1
381	5
382	3
383	2
384	5
385	5
386	2
387	5
388	5
389	8
390	7
391	2
392	7
393	6
394	7
395	5
396	1
397	3
398	4
399	7
400	3
401	3
402	5
403	6
404	3
405	1
406	5
407	5
408	3
409	3
410	7
411	3
412	8
413	3
414	1
415	4
416	5
417	7
418	4
419	5
420	6
421	7
422	9
423	5
424	5
425	3
426	6
427	5
428	4
429	3
430	1
431	9
432	1
433	8
434	2
435	5
436	2
437	5
438	3
439	5
440	5
441	3
442	2
443	8
444	8
445	9
446	3
447	8
448	4
449	6
450	3
451	8
452	4
453	9
454	6
455	6
456	2
457	3
458	1
459	5
460	2
461	2
462	5
463	5
464	1
465	5
466	2
467	5
468	1
469	4
470	1
471	2
472	4
473	5
474	6
475	7
476	4
477	8
478	8
479	7
480	7
481	2
482	3
483	6
484	8
485	9
486	5
487	1
488	5
489	7
490	3
491	6
492	7
493	8
494	1
495	6
496	6
497	1
498	8
499	4
500	7
501	4
502	3
503	2
504	3
505	9
506	6
507	1
508	8
509	4
510	7
511	1
512	5
513	2
514	3
515	9
516	6
517	8
518	2
519	8
520	1
521	7
522	5
523	9
524	4
525	3
526	1
527	9
528	6
529	8
530	6
531	8
532	9
533	3
534	1
535	6
536	2
537	2
538	7
539	8
540	9
541	4
542	5
543	4
544	4
545	5
546	8
547	3
548	6
549	3
550	9
551	2
552	2
553	4
554	4
555	3
556	6
557	7
558	2
559	4
560	2
561	4
562	9
563	9
564	6
565	1
566	3
567	3
568	7
569	8
570	9
571	5
572	6
573	5
574	2
575	9
576	7
577	3
578	9
579	1
580	1
581	3
582	5
583	2
584	6
585	4
586	4
587	8
588	1
589	9
590	1
591	2
592	9
593	7
594	6
595	2
596	8
597	6
598	6
599	7
600	6
601	6
602	2
603	2
604	1
605	1
606	8
607	3
608	1
609	4
610	3
611	4
612	9
613	8
614	6
615	9
616	3
617	1
618	7
619	8
620	5
621	9
622	4
623	2
624	6
625	4
626	9
627	8
628	6
629	7
630	1
631	7
632	2
633	6
634	6
635	8
636	3
637	3
638	8
639	5
640	5
641	3
642	2
643	7
644	3
645	6
646	2
647	4
648	1
649	9
650	2
651	7
652	6
653	7
654	5
655	1
656	3
657	9
658	3
659	5
660	9
661	8
662	7
663	7
664	2
665	2
666	2
667	3
668	9
669	8
670	8
671	5
672	8
673	8
674	1
675	8
676	1
677	2
678	3
679	1
680	3
681	6
682	4
683	8
684	6
685	3
686	8
687	3
688	6
689	5
690	5
691	2
692	4
693	5
694	2
695	8
696	4
697	8
698	4
699	4
700	1
701	8
702	4
703	8
704	6
705	8
706	8
707	3
708	6
709	6
710	4
711	3
712	3
713	1
714	1
715	6
716	5
717	9
718	3
719	5
720	8
721	4
722	2
723	7
724	6
725	8
726	6
727	4
728	8
729	9
730	3
731	4
732	7
733	4
734	6
735	4
736	7
737	9
738	6
739	5
740	1
741	1
742	4
743	4
744	8
745	9
746	3
747	1
748	3
749	7
750	4
751	9
752	7
753	1
754	2
755	1
756	4
757	4
758	6
759	3
760	9
761	1
762	8
763	1
764	6
765	4
766	7
767	7
768	3
769	7
770	7
771	7
772	3
773	3
774	9
775	5
776	7
777	5
778	6
779	9
780	5
781	7
782	5
783	4
784	8
785	8
786	9
787	5
788	6
789	7
790	5
791	3
792	8
793	7
794	2
795	4
796	5
797	2
798	4
799	4
800	6
801	3
802	8
803	6
804	8
805	6
806	2
807	7
808	9
809	2
810	1
811	2
812	3
813	9
814	3
815	1
816	8
817	4
818	3
819	1
820	5
821	2
822	3
823	6
824	7
825	1
826	1
827	5
828	9
829	3
830	2
831	4
832	9
833	7
834	6
835	3
836	4
837	9
838	3
839	4
840	7
841	7
842	6
843	4
844	1
845	5
846	2
847	7
848	3
849	5
850	6
851	1
852	6
853	1
854	7
855	9
856	1
857	9
858	8
859	3
860	1
861	4
862	5
863	4
864	7
865	1
866	1
867	6
868	1
869	1
870	9
871	2
872	7
873	2
874	3
875	6
876	9
877	2
878	4
879	3
880	6
881	6
882	4
883	1
884	4
885	4
886	1
887	7
888	4
889	9
890	9
891	8
892	6
893	3
894	7
895	1
896	2
897	2
898	3
899	7
900	1
901	9
902	5
903	2
904	9
905	5
906	7
907	4
908	8
909	8
910	8
911	2
912	7
913	4
914	1
915	4
916	8
917	4
918	5
919	9
920	6
921	8
922	8
923	4
924	6
925	5
926	5
927	7
928	6
929	4
930	5
931	1
932	3
933	5
934	5
935	5
936	8
937	8
938	8
939	1
940	4
941	1
942	9
943	8
944	9
945	7
946	3
947	5
948	5
949	6
950	4
951	4
952	3
953	5
954	6
955	9
956	2
957	7
958	6
959	4
960	8
961	6
962	4
963	3
964	4
965	5
966	2
967	9
968	2
969	8
970	7
971	8
972	2
973	6
974	9
975	7
976	8
977	9
978	5
979	6
980	1
981	8
982	5
983	2
984	4
985	7
986	4
987	1
988	2
989	3
990	2
991	3
992	2
993	4
994	2
995	1
996	8
997	7
998	8
999	9
1000	3
1001	7
TIME_WINDOW_SECTION
1	0	3000
2	1036	2255
3	969	2431
4	1699	2460
5	377	2254
6	1279	2920
7	966	1320
8	933	2663
9	108	1843
10	1062	2890
11	241	1690
12	870	2418
13	862	1584
14	0	1878
15	965	2739
16	110	503
17	131	1127
18	872	1343
19	669	1989
20	462	1523
21	1197	2888
22	164	1694
23	1842	2240
24	503	1542
25	1065	2996
26	1273	2204
27	282	1864
28	0	1517
29	982	1220
30	1324	2563
31	526	1636
32	0	1591
33	1629	2780
34	575	1592
35	709	1559
36	873	2496
37	992	2396
38	524	2043
39	393	1690
40	1322	1600
41	787	1840
42	410	1786
43	1705	2388
44	1150	2165
45	1128	2178
46	14	1773
47	329	1913
48	753	1974
49	1405	1738
50	546	2190
51	989	1892
52	176	972
53	158	2015
54	848	2599
55	837	2622
56	1441	2298
57	1010	1296
58	932	2652
59	1542	2029
60	1225	2378
61	942	1423
62	257	1659
63	1494	2101
64	1612	2505
65	0	1768
66	114	1979
67	873	2265
68	1722	2488
69	782	1156
70	865	1641
71	678	2654
72	676	2318
73	949	1439
74	157	1942
75	1299	1713
76	1482	2084
77	1375	3000
78	450	2347
79	1518	1901
80	216	1523
81	1307	2274
82	997	1349
83	1064	3000
84	1220	1493
85	573	2252
86	315	1290
87	574	2484
88	723	2302
89	1062	2189
90	1479	2731
91	1374	1889
92	1149	1772
93	1541	2206
94	728	950
95	0	1517
96	1313	2010
97	1269	3000
98	938	2665
99	786	2538
100	957	2474
101	778	2248
102	1389	3000
103	1234	2009
104	1153	1937
105	1229	2521
106	758	1968
107	560	1382
108	176	1646
109	1738	2708
110	1697	2129
111	773	2258
112	1029	1967
113	1425	2730
114	452	2281
115	1456	2952
116	1033	1267
117	812	1690
118	1106	1755
119	2168	2443
120	332	2032
121	1823	2568
122	1856	2305
123	1060	1448
124	509	1562
125	1283	2043
126	693	2356
127	314	2127
128	567	1476
129	387	1461
130	640	2629
131	119	1576
132	1147	2675
133	0	1601
134	776	2413
135	0	1896
136	1160	2039
137	1089	2235
138	445	1099
139	869	1806
140	639	1540
141	545	1777
142	0	881
143	726	2225
144	1232	3000
145	700	1968
146	1434	1921
147	1341	2924
148	10	913
149	412	1219
150	1237	2619
151	544	965
152	1017	2320
153	106	1711
154	929	2543
155	1012	1284
156	1341	3000
157	1744	2377
158	1313	1676
159	1272	2041
160	846	1928
161	735	1286
162	392	2240
163	1144	2115
164	113	1845
165	331	1642
166	993	1460
167	92	1014
168	1446	2172
169	1026	2106
170	1035	1473
171	778	1800
172	103	1356
173	539	1341
174	0	1907
175	889	2103
176	1105	2347
177	133	2084
178	6	1301
179	150	2075
180	702	2304
181	1329	3000
182	1097	1847
183	557	846
184	767	2662
185	0	1454
186	280	2035
187	596	1557
188	730	2287
189	1406	1907
190	261	1697
191	584	1905
192	810	2122
193	43	882
194	1411	1928
195	1337	2040
196	1171	1866
197	1218	2480
198	1294	2374
199	1408	2785
200	430	1661
201	991	2881
202	940	2264
203	769	1120
204	176	1795
205	0	1656
206	363	1856
207	773	1531
208	708	1356
209	1582	1905
210	988	2622
211	368	1478
212	941	2503
213	360	1241
214	1851	2210
215	1096	1439
216	650	2223
217	1295	1773
218	1097	2077
219	748	2147
220	1039	1625
221	0	876
222	1526	2035
223	556	2266
224	615	1638
225	790	1624
226	436	1257
227	0	1791
228	1240	1794
229	733	1871
230	1204	1527
231	516	1375
232	743	1238
233	568	931
234	629	2241
235	327	1076
236	376	2172
237	990	1260
238	0	1655
239	957	2547
240	688	2571
241	868	2240
242	1737	2831
243	297	1738
244	595	2582
245	1175	1653
246	0	1540
247	1526	1786
248	1038	2701
249	294	1409
250	1381	2771
251	892	2531
252	278	1229
253	266	1576
254	1020	2754
255	1111	2707
256	1204	2356
257	1808	2140
258	430	2189
259	922	1363
260	1452	2869
261	589	1798
262	1689	2543
263	1272	1767
264	1029	1878
265	908	2599
266	807	2020
267	565	2146
268	876	1138
269	424	1955
270	1518	2058
271	430	1844
272	757	1359
273	1174	2252
274	594	811
275	0	1060
276	1001	1741
277	1771	2134
278	152	1759
279	587	1778
280	1381	2670
281	576	2349
282	796	1013
283	1850	2575
284	1438	2563
285	794	2762
286	1783	2987
287	847	2100
288	1269	2077
289	1302	2857
290	1059	2393
291	1604	1851
292	715	1086
293	0	1649
294	1466	1838
295	1064	2118
296	0	1596
297	1167	2712
298	1095	2536
299	338	1547
300	474	2088
301	1053	2011
302	1085	2971
303	1050	2313
304	1055	1701
305	1177	1575
306	1108	1867
307	2135	2656
308	769	1281
309	1470	2683
310	718	2081
311	993	2384
312	642	1745
313	580	2360
314	693	2185
315	1124	2000
316	663	1408
317	912	1403
318	288	1728
319	0	1710
320	943	1905
321	265	765
322	406	1776
323	1043	2049
324	532	1137
325	24	1274
326	1350	2727
327	1628	2630
328	894	1469
329	671	2414
330	300	501
331	961	1981
332	0	981
333	1299	2121
334	530	2148
335	795	1470
336	1145	2074
337	423	2337
338	974	1431
339	1380	2070
340	134	2076
341	1519	2480
342	779	1819
343	262	1841
344	2221	2603
345	1023	2279
346	1037	1413
347	1807	2156
348	1010	1869
349	755	1906
350	431	2424
351	477	2377
352	162	683
353	829	1917
354	1244	1932
355	421	1742
356	0	1590
357	0	885
358	1439	2317
359	462	1670
360	2010	2353
361	1159	2372
362	387	2126
363	1035	2617
364	774	2549
365	420	2168
366	909	1743
367	636	2157
368	206	1636
369	57	1615
370	1339	2522
371	1551	2115
372	418	1532
373	724	2335
374	1020	2835
375	494	1355
376	270	1077
377	656	1514
378	1691	2051
379	1385	1953
380	0	887
381	1403	2260
382	332	1226
383	262	917
384	641	1463
385	978	2332
386	910	1468
387	663	2225
388	300	537
389	605	1857
390	501	1798
391	1199	3000
392	821	2451
393	1685	2509
394	1408	1706
395	219	2142
396	693	2569
397	1783	2122
398	753	2105
399	902	2587
400	1170	1412
401	142	1314
402	1416	2403
403	432	1775
404	1118	2151
405	1276	2220
406	885	1699
407	1433	1736
408	859	2062
409	569	2205
410	73	1337
411	1481	1857
412	711	1597
413	958	1982
414	765	1165
415	182	1482
416	2258	2811
417	689	1143
418	1586	2774
419	809	1547
420	1273	1915
421	790	1608
422	1907	2441
423	581	1602
424	1329	2937
425	552	1331
426	731	1942
427	1477	2755
428	543	1890
429	1603	2295
430	1092	1631
431	1043	2606
432	1552	1793
433	812	1677
434	859	2367
435	1317	2908
436	784	1727
437	1202	2897
438	1438	3000
439	2101	2564
440	810	1223
441	851	2143
442	560	1484
443	1247	2002
444	1683	2902
445	634	2002
446	1452	1738
447	1502	2145
448	125	2047
449	1337	2236
450	282	1372
451	932	1600
452	1043	1258
453	881	1790
454	569	779
455	789	2198
456	1141	2164
457	168	379
458	485	1071
459	0	879
460	1039	1548
461	842	1402
462	669	1948
463	1490	3000
464	359	1603
465	1295	1769
466	1786	2092
467	600	2122
468	664	1999
469	951	2149
470	388	1849
471	1703	2455
472	1023	1242
473	247	1779
474	1077	1744
475	693	1662
476	592	1427
477	774	1592
478	1528	2314
479	1188	2318
480	551	2446
481	653	2221
482	245	1001
483	383	1414
484	930	1601
485	756	1222
486	0	1018
487	1419	1742
488	639	1512
489	941	1938
490	317	840
491	629	1217
492	1418	2152
493	279	2235
494	1019	1703
495	504	1610
496	1156	2858
497	1365	1836
498	724	1657
499	532	2184
500	821	2156
501	1087	2047
502	0	1411
503	139	1687
504	1200	2096
505	1596	2362
506	862	2138
507	683	2507
508	225	1502
509	1508	2130
510	1311	3000
511	0	735
512	555	1769
513	1406	2360
514	1471	2835
515	988	1750
516	975	1857
517	428	1941
518	448	2168
519	947	2547
520	212	2148
521	104	2096
522	194	1959
523	777	1629
524	1689	2072
525	573	1450
526	983	1762
527	1358	2687
528	1282	2176
529	309	2153
530	547	1568
531	1638	2296
532	723	1480
533	665	1848
534	1511	2220
535	469	1864
536	569	2383
537	793	1881
538	964	1688
539	1033	2085
540	1251	2422
541	878	2542
542	1411	1992
543	1230	2282
544	373	2285
545	815	1549
546	486	1977
547	1201	2162
548	1028	2695
549	126	2054
550	770	1475
551	201	1724
552	1392	2262
553	627	2054
554	930	2439
555	1035	1742
556	1163	1727
557	1446	2410
558	915	2240
559	592	2591
560	778	2375
561	560	2153
562	616	1357
563	509	2035
564	0	753
565	1477	2052
566	533	1419
567	1286	1921
568	0	1739
569	1507	2523
570	500	1771
571	1066	2736
572	1025	2542
573	819	1344
574	1206	1518
575	971	2361
576	7	1886
577	999	1412
578	759	1593
579	1056	1993
580	0	1184
581	252	1102
582	244	1079
583	369	1810
584	1812	2755
585	1866	2290
586	322	1783
587	847	2451
588	413	1281
589	0	1595
590	955	2633
591	617	1631
592	1057	1484
593	2003	2222
594	1374	3000
595	608	2121
596	8	1249
597	1091	2010
598	1133	1608
599	1095	1804
600	1017	1917
601	1420	1860
602	783	1094
603	1556	2321
604	938	2059
605	389	1986
606	653	2618
607	446	1421
608	870	1648
609	1073	2234
610	629	2535
611	1146	1683
612	1268	1771
613	820	1809
614	1043	1743
615	685	1183
616	1621	2625
617	863	1632
618	255	1940
619	244	1337
620	540	2435
621	0	1699
622	1524	2649
623	1786	2287
624	298	2169
625	1162	2087
626	686	1285
627	812	2139
628	319	2136
629	442	1471
630	493	2474
631	616	1183
632	1318	1927
633	1320	1709
634	1325	2846
635	1673	2065
636	1371	2953
637	424	2279
638	0	1285
639	968	1938
640	1311	2386
641	1247	2384
642	390	1223
643	10	1693
644	585	1473
645	580	1577
646	360	2302
647	0	937
648	1711	2773
649	690	2469
650	772	1044
651	1408	2448
652	1333	2577
653	1092	1370
654	681	1387
655	426	2234
656	910	1978
657	621	1919
658	636	1463
659	1678	2098
660	770	1798
661	165	2008
662	675	2090
663	862	2307
664	498	1368
665	1763	2392
666	432	1402
667	464	737
668	1552	1807
669	478	2078
670	1417	1790
671	781	2224
672	1634	2168
673	274	732
674	607	2465
675	983	2216
676	1476	3000
677	588	1420
678	1910	2902
679	1822	2096
680	788	2031
681	205	1879
682	781	2284
683	1295	2086
684	820	2529
685	588	1601
686	1010	2436
687	671	2417
688	794	2203
689	1804	2462
690	376	1784
691	970	2396
692	1203	1771
693	194	1524
694	1407	1781
695	873	2219
696	1273	2122
697	1210	2802
698	395	2271
699	206	1857
700	849	2297
701	1697	2395
702	599	1570
703	620	1424
704	1575	2405
705	1353	1687
706	1253	2245
707	1135	2482
708	906	1895
709	1066	1891
710	0	1889
711	331	2212
712	968	2224
713	126	1347
714	590	2094
715	453	1503
716	1671	1882
717	405	1423
718	990	1299
719	1329	1531
720	288	2035
721	1246	2423
722	514	1924
723	982	2951
724	1050	2867
725	1700	2041
726	977	2434
727	543	2465
728	684	1469
729	430	1339
730	1142	2089
731	773	1834
732	1249	2366
733	0	1584
734	956	1238
735	1436	1853
736	1081	2585
737	906	2902
738	1372	3000
739	922	2427
740	849	2732
741	1858	2285
742	1266	2628
743	944	2272
744	1215	1910
745	168	2149
746	1257	1914
747	370	1495
748	468	1836
749	1655	2322
750	1740	2123
751	776	2595
752	1602	2230
753	374	2372
754	1695	2282
755	977	2897
756	1384	1640
757	503	2200
758	308	1575
759	1647	2541
760	373	1430
761	1021	1323
762	1764	2846
763	41	1921
764	1062	2271
765	888	1710
766	1891	2170
767	1685	2682
768	281	2060
769	1159	1487
770	2087	2290
771	551	2416
772	1541	1743
773	2279	2622
774	347	1680
775	0	1712
776	1018	1717
777	742	2111
778	1108	2010
779	863	1559
780	818	2213
781	893	1132
782	224	2198
783	842	2559
784	902	1810
785	1700	3000
786	606	2008
787	72	847
788	140	1859
789	1152	2608
790	154	1986
791	760	2370
792	46	1506
793	1531	3000
794	121	1450
795	1086	1879
796	638	1852
797	492	1688
798	1609	1857
799	306	1844
800	1026	2411
801	695	1914
802	1115	1495
803	1043	1736
804	1047	1852
805	1474	2225
806	1707	1976
807	1187	1532
808	1188	1964
809	204	1866
810	36	1474
811	493	1079
812	625	1186
813	875	1494
814	764	2741
815	1677	2085
816	1475	1691
817	928	2784
818	0	1309
819	989	1850
820	0	1663
821	643	2052
822	1020	1223
823	38	1838
824	1320	2442
825	1619	2645
826	439	2343
827	706	2614
828	677	1223
829	838	1152
830	1065	2867
831	1723	2617
832	1134	1818
833	141	2062
834	1447	2271
835	1033	2114
836	0	1727
837	1147	1408
838	687	1479
839	1293	1856
840	1627	2576
841	0	1116
842	1396	2666
843	432	2409
844	862	2301
845	1303	1510
846	0	825
847	737	2693
848	1014	2205
849	1548	2779
850	444	1934
851	1080	1766
852	450	2281
853	850	2581
854	436	1885
855	758	1832
856	1736	2329
857	1337	1847
858	0	1857
859	163	1914
860	239	1875
861	463	1674
862	208	1841
863	1823	2094
864	1109	2886
865	1655	2886
866	838	2280
867	1389	2218
868	1059	2678
869	608	1131
870	459	1346
871	906	2820
872	1547	2250
873	2107	2474
874	998	2325
875	753	1849
876	879	2501
877	1417	2185
878	1344	2274
879	982	1562
880	786	2264
881	406	2338
882	330	997
883	1156	2073
884	1242	1753
885	376	593
886	1311	1927
887	192	1950
888	1290	1602
889	703	1856
890	348	1745
891	0	1500
892	223	1763
893	825	1650
894	288	925
895	767	1966
896	453	1734
897	0	860
898	1597	2956
899	1235	2432
900	976	1432
901	412	2331
902	465	702
903	744	1653
904	1396	1704
905	697	1702
906	1641	2974
907	795	2407
908	852	1269
909	205	1740
910	1353	2697
911	609	2561
912	1397	2589
913	876	2453
914	1926	2960
915	325	2004
916	583	2334
917	927	2486
918	870	1350
919	896	1392
920	1012	1571
921	1326	1677
922	302	1679
923	589	2359
924	404	2155
925	860	2160
926	915	2592
927	268	2109
928	381	1984
929	1499	2440
930	1300	1976
931	2001	2353
932	870	1982
933	625	2030
934	948	2062
935	1378	2611
936	793	1741
937	437	1351
938	883	2014
939	810	2304
940	1112	2084
941	1270	1634
942	816	1359
943	1393	3000
944	954	1527
945	683	2070
946	921	2678
947	1775	2427
948	858	2279
949	830	2521
950	822	2219
951	1458	2416
952	614	953
953	0	1488
954	1043	1452
955	975	2378
956	1441	2216
957	512	1146
958	793	1738
959	989	2094
960	988	2536
961	1550	3000
962	633	2296
963	2074	2733
964	282	1907
965	744	1802
966	763	1502
967	1557	1890
968	312	2306
969	1129	2254
970	1072	1979
971	1024	1722
972	799	1171
973	0	1773
974	1867	2626
975	365	898
976	1098	1959
977	1250	1646
978	1575	3000
979	369	2311
980	1713	2380
981	697	2006
982	546	1828
983	576	2274
984	1042	1285
985	1004	2424
986	1040	1844
987	1589	1807
988	733	1400
989	1336	1606
990	81	1480
991	990	1493
992	0	1394
993	1606	2693
994	1534	2179
995	1499	2207
996	1251	1763
997	312	1775
998	186	1888
999	1771	2065
1000	1981	2203
1001	416	2089
BACKHAUL_SECTION
8	19	28	30	31	39	40	42	45	46	49	58	66	72	73	89	90	104	106	111	121	126	127	128	134	137	145	150	152	155	189	191	203	204	206	220	233	236	239	241	242	246	248	259	260	270	279	298	305	307	308	311	313	316	325	330	331	342	343	344	347	350	352	357	366	369	371	372	375	392	400	401	407	412	416	417	431	432	441	444	447	455	462	463	466	467	472	474	489	495	501	506	513	514	516	520	522	523	527	531	534	541	545	547	557	567	576	581	585	586	589	592	596	599	607	617	622	635	642	649	653	665	666	668	670	684	689	692	693	695	700	717	720	722	723	724	728	733	737	743	748	750	752	755	757	764	766	780	788	789	790	791	793	796	800	801	802	815	816	817	818	823	825	833	836	838	843	845	857	862	871	875	889	897	902	904	909	910	915	924	928	936	941	943	944	945	955	957	959	961	966	968	972	974	983	984	994	996	997	999	-1
DEPOT_SECTION
1
-1
EOF
