NAME : n1001-0004
COMMENT : "Generated by pyvrp_manuel (VRPBTW)"
TYPE : VRPBTW
DIMENSION : 1001
EDGE_WEIGHT_TYPE : EUC_2D
CAPACITY : 150
VEHICLES : 1000
SERVICE_TIME : 200
NODE_COORD_SECTION
1	83	211
2	596	914
3	387	927
4	710	926
5	349	640
6	698	691
7	673	496
8	568	686
9	150	710
10	88	604
11	425	171
12	368	593
13	260	113
14	722	212
15	451	156
16	710	213
17	900	283
18	675	711
19	845	156
20	698	356
21	912	706
22	257	304
23	56	578
24	762	412
25	2	108
26	892	443
27	477	558
28	71	453
29	153	132
30	381	786
31	507	733
32	447	564
33	59	940
34	3	536
35	382	650
36	315	181
37	209	888
38	594	182
39	830	753
40	347	56
41	196	850
42	217	675
43	904	189
44	777	217
45	720	104
46	557	413
47	900	481
48	990	492
49	76	929
50	625	424
51	129	109
52	331	133
53	105	18
54	472	366
55	63	628
56	454	579
57	839	425
58	39	554
59	326	573
60	719	229
61	118	642
62	971	512
63	974	240
64	602	525
65	557	274
66	386	606
67	382	19
68	747	749
69	347	774
70	564	617
71	83	120
72	222	993
73	584	592
74	818	944
75	843	204
76	296	166
77	836	378
78	175	818
79	386	558
80	121	646
81	169	905
82	512	503
83	531	90
84	916	347
85	274	906
86	983	302
87	718	183
88	714	74
89	503	971
90	950	682
91	528	435
92	987	238
93	324	642
94	470	956
95	255	430
96	941	408
97	270	696
98	567	879
99	48	93
100	952	222
101	88	494
102	60	143
103	921	704
104	492	161
105	787	536
106	611	334
107	12	277
108	234	841
109	268	993
110	85	589
111	682	82
112	859	808
113	461	836
114	944	708
115	845	657
116	701	483
117	991	160
118	500	436
119	265	489
120	819	93
121	446	291
122	737	600
123	538	598
124	548	553
125	310	345
126	4	662
127	850	860
128	200	42
129	154	60
130	754	924
131	781	551
132	851	992
133	830	32
134	292	351
135	944	17
136	115	133
137	473	314
138	452	563
139	22	314
140	174	271
141	209	602
142	28	50
143	931	128
144	674	690
145	346	460
146	580	781
147	964	547
148	304	748
149	528	812
150	432	233
151	805	126
152	899	782
153	636	796
154	561	385
155	552	62
156	959	837
157	531	806
158	481	718
159	655	530
160	554	380
161	54	834
162	411	696
163	922	616
164	781	971
165	784	28
166	966	775
167	114	797
168	556	285
169	370	163
170	13	998
171	658	824
172	152	300
173	748	323
174	982	487
175	231	758
176	701	329
177	835	321
178	875	104
179	669	943
180	312	883
181	132	579
182	842	686
183	340	450
184	982	409
185	589	560
186	144	847
187	596	673
188	981	240
189	330	279
190	339	369
191	377	293
192	564	471
193	731	142
194	531	891
195	977	897
196	356	895
197	513	233
198	885	892
199	646	662
200	597	71
201	299	862
202	479	623
203	278	504
204	916	340
205	685	641
206	477	437
207	207	632
208	440	321
209	339	647
210	862	893
211	105	801
212	444	919
213	238	969
214	808	174
215	406	840
216	224	436
217	340	455
218	67	894
219	787	80
220	838	758
221	397	822
222	473	386
223	603	604
224	170	463
225	339	535
226	567	596
227	87	977
228	170	550
229	83	644
230	793	212
231	181	371
232	609	448
233	369	500
234	946	257
235	750	791
236	156	863
237	310	644
238	772	166
239	898	297
240	533	520
241	959	360
242	840	225
243	143	751
244	776	273
245	448	119
246	568	44
247	446	145
248	993	702
249	359	126
250	240	606
251	343	706
252	54	340
253	737	489
254	274	664
255	49	435
256	537	388
257	60	194
258	513	951
259	221	616
260	598	508
261	125	38
262	262	191
263	937	369
264	399	174
265	185	961
266	605	754
267	300	307
268	405	649
269	865	370
270	887	889
271	300	544
272	143	43
273	508	47
274	671	939
275	412	524
276	788	550
277	837	204
278	910	401
279	937	155
280	761	91
281	933	710
282	960	984
283	858	804
284	972	873
285	170	365
286	166	591
287	618	873
288	82	461
289	278	696
290	905	317
291	290	126
292	286	999
293	480	934
294	19	364
295	874	556
296	577	637
297	982	63
298	27	74
299	254	235
300	520	150
301	551	918
302	217	566
303	129	934
304	737	583
305	443	839
306	111	704
307	931	288
308	600	571
309	281	659
310	567	163
311	436	154
312	823	112
313	417	591
314	280	870
315	465	860
316	376	194
317	261	259
318	446	401
319	606	676
320	947	657
321	837	540
322	283	79
323	948	302
324	132	472
325	533	776
326	800	531
327	201	265
328	954	591
329	399	803
330	156	418
331	548	812
332	881	600
333	79	526
334	387	12
335	401	809
336	624	620
337	264	468
338	214	339
339	314	280
340	368	8
341	775	473
342	375	168
343	533	695
344	848	272
345	264	889
346	681	860
347	415	238
348	139	281
349	947	16
350	421	676
351	748	378
352	284	801
353	52	479
354	663	46
355	538	992
356	920	123
357	536	124
358	448	153
359	780	952
360	292	802
361	885	894
362	4	668
363	353	798
364	365	590
365	291	807
366	691	876
367	922	761
368	846	301
369	418	357
370	667	470
371	607	342
372	121	827
373	248	698
374	738	255
375	589	845
376	59	793
377	866	639
378	576	470
379	280	431
380	62	844
381	356	459
382	808	58
383	825	707
384	810	900
385	874	246
386	767	128
387	984	581
388	90	424
389	308	432
390	140	772
391	3	608
392	546	635
393	571	373
394	974	928
395	250	289
396	340	647
397	966	869
398	361	485
399	482	139
400	875	216
401	745	30
402	482	142
403	705	937
404	72	343
405	506	817
406	675	289
407	408	825
408	641	161
409	611	941
410	668	606
411	337	725
412	532	692
413	541	233
414	916	15
415	188	10
416	846	819
417	330	962
418	961	801
419	311	760
420	74	144
421	182	473
422	826	136
423	188	280
424	530	739
425	612	558
426	104	984
427	946	703
428	216	735
429	127	989
430	386	985
431	513	31
432	102	215
433	250	828
434	680	557
435	492	427
436	584	535
437	931	961
438	410	126
439	740	163
440	791	830
441	539	983
442	238	719
443	595	929
444	446	135
445	363	21
446	528	247
447	811	266
448	966	99
449	615	796
450	842	880
451	109	974
452	160	279
453	569	908
454	761	483
455	278	993
456	475	497
457	730	238
458	410	765
459	650	39
460	709	904
461	49	720
462	117	241
463	922	220
464	383	732
465	315	463
466	968	397
467	325	331
468	334	777
469	754	406
470	397	752
471	999	624
472	80	89
473	127	653
474	852	265
475	108	96
476	547	560
477	514	33
478	558	95
479	132	472
480	771	11
481	212	424
482	904	19
483	185	702
484	851	939
485	109	459
486	291	659
487	5	59
488	16	733
489	536	930
490	666	694
491	457	515
492	258	947
493	605	611
494	992	150
495	368	26
496	699	857
497	841	4
498	674	556
499	401	75
500	180	853
501	351	559
502	485	458
503	899	838
504	106	833
505	677	578
506	568	396
507	483	95
508	403	232
509	500	90
510	660	157
511	107	821
512	979	138
513	949	648
514	865	266
515	153	859
516	34	759
517	552	32
518	175	5
519	80	383
520	548	675
521	800	410
522	166	578
523	470	64
524	633	364
525	304	778
526	132	444
527	940	894
528	821	488
529	213	53
530	937	585
531	501	282
532	108	551
533	584	880
534	612	973
535	769	522
536	452	332
537	94	283
538	181	652
539	242	479
540	490	533
541	418	139
542	336	401
543	637	373
544	415	614
545	505	511
546	39	847
547	635	219
548	254	981
549	971	515
550	469	812
551	426	290
552	322	839
553	478	677
554	550	718
555	522	437
556	43	243
557	246	693
558	289	986
559	938	375
560	134	41
561	757	662
562	496	418
563	341	240
564	430	263
565	689	827
566	781	359
567	114	360
568	744	296
569	407	618
570	889	958
571	773	497
572	683	689
573	888	324
574	374	891
575	227	285
576	477	585
577	541	347
578	462	445
579	685	914
580	275	123
581	136	686
582	659	654
583	470	681
584	515	864
585	610	986
586	405	814
587	793	180
588	97	916
589	867	294
590	181	964
591	127	274
592	178	54
593	847	974
594	945	515
595	830	858
596	976	44
597	633	357
598	443	389
599	892	130
600	392	817
601	83	396
602	207	959
603	677	503
604	941	814
605	940	824
606	145	224
607	849	416
608	119	440
609	103	130
610	943	81
611	847	723
612	396	225
613	295	830
614	627	461
615	79	144
616	422	78
617	524	709
618	451	875
619	805	401
620	362	125
621	307	301
622	224	317
623	865	26
624	165	483
625	386	542
626	443	48
627	166	304
628	30	862
629	970	425
630	791	554
631	970	920
632	892	233
633	788	716
634	716	79
635	115	125
636	828	142
637	218	906
638	965	800
639	971	315
640	409	700
641	487	947
642	235	835
643	692	37
644	894	911
645	208	11
646	839	349
647	830	771
648	837	438
649	196	402
650	277	78
651	368	597
652	712	898
653	542	95
654	647	155
655	593	635
656	452	485
657	973	122
658	348	559
659	220	358
660	469	745
661	221	482
662	679	479
663	625	740
664	344	850
665	370	871
666	546	944
667	272	494
668	958	927
669	972	593
670	859	311
671	695	465
672	784	635
673	430	187
674	555	903
675	806	577
676	758	342
677	252	268
678	811	790
679	37	40
680	250	432
681	824	823
682	212	10
683	408	320
684	588	851
685	904	664
686	720	974
687	351	506
688	667	642
689	666	755
690	458	323
691	280	681
692	942	550
693	176	937
694	956	377
695	968	491
696	33	5
697	210	98
698	464	273
699	390	265
700	31	679
701	166	99
702	922	86
703	521	876
704	767	795
705	51	393
706	458	458
707	390	198
708	452	591
709	662	93
710	1	294
711	142	415
712	563	722
713	77	673
714	923	725
715	704	961
716	791	59
717	866	309
718	966	484
719	234	383
720	946	515
721	262	257
722	915	634
723	630	806
724	918	236
725	108	938
726	795	606
727	741	541
728	205	896
729	71	913
730	651	677
731	137	338
732	537	699
733	769	826
734	883	701
735	497	182
736	694	850
737	945	431
738	203	682
739	130	849
740	173	546
741	284	134
742	669	708
743	319	213
744	71	362
745	959	296
746	974	285
747	419	909
748	316	961
749	804	908
750	485	436
751	686	639
752	42	709
753	980	48
754	163	540
755	281	945
756	282	170
757	696	50
758	538	575
759	725	738
760	279	270
761	691	10
762	575	17
763	117	122
764	250	958
765	799	122
766	512	875
767	514	836
768	500	708
769	666	130
770	896	632
771	251	925
772	57	173
773	529	486
774	89	868
775	152	382
776	674	587
777	309	972
778	461	365
779	102	301
780	19	29
781	700	121
782	692	62
783	958	308
784	482	182
785	280	391
786	988	527
787	116	833
788	871	686
789	136	593
790	220	629
791	755	339
792	286	229
793	141	175
794	622	153
795	649	559
796	114	759
797	428	297
798	283	882
799	289	439
800	780	305
801	955	406
802	84	234
803	695	853
804	705	909
805	611	866
806	652	213
807	219	297
808	810	721
809	358	829
810	821	94
811	631	995
812	64	818
813	350	751
814	868	639
815	45	452
816	110	635
817	701	380
818	778	633
819	689	360
820	722	428
821	627	806
822	685	238
823	88	287
824	156	310
825	518	524
826	368	816
827	83	31
828	532	147
829	750	574
830	786	594
831	928	478
832	10	81
833	527	932
834	367	250
835	770	561
836	265	987
837	493	537
838	111	413
839	476	895
840	808	627
841	782	774
842	190	74
843	852	414
844	760	567
845	993	472
846	916	782
847	559	49
848	372	940
849	323	808
850	599	936
851	137	947
852	865	218
853	614	591
854	904	109
855	729	881
856	113	311
857	117	582
858	911	408
859	207	512
860	860	187
861	592	860
862	962	89
863	32	268
864	590	870
865	923	752
866	448	441
867	929	459
868	787	708
869	269	496
870	356	837
871	703	748
872	284	983
873	133	814
874	627	405
875	312	869
876	887	750
877	182	974
878	612	528
879	870	419
880	779	699
881	853	159
882	57	969
883	511	288
884	7	876
885	128	316
886	18	906
887	881	149
888	594	157
889	883	216
890	264	165
891	867	109
892	141	146
893	703	427
894	980	454
895	666	208
896	318	116
897	133	677
898	237	738
899	961	494
900	920	100
901	71	197
902	10	899
903	708	312
904	596	494
905	729	481
906	779	290
907	669	816
908	758	232
909	921	124
910	146	903
911	595	606
912	137	795
913	387	132
914	304	392
915	60	435
916	794	28
917	473	49
918	44	107
919	199	418
920	946	547
921	857	94
922	466	216
923	260	855
924	207	995
925	860	231
926	341	309
927	844	93
928	113	85
929	447	814
930	542	70
931	314	595
932	15	217
933	660	135
934	506	597
935	297	695
936	214	175
937	66	515
938	857	94
939	652	424
940	711	395
941	61	341
942	837	998
943	347	245
944	495	347
945	614	365
946	304	811
947	109	714
948	450	138
949	454	815
950	198	764
951	717	423
952	788	859
953	102	372
954	309	140
955	237	932
956	978	351
957	976	575
958	997	181
959	572	215
960	447	678
961	991	756
962	866	948
963	463	443
964	275	817
965	967	466
966	798	326
967	958	61
968	826	971
969	540	449
970	661	308
971	62	997
972	11	621
973	848	920
974	267	815
975	511	769
976	749	945
977	101	239
978	696	409
979	464	489
980	308	47
981	995	996
982	314	30
983	429	556
984	298	707
985	467	492
986	507	404
987	516	863
988	292	965
989	833	452
990	76	528
991	976	229
992	389	121
993	298	380
994	846	377
995	584	714
996	152	19
997	42	497
998	57	32
999	416	758
1000	84	846
1001	125	979
DEMAND_SECTION
1	0
2	1
3	2
4	5
5	3
6	8
7	2
8	7
9	7
10	1
11	2
12	8
13	6
14	8
15	7
16	1
17	8
18	5
19	8
20	3
21	1
22	8
23	2
24	8
25	9
26	5
27	8
28	2
29	7
30	1
31	4
32	4
33	5
34	4
35	8
36	3
37	1
38	7
39	3
40	2
41	6
42	6
43	8
44	1
45	5
46	3
47	4
48	5
49	9
50	7
51	4
52	4
53	5
54	1
55	8
56	2
57	6
58	2
59	3
60	2
61	2
62	2
63	5
64	8
65	1
66	9
67	5
68	9
69	4
70	7
71	8
72	4
73	7
74	3
75	4
76	4
77	4
78	9
79	9
80	1
81	9
82	9
83	2
84	8
85	1
86	5
87	7
88	8
89	1
90	1
91	3
92	3
93	6
94	3
95	1
96	5
97	3
98	7
99	7
100	8
101	7
102	4
103	7
104	8
105	3
106	1
107	6
108	4
109	3
110	8
111	6
112	1
113	7
114	7
115	1
116	5
117	7
118	9
119	5
120	6
121	1
122	8
123	4
124	1
125	2
126	4
127	3
128	5
129	8
130	5
131	8
132	4
133	9
134	3
135	6
136	4
137	1
138	1
139	1
140	9
141	6
142	8
143	6
144	4
145	3
146	9
147	9
148	1
149	3
150	5
151	2
152	4
153	1
154	8
155	7
156	6
157	6
158	9
159	6
160	9
161	6
162	2
163	8
164	1
165	6
166	9
167	3
168	7
169	5
170	2
171	4
172	7
173	2
174	7
175	4
176	8
177	8
178	5
179	5
180	7
181	4
182	1
183	9
184	1
185	6
186	2
187	4
188	7
189	2
190	8
191	7
192	5
193	9
194	2
195	6
196	2
197	2
198	5
199	1
200	4
201	3
202	4
203	8
204	1
205	3
206	4
207	3
208	8
209	7
210	1
211	3
212	7
213	4
214	4
215	8
216	4
217	2
218	2
219	6
220	4
221	2
222	3
223	1
224	7
225	2
226	9
227	2
228	2
229	5
230	7
231	4
232	3
233	8
234	8
235	8
236	1
237	1
238	8
239	7
240	7
241	1
242	4
243	4
244	8
245	9
246	6
247	5
248	3
249	3
250	8
251	3
252	1
253	8
254	5
255	2
256	5
257	7
258	1
259	6
260	9
261	3
262	7
263	3
264	6
265	6
266	7
267	8
268	9
269	8
270	3
271	4
272	5
273	3
274	9
275	3
276	2
277	4
278	4
279	1
280	1
281	9
282	1
283	4
284	2
285	9
286	8
287	2
288	2
289	9
290	5
291	4
292	5
293	5
294	5
295	7
296	1
297	2
298	8
299	6
300	9
301	6
302	1
303	8
304	8
305	4
306	9
307	5
308	8
309	5
310	4
311	9
312	4
313	1
314	6
315	5
316	9
317	3
318	5
319	6
320	9
321	6
322	2
323	6
324	7
325	3
326	9
327	3
328	6
329	4
330	5
331	3
332	5
333	2
334	8
335	7
336	6
337	2
338	5
339	2
340	2
341	7
342	5
343	6
344	7
345	6
346	1
347	5
348	1
349	6
350	8
351	9
352	8
353	8
354	2
355	1
356	2
357	4
358	6
359	2
360	4
361	5
362	4
363	6
364	9
365	5
366	7
367	5
368	1
369	7
370	7
371	5
372	6
373	6
374	9
375	7
376	2
377	3
378	6
379	5
380	3
381	3
382	3
383	6
384	8
385	9
386	1
387	4
388	2
389	4
390	6
391	3
392	2
393	7
394	8
395	1
396	4
397	1
398	4
399	1
400	9
401	6
402	3
403	7
404	5
405	1
406	2
407	7
408	4
409	7
410	7
411	6
412	2
413	5
414	5
415	7
416	5
417	5
418	7
419	6
420	9
421	6
422	3
423	6
424	3
425	4
426	7
427	5
428	7
429	5
430	5
431	6
432	8
433	3
434	4
435	7
436	3
437	6
438	9
439	1
440	9
441	4
442	6
443	1
444	6
445	9
446	9
447	2
448	5
449	2
450	5
451	4
452	5
453	1
454	7
455	4
456	3
457	7
458	8
459	8
460	9
461	7
462	7
463	5
464	6
465	5
466	6
467	7
468	6
469	3
470	3
471	6
472	1
473	9
474	1
475	7
476	1
477	2
478	7
479	3
480	1
481	2
482	9
483	5
484	1
485	3
486	2
487	5
488	3
489	3
490	6
491	6
492	9
493	1
494	8
495	2
496	9
497	1
498	2
499	7
500	8
501	2
502	6
503	2
504	7
505	2
506	5
507	7
508	5
509	3
510	9
511	1
512	3
513	7
514	8
515	6
516	5
517	3
518	7
519	2
520	8
521	7
522	5
523	8
524	5
525	6
526	1
527	8
528	9
529	5
530	3
531	8
532	6
533	8
534	8
535	3
536	7
537	4
538	2
539	5
540	2
541	5
542	3
543	5
544	5
545	2
546	2
547	6
548	3
549	6
550	5
551	6
552	3
553	4
554	4
555	4
556	6
557	5
558	8
559	7
560	4
561	3
562	6
563	2
564	2
565	8
566	9
567	1
568	4
569	2
570	5
571	6
572	7
573	7
574	2
575	5
576	9
577	9
578	7
579	8
580	9
581	4
582	4
583	5
584	8
585	5
586	2
587	8
588	6
589	5
590	9
591	9
592	2
593	7
594	5
595	7
596	9
597	7
598	3
599	8
600	6
601	6
602	9
603	8
604	3
605	3
606	2
607	9
608	3
609	9
610	1
611	9
612	9
613	7
614	8
615	7
616	1
617	3
618	9
619	1
620	1
621	2
622	6
623	1
624	9
625	9
626	5
627	5
628	9
629	4
630	8
631	2
632	9
633	6
634	6
635	8
636	7
637	1
638	9
639	1
640	9
641	1
642	3
643	1
644	8
645	3
646	9
647	9
648	4
649	9
650	9
651	1
652	8
653	7
654	6
655	4
656	1
657	1
658	1
659	8
660	5
661	9
662	3
663	2
664	3
665	9
666	3
667	3
668	8
669	7
670	5
671	7
672	4
673	9
674	1
675	8
676	2
677	5
678	5
679	2
680	4
681	3
682	1
683	1
684	2
685	5
686	1
687	4
688	9
689	9
690	6
691	7
692	3
693	5
694	1
695	3
696	6
697	6
698	7
699	8
700	8
701	1
702	1
703	6
704	1
705	1
706	5
707	8
708	7
709	5
710	4
711	5
712	8
713	1
714	9
715	4
716	3
717	8
718	5
719	8
720	6
721	7
722	9
723	4
724	6
725	1
726	7
727	9
728	8
729	1
730	1
731	9
732	3
733	9
734	1
735	7
736	6
737	5
738	9
739	8
740	8
741	6
742	1
743	2
744	6
745	7
746	5
747	2
748	8
749	4
750	7
751	5
752	4
753	1
754	1
755	3
756	4
757	7
758	5
759	7
760	5
761	6
762	5
763	2
764	4
765	7
766	1
767	8
768	4
769	8
770	9
771	7
772	5
773	1
774	8
775	9
776	9
777	4
778	8
779	1
780	2
781	7
782	1
783	5
784	9
785	5
786	8
787	9
788	4
789	3
790	1
791	2
792	5
793	5
794	9
795	7
796	8
797	9
798	7
799	5
800	7
801	8
802	1
803	2
804	7
805	3
806	3
807	1
808	9
809	5
810	4
811	8
812	4
813	3
814	9
815	2
816	2
817	4
818	9
819	9
820	5
821	7
822	3
823	2
824	1
825	4
826	8
827	9
828	5
829	6
830	3
831	8
832	3
833	1
834	1
835	7
836	2
837	3
838	9
839	2
840	2
841	7
842	3
843	5
844	9
845	1
846	3
847	5
848	6
849	1
850	1
851	5
852	5
853	6
854	7
855	9
856	3
857	6
858	2
859	3
860	4
861	1
862	4
863	8
864	7
865	4
866	5
867	8
868	2
869	6
870	5
871	3
872	1
873	6
874	6
875	7
876	5
877	4
878	7
879	4
880	7
881	2
882	8
883	2
884	1
885	4
886	6
887	2
888	9
889	4
890	1
891	9
892	3
893	9
894	3
895	9
896	9
897	8
898	8
899	1
900	5
901	6
902	1
903	5
904	2
905	7
906	5
907	5
908	3
909	1
910	7
911	6
912	9
913	7
914	2
915	9
916	4
917	8
918	4
919	7
920	3
921	8
922	2
923	3
924	8
925	9
926	6
927	1
928	4
929	3
930	7
931	7
932	4
933	5
934	2
935	2
936	6
937	4
938	5
939	4
940	9
941	9
942	4
943	1
944	2
945	5
946	8
947	1
948	4
949	8
950	6
951	2
952	4
953	5
954	7
955	5
956	2
957	7
958	9
959	3
960	4
961	7
962	6
963	2
964	1
965	7
966	1
967	9
968	9
969	5
970	9
971	5
972	9
973	4
974	6
975	9
976	8
977	1
978	3
979	7
980	8
981	7
982	1
983	9
984	6
985	5
986	9
987	4
988	6
989	7
990	9
991	9
992	5
993	3
994	9
995	1
996	9
997	5
998	1
999	9
1000	7
1001	7
TIME_WINDOW_SECTION
1	0	3000
2	1132	2310
3	854	1815
4	1331	2325
5	859	2067
6	910	1196
7	802	1454
8	1283	1618
9	0	1086
10	436	867
11	501	887
12	119	993
13	111	1359
14	1353	2814
15	1469	2411
16	175	1736
17	515	1453
18	1057	2150
19	1362	1891
20	169	2095
21	853	1133
22	1484	3000
23	637	1063
24	1125	2877
25	566	2485
26	735	1664
27	481	1311
28	1677	1915
29	0	1844
30	641	970
31	1640	2201
32	2007	2386
33	1239	2184
34	671	1213
35	233	2056
36	451	761
37	655	1476
38	695	2200
39	305	1883
40	755	1391
41	1114	2244
42	701	2625
43	1092	2548
44	1226	2324
45	1112	1439
46	1157	2297
47	1636	1915
48	421	2296
49	676	983
50	1093	2560
51	937	2582
52	0	1589
53	522	2403
54	868	1976
55	893	2504
56	832	2290
57	901	2060
58	684	2417
59	1380	1791
60	387	2235
61	971	1496
62	1293	1939
63	673	2295
64	581	2140
65	1083	3000
66	0	1416
67	1815	2521
68	718	2108
69	458	2102
70	535	2474
71	686	2231
72	325	2176
73	519	2363
74	1100	1450
75	1053	2257
76	1990	2530
77	867	2037
78	478	2472
79	353	2178
80	1479	3000
81	1216	2010
82	237	2131
83	341	1178
84	1013	2888
85	727	2434
86	1074	1492
87	1750	2104
88	388	1988
89	552	1956
90	890	2302
91	370	1820
92	957	1979
93	160	1986
94	797	2750
95	601	1741
96	1523	1882
97	90	2016
98	1128	1485
99	282	1798
100	950	2735
101	1135	3000
102	297	874
103	458	1594
104	1192	2427
105	1074	2039
106	1280	2565
107	1691	1908
108	1615	2434
109	700	1242
110	995	2545
111	0	1449
112	654	2388
113	1526	2259
114	1302	1888
115	581	2124
116	0	1854
117	944	1814
118	0	1263
119	111	1354
120	838	2649
121	299	1808
122	1035	2758
123	1089	2446
124	964	1612
125	1499	3000
126	542	2110
127	479	2267
128	1764	2326
129	523	1541
130	1047	1536
131	1183	2507
132	553	2304
133	1042	2951
134	1525	2786
135	326	1922
136	0	961
137	0	1327
138	1590	2915
139	468	2016
140	461	2148
141	1839	2697
142	1008	2642
143	1242	1740
144	1308	1515
145	682	1286
146	479	1202
147	726	1699
148	870	1309
149	1862	2130
150	1036	1768
151	430	1608
152	584	2432
153	670	2627
154	1312	1822
155	1432	2805
156	435	2102
157	873	1295
158	873	1555
159	950	1888
160	1106	2707
161	466	1439
162	0	1571
163	160	1942
164	623	2523
165	723	1972
166	459	2449
167	1061	2730
168	1055	2293
169	0	1589
170	867	1187
171	753	1753
172	857	1788
173	1004	2366
174	744	1897
175	1477	1740
176	503	1271
177	872	2226
178	964	1280
179	894	2084
180	1855	2157
181	0	1029
182	255	1920
183	499	1212
184	1005	1596
185	1385	2156
186	842	2015
187	49	1431
188	810	1576
189	1508	2438
190	121	1114
191	145	514
192	436	1124
193	1259	1733
194	1614	1947
195	781	1715
196	120	1698
197	185	1241
198	790	2170
199	779	2399
200	1518	2142
201	218	1593
202	1248	2640
203	1060	2289
204	1398	1743
205	1406	2329
206	14	1148
207	635	1332
208	393	1674
209	1635	2642
210	649	2251
211	1938	2449
212	1267	2433
213	1099	2074
214	231	1366
215	242	1890
216	747	1348
217	343	1581
218	844	2322
219	717	2227
220	641	2383
221	709	2288
222	0	1309
223	1215	1565
224	1688	2835
225	796	1436
226	794	1635
227	1116	2594
228	820	1447
229	691	1984
230	1555	2347
231	686	1085
232	1070	1376
233	1753	2286
234	403	1424
235	1189	1896
236	506	1084
237	1777	2230
238	978	1405
239	1653	2131
240	0	1256
241	1114	1411
242	566	1601
243	1453	1782
244	1709	1973
245	1380	2788
246	379	1509
247	297	1850
248	910	1688
249	1353	2468
250	1272	2348
251	563	930
252	1032	2044
253	949	2719
254	327	1541
255	680	1447
256	394	1573
257	1173	1590
258	483	2176
259	1079	1522
260	1048	2269
261	0	1442
262	568	1299
263	0	1918
264	967	2498
265	1170	2236
266	1213	2826
267	264	1879
268	634	1638
269	1158	2589
270	1131	1587
271	369	1136
272	999	2552
273	1466	1681
274	2	1967
275	980	1816
276	1399	2597
277	1117	2528
278	623	1536
279	405	1357
280	1124	2473
281	1210	1445
282	1103	1827
283	379	1864
284	432	2261
285	1370	1929
286	2018	2682
287	1215	1467
288	1735	2303
289	1116	2407
290	730	1045
291	1730	2983
292	921	2013
293	1058	2809
294	491	766
295	358	2352
296	0	1414
297	103	1898
298	618	1550
299	674	2213
300	458	1561
301	1632	1949
302	651	1748
303	341	2293
304	1630	1854
305	602	1997
306	1199	2074
307	654	2609
308	0	1534
309	886	1199
310	256	1048
311	864	1686
312	302	1719
313	1182	1954
314	23	1451
315	1319	2723
316	695	1727
317	1238	2168
318	1023	1751
319	386	1700
320	309	1992
321	476	1605
322	2339	2750
323	1287	1593
324	55	1993
325	1600	2213
326	968	1724
327	982	1990
328	1324	2091
329	214	1848
330	756	2329
331	893	1282
332	769	2602
333	407	1986
334	983	2349
335	202	2122
336	207	1958
337	1504	2367
338	106	1268
339	2008	2314
340	1315	2555
341	121	1620
342	1098	1911
343	1230	2868
344	1606	1941
345	1451	2504
346	775	1906
347	1340	1576
348	1485	3000
349	1052	2532
350	828	1918
351	754	2236
352	837	2731
353	1414	2952
354	324	1862
355	1040	1295
356	787	1927
357	1035	2745
358	964	2548
359	1188	1698
360	439	1987
361	123	2032
362	1663	2733
363	304	1671
364	46	1084
365	1414	2085
366	1431	2097
367	401	1801
368	812	2659
369	2020	2806
370	307	1130
371	694	1296
372	0	1450
373	1887	2163
374	200	1566
375	1504	2107
376	910	1296
377	1705	1961
378	516	1879
379	425	2151
380	1077	1377
381	171	1212
382	1080	2795
383	1571	1971
384	1104	2158
385	629	2282
386	0	1462
387	307	2019
388	1225	2013
389	1299	2670
390	1233	2014
391	1391	1874
392	125	1434
393	1280	3000
394	974	2174
395	1542	2058
396	0	1682
397	762	1850
398	1002	2101
399	460	2112
400	366	1652
401	1975	2242
402	664	1988
403	786	1905
404	929	1619
405	736	1734
406	1020	1283
407	614	947
408	1054	1612
409	666	2323
410	572	2045
411	495	2446
412	384	1119
413	2067	2596
414	1069	1958
415	265	1434
416	929	2301
417	1378	1997
418	798	2345
419	151	1553
420	1162	3000
421	943	1626
422	1473	2459
423	2207	2765
424	1352	2497
425	0	1889
426	1094	2341
427	701	2407
428	1360	2806
429	1035	1807
430	282	1829
431	260	774
432	834	2292
433	1327	1646
434	473	2005
435	1432	3000
436	56	1869
437	637	1690
438	707	2301
439	0	1593
440	1119	2247
441	1557	2247
442	809	2804
443	895	1692
444	1155	2168
445	1144	2593
446	893	2485
447	0	1816
448	550	1825
449	217	1711
450	1343	1886
451	1201	1522
452	1658	2801
453	819	2438
454	1284	2336
455	238	2067
456	1862	2119
457	826	1705
458	1214	3000
459	799	2172
460	1438	1666
461	513	1431
462	0	697
463	1466	1832
464	810	1237
465	1294	2786
466	652	1902
467	1557	3000
468	1235	2025
469	1723	2220
470	672	1591
471	270	1942
472	1660	2293
473	441	1913
474	977	1689
475	324	1444
476	436	748
477	1009	2518
478	646	2331
479	925	1557
480	758	1851
481	1232	2327
482	1	1876
483	346	2001
484	983	1738
485	945	1623
486	869	2239
487	113	1662
488	542	1834
489	1236	2228
490	903	2109
491	62	1418
492	1008	1746
493	1468	1684
494	1162	2595
495	315	1664
496	808	1454
497	681	1108
498	1443	2741
499	1237	2922
500	1633	2408
501	368	773
502	1624	1956
503	1156	2302
504	0	1686
505	468	1901
506	701	1604
507	985	2684
508	1095	1907
509	1027	1851
510	1322	1874
511	888	1202
512	987	1345
513	1223	1977
514	959	1835
515	963	2122
516	1028	1966
517	238	2131
518	233	491
519	0	1120
520	811	2387
521	1144	1411
522	0	1727
523	1816	2179
524	1434	2845
525	735	2674
526	1188	2835
527	1271	2109
528	882	1625
529	1200	1641
530	1325	2047
531	619	2446
532	1789	2487
533	930	2417
534	1021	1288
535	0	1769
536	0	1815
537	1661	3000
538	422	988
539	0	1463
540	222	1493
541	0	1191
542	1261	2949
543	1351	2668
544	455	729
545	1419	2966
546	1782	2391
547	1425	2695
548	1450	2216
549	815	1836
550	1036	2300
551	1023	1652
552	1109	2001
553	1179	3000
554	1269	1935
555	1916	2684
556	81	743
557	724	1536
558	508	1690
559	1158	1792
560	1237	1951
561	798	1725
562	0	1127
563	1590	2155
564	1230	3000
565	870	1519
566	947	2776
567	1630	2230
568	874	1585
569	883	2062
570	550	1651
571	927	1732
572	344	1464
573	1091	2444
574	1242	1876
575	2207	2815
576	977	2003
577	1218	1718
578	466	2382
579	940	1495
580	818	1209
581	590	2025
582	0	1565
583	997	2288
584	1046	1692
585	861	1190
586	657	1143
587	739	1519
588	438	1447
589	980	1584
590	1112	2813
591	1212	2705
592	595	1237
593	892	1773
594	982	2484
595	518	2148
596	1298	2410
597	643	1705
598	1210	2909
599	1567	2080
600	1633	2053
601	1421	2771
602	1502	1837
603	100	1354
604	863	1620
605	1058	2048
606	1931	2407
607	1000	2414
608	1283	3000
609	127	1627
610	493	1978
611	1404	1682
612	729	1031
613	485	1015
614	467	1567
615	0	658
616	1639	2614
617	348	2072
618	601	1680
619	812	1215
620	553	2220
621	1834	2859
622	841	1552
623	991	1599
624	530	1927
625	1274	3000
626	1166	2095
627	840	2534
628	939	2882
629	528	1415
630	572	2402
631	879	2275
632	1378	1667
633	1074	2633
634	1550	2631
635	1719	3000
636	960	1416
637	483	1402
638	590	1635
639	756	1243
640	263	1843
641	1364	1675
642	863	1784
643	0	1712
644	995	2454
645	1052	1538
646	277	2206
647	1065	2080
648	646	1698
649	1859	2935
650	542	1895
651	61	1807
652	502	1946
653	2051	2327
654	157	1020
655	1413	2058
656	1469	2779
657	601	1429
658	602	1179
659	810	1252
660	577	1156
661	59	559
662	375	1654
663	1494	1775
664	1110	2715
665	1338	2673
666	1194	1782
667	0	1590
668	289	2092
669	886	2028
670	913	1132
671	269	1278
672	159	1651
673	1032	1822
674	1668	2076
675	804	1031
676	383	1609
677	1102	1487
678	1097	1314
679	264	973
680	1517	3000
681	1001	1497
682	1364	2452
683	1921	2556
684	713	1900
685	614	2315
686	1406	1879
687	129	828
688	982	2038
689	1275	1780
690	1025	1497
691	513	1558
692	1507	1998
693	1088	2485
694	308	2250
695	1012	2540
696	1776	2661
697	113	1131
698	1281	1583
699	1057	1706
700	1073	1791
701	0	1633
702	649	1666
703	897	1901
704	916	1727
705	1361	2158
706	388	1143
707	1529	3000
708	1746	2158
709	650	1525
710	326	2211
711	1137	2401
712	491	967
713	71	2023
714	1152	2283
715	1272	1926
716	106	1661
717	1062	1603
718	990	1984
719	342	1768
720	946	1894
721	544	1285
722	473	2400
723	1490	2028
724	1101	1490
725	495	2026
726	1240	1664
727	1450	2029
728	0	1847
729	1323	2791
730	878	1206
731	1970	2760
732	1057	1499
733	1376	2350
734	1409	2164
735	108	1076
736	1054	1752
737	1152	2210
738	786	1350
739	719	1052
740	1108	1817
741	394	1833
742	281	1540
743	1276	2952
744	829	1156
745	1440	1714
746	541	1297
747	825	1693
748	770	2469
749	794	1289
750	430	1994
751	889	2377
752	1307	1538
753	626	1998
754	0	1450
755	1252	2386
756	0	1430
757	1064	1574
758	529	2043
759	1221	2179
760	1912	2748
761	608	1878
762	328	1159
763	977	1735
764	566	2052
765	464	1014
766	872	2425
767	1550	2269
768	85	2005
769	1582	1866
770	781	1845
771	604	1892
772	1827	2160
773	1041	2384
774	791	1541
775	1255	1605
776	2	1544
777	205	2029
778	635	1526
779	1477	3000
780	205	1908
781	1240	3000
782	644	1965
783	492	2272
784	1843	2459
785	1439	3000
786	749	1299
787	503	2040
788	28	1929
789	1480	3000
790	539	1045
791	1614	2523
792	1244	1461
793	192	1897
794	1096	2428
795	245	1106
796	48	1847
797	1410	3000
798	1244	1757
799	441	2016
800	763	1411
801	674	1258
802	1383	2057
803	723	2275
804	282	1732
805	208	1646
806	1465	2973
807	1142	2768
808	1239	1933
809	389	1779
810	403	1585
811	774	2599
812	986	2105
813	1081	3000
814	840	1855
815	1469	1884
816	204	1690
817	1741	2501
818	1419	2159
819	1252	1752
820	116	1310
821	335	2237
822	941	2247
823	1190	2496
824	1495	2736
825	840	1887
826	0	1430
827	162	797
828	1022	1771
829	992	2585
830	656	1004
831	494	1575
832	783	1717
833	1622	2209
834	945	2654
835	1460	2227
836	1687	2182
837	526	1817
838	1581	3000
839	1084	2073
840	958	2768
841	1520	1805
842	1513	2207
843	121	1678
844	1142	2030
845	1396	1980
846	675	2477
847	1083	1915
848	1150	2504
849	1411	2107
850	939	2496
851	1458	1901
852	1056	2274
853	1736	2505
854	1371	1818
855	980	2693
856	2395	2846
857	344	883
858	667	2043
859	794	2194
860	99	1984
861	330	2035
862	982	2712
863	716	2185
864	1261	2435
865	524	2044
866	1357	2910
867	793	1957
868	1765	2004
869	1087	2047
870	1012	1596
871	964	1273
872	1711	2064
873	1189	2851
874	0	1354
875	1921	2124
876	409	1574
877	1520	2078
878	433	2250
879	1138	1475
880	575	1331
881	799	1814
882	1138	2937
883	1230	3000
884	1047	3000
885	465	786
886	1664	2535
887	0	1806
888	350	2088
889	446	1263
890	1509	1965
891	677	1167
892	1407	2291
893	1040	1815
894	791	2345
895	1259	2702
896	634	1195
897	171	2003
898	649	989
899	1341	1855
900	524	1651
901	1070	2553
902	530	2441
903	173	1772
904	1387	2565
905	873	1112
906	471	1746
907	1266	2136
908	529	1577
909	609	1637
910	275	2225
911	139	1893
912	0	1791
913	1983	2438
914	0	1411
915	0	1292
916	1568	1796
917	0	995
918	154	1358
919	128	1045
920	484	1555
921	599	2190
922	480	791
923	1214	2812
924	1257	2665
925	1306	2078
926	1343	1639
927	1239	1523
928	1902	3000
929	662	2426
930	1905	2702
931	2095	2557
932	0	1330
933	1976	2391
934	259	2078
935	43	1998
936	932	1626
937	1387	2285
938	689	929
939	699	2538
940	886	2721
941	631	1684
942	533	2175
943	1295	2055
944	1905	2200
945	392	1757
946	1355	1955
947	0	1669
948	497	2135
949	339	1827
950	1634	2335
951	640	2125
952	784	1515
953	1085	1613
954	426	2285
955	1208	1435
956	1200	2178
957	1386	1917
958	1395	2078
959	1060	2199
960	233	1376
961	779	2013
962	823	1615
963	614	1569
964	1772	2200
965	738	2412
966	346	1805
967	666	1742
968	710	1523
969	329	1653
970	294	2084
971	266	2250
972	1579	2497
973	461	1675
974	0	1515
975	0	1549
976	777	1320
977	863	1718
978	1259	1767
979	518	1866
980	907	1336
981	877	2247
982	1005	1576
983	600	939
984	756	1875
985	213	1336
986	1771	2736
987	1314	1518
988	943	2096
989	0	1790
990	139	1302
991	75	1966
992	16	1943
993	324	1657
994	689	1334
995	739	2236
996	2211	2728
997	217	1652
998	2288	2781
999	394	2066
1000	1584	2561
1001	447	1768
BACKHAUL_SECTION
8	19	28	30	31	39	40	42	45	46	49	58	66	72	73	89	90	104	106	111	121	126	127	128	134	137	145	150	152	155	189	191	203	204	206	220	233	236	239	241	242	246	248	259	260	270	279	298	305	307	308	311	313	316	325	330	331	342	343	344	347	350	352	357	366	369	371	372	375	392	400	401	407	412	416	417	431	432	441	444	447	455	462	463	466	467	472	474	489	495	501	506	513	514	516	520	522	523	527	531	534	541	545	547	557	567	576	581	585	586	589	592	596	599	607	617	622	635	642	649	653	665	666	668	670	684	689	692	693	695	700	717	720	722	723	724	728	733	737	743	748	750	752	755	757	764	766	780	788	789	790	791	793	796	800	801	802	815	816	817	818	823	825	833	836	838	843	845	857	862	871	875	889	897	902	904	909	910	915	924	928	936	941	943	944	945	955	957	959	961	966	968	972	974	983	984	994	996	997	999	-1
DEPOT_SECTION
1
-1
EOF
