NAME : n101-0049
COMMENT : "Generated by pyvrp_manuel (VRPBTW)"
TYPE : VRPBTW
DIMENSION : 101
EDGE_WEIGHT_TYPE : EUC_2D
CAPACITY : 50
VEHICLES : 100
SERVICE_TIME : 200
NODE_COORD_SECTION
1	750	605
2	872	81
3	673	685
4	639	357
5	790	146
6	299	487
7	426	5
8	768	795
9	56	501
10	79	409
11	559	935
12	852	758
13	566	39
14	339	946
15	541	387
16	328	741
17	815	456
18	646	868
19	835	759
20	841	682
21	637	8
22	402	351
23	612	357
24	44	918
25	283	25
26	292	605
27	330	1
28	666	693
29	965	6
30	405	309
31	327	511
32	966	448
33	928	569
34	240	452
35	757	796
36	334	439
37	82	182
38	368	798
39	531	764
40	83	602
41	96	354
42	908	521
43	126	8
44	349	304
45	36	774
46	510	423
47	886	26
48	660	870
49	608	768
50	323	29
51	967	4
52	296	953
53	261	401
54	244	602
55	320	687
56	988	124
57	827	374
58	2	717
59	166	794
60	413	198
61	65	608
62	18	775
63	691	76
64	761	106
65	551	356
66	834	77
67	343	323
68	457	551
69	187	568
70	523	246
71	619	867
72	757	661
73	280	138
74	799	577
75	539	755
76	270	4
77	157	32
78	811	804
79	271	388
80	396	297
81	157	657
82	323	174
83	594	299
84	599	481
85	661	829
86	61	263
87	990	522
88	418	895
89	936	676
90	106	977
91	47	4
92	576	354
93	35	889
94	561	232
95	675	864
96	447	869
97	810	585
98	235	117
99	493	367
100	50	32
101	183	510
DEMAND_SECTION
1	0
2	3
3	6
4	4
5	4
6	3
7	2
8	3
9	3
10	4
11	3
12	5
13	6
14	4
15	2
16	3
17	4
18	9
19	4
20	2
21	8
22	2
23	1
24	2
25	9
26	3
27	1
28	7
29	5
30	2
31	8
32	4
33	2
34	4
35	4
36	3
37	8
38	4
39	2
40	4
41	9
42	4
43	7
44	5
45	8
46	6
47	8
48	3
49	3
50	2
51	4
52	3
53	6
54	8
55	1
56	7
57	7
58	2
59	1
60	7
61	6
62	8
63	7
64	7
65	8
66	2
67	8
68	8
69	4
70	9
71	8
72	8
73	2
74	7
75	9
76	1
77	5
78	4
79	9
80	7
81	7
82	5
83	5
84	8
85	1
86	3
87	8
88	5
89	4
90	1
91	4
92	1
93	6
94	2
95	3
96	2
97	4
98	5
99	3
100	4
101	2
TIME_WINDOW_SECTION
1	0	3000
2	529	1375
3	443	2137
4	0	1041
5	791	2670
6	0	1437
7	381	1095
8	1676	3000
9	974	1286
10	745	1467
11	562	1606
12	0	895
13	0	1364
14	1146	2095
15	854	1581
16	977	2439
17	1664	3000
18	798	2118
19	299	1774
20	951	2748
21	149	1932
22	1553	2956
23	1879	2381
24	1568	2069
25	665	2149
26	671	920
27	264	1817
28	0	913
29	571	829
30	1710	2616
31	327	1873
32	1591	2490
33	1376	3000
34	188	996
35	1506	3000
36	2025	2449
37	1193	2569
38	218	1357
39	1619	2888
40	142	2068
41	1778	2102
42	791	1377
43	945	1398
44	1923	2208
45	1361	1594
46	2016	2294
47	326	1044
48	1238	2066
49	1300	3000
50	1114	1955
51	583	1650
52	1407	2625
53	259	1246
54	575	1937
55	2066	2322
56	225	1422
57	62	2004
58	611	1506
59	1346	1625
60	1028	2676
61	1173	2379
62	568	1760
63	0	1744
64	707	1504
65	1094	2789
66	0	1211
67	568	1966
68	1803	2380
69	0	1899
70	415	1324
71	1345	1887
72	1497	2199
73	1078	2621
74	119	1032
75	0	673
76	1402	1732
77	748	1513
78	169	1218
79	275	1921
80	1853	2580
81	392	1355
82	1380	1732
83	2251	2539
84	1645	2170
85	1133	2115
86	157	1809
87	2389	2638
88	243	2060
89	1765	2941
90	197	1678
91	1466	1990
92	2028	2382
93	763	2467
94	1344	2136
95	1504	1891
96	1374	3000
97	1355	2871
98	624	2463
99	173	1579
100	541	2046
101	547	1019
BACKHAUL_SECTION
9	10	13	14	25	29	32	36	43	46	49	55	57	65	73	85	89	92	97	98	-1
DEPOT_SECTION
1
-1
EOF
