NAME : n101-0025
COMMENT : "Generated by pyvrp_manuel (VRPBTW)"
TYPE : VRPBTW
DIMENSION : 101
EDGE_WEIGHT_TYPE : EUC_2D
CAPACITY : 50
VEHICLES : 100
SERVICE_TIME : 200
NODE_COORD_SECTION
1	278	482
2	721	299
3	670	536
4	101	186
5	153	762
6	608	487
7	202	5
8	323	117
9	3	23
10	173	14
11	656	687
12	702	2
13	809	597
14	756	377
15	740	26
16	670	896
17	710	29
18	360	438
19	762	311
20	572	324
21	421	490
22	213	153
23	913	920
24	485	933
25	885	185
26	301	157
27	662	513
28	431	871
29	305	226
30	145	246
31	982	257
32	362	725
33	116	197
34	868	308
35	241	435
36	429	591
37	683	114
38	954	25
39	669	359
40	289	968
41	18	534
42	820	947
43	77	560
44	995	10
45	622	187
46	581	48
47	746	389
48	799	492
49	429	379
50	42	288
51	517	113
52	939	175
53	305	433
54	95	496
55	259	81
56	512	943
57	623	912
58	495	325
59	903	234
60	37	609
61	749	201
62	676	323
63	439	389
64	393	93
65	623	368
66	882	583
67	91	120
68	239	739
69	177	271
70	591	153
71	254	953
72	236	333
73	858	612
74	892	60
75	750	424
76	180	286
77	16	846
78	404	10
79	928	824
80	707	989
81	952	967
82	948	906
83	631	458
84	519	292
85	735	514
86	618	178
87	312	875
88	549	673
89	63	286
90	487	448
91	819	349
92	917	403
93	694	148
94	585	13
95	71	180
96	640	539
97	548	445
98	920	990
99	712	898
100	475	316
101	597	829
DEMAND_SECTION
1	0
2	2
3	3
4	7
5	4
6	3
7	6
8	4
9	6
10	2
11	2
12	6
13	9
14	4
15	3
16	3
17	5
18	8
19	9
20	9
21	6
22	6
23	4
24	8
25	7
26	1
27	9
28	6
29	6
30	4
31	9
32	8
33	5
34	8
35	2
36	4
37	6
38	9
39	6
40	9
41	8
42	4
43	6
44	7
45	6
46	4
47	3
48	4
49	2
50	7
51	4
52	8
53	8
54	6
55	3
56	2
57	8
58	6
59	1
60	4
61	8
62	2
63	1
64	9
65	2
66	8
67	8
68	7
69	1
70	6
71	6
72	7
73	6
74	4
75	4
76	9
77	4
78	4
79	4
80	7
81	5
82	3
83	6
84	2
85	9
86	9
87	6
88	9
89	4
90	1
91	7
92	4
93	2
94	8
95	9
96	4
97	8
98	7
99	8
100	7
101	7
TIME_WINDOW_SECTION
1	0	3000
2	117	1321
3	0	1556
4	426	2349
5	63	690
6	1803	2843
7	0	1777
8	1627	3000
9	1255	2074
10	154	1181
11	1543	2210
12	1842	2094
13	539	1962
14	0	1182
15	680	2672
16	1998	2274
17	372	1550
18	0	1010
19	1377	2559
20	1195	2685
21	291	1297
22	945	1377
23	1491	2277
24	1138	2015
25	511	2024
26	991	1592
27	547	752
28	0	1804
29	476	2085
30	486	712
31	1822	2227
32	772	1637
33	1291	1568
34	1341	2459
35	1192	2080
36	1436	2107
37	2090	2350
38	468	2244
39	65	762
40	1648	2382
41	792	2268
42	815	2299
43	1683	2440
44	338	1974
45	1999	2614
46	292	802
47	1839	2497
48	695	2289
49	2134	2387
50	1735	2492
51	0	1655
52	545	2514
53	412	1193
54	1481	2166
55	1218	1538
56	1646	2049
57	413	954
58	1826	3000
59	855	2016
60	0	1268
61	1472	2542
62	1097	2007
63	837	1526
64	0	897
65	912	1849
66	1482	2581
67	1193	2998
68	462	1954
69	0	1062
70	1880	2740
71	1558	2623
72	1605	3000
73	1336	2855
74	686	2009
75	724	1057
76	2170	2670
77	611	2484
78	375	1962
79	828	1593
80	379	1789
81	840	2221
82	656	2489
83	1445	2637
84	2017	2806
85	1259	1560
86	437	1781
87	561	2018
88	65	999
89	0	852
90	572	1563
91	834	2769
92	831	1229
93	473	1584
94	949	2127
95	1563	2954
96	1348	3000
97	0	1175
98	846	2772
99	306	1036
100	1568	3000
101	860	2776
BACKHAUL_SECTION
9	10	13	14	25	29	32	36	43	46	49	55	57	65	73	85	89	92	97	98	-1
DEPOT_SECTION
1
-1
EOF
