NAME : n51-0017
COMMENT : "Generated by pyvrp_manuel (VRPL)"
TYPE : VRPL
DIMENSION : 51
EDGE_WEIGHT_TYPE : EUC_2D
CAPACITY : 40
VEHICLES : 50
DISTANCE : 3000
NODE_COORD_SECTION
1	860	826
2	863	424
3	778	613
4	195	426
5	717	503
6	474	425
7	853	140
8	540	181
9	792	458
10	205	169
11	454	536
12	802	399
13	239	16
14	479	917
15	36	399
16	891	940
17	171	64
18	996	260
19	637	4
20	729	496
21	405	251
22	717	300
23	278	184
24	908	514
25	421	599
26	838	81
27	827	729
28	770	436
29	202	467
30	984	203
31	84	375
32	704	103
33	459	596
34	367	79
35	321	360
36	689	1
37	606	440
38	841	239
39	782	489
40	657	26
41	432	187
42	776	56
43	873	72
44	822	323
45	71	532
46	74	660
47	969	452
48	209	875
49	553	530
50	754	23
51	260	663
DEMAND_SECTION
1	0
2	6
3	7
4	8
5	8
6	8
7	7
8	3
9	9
10	7
11	1
12	1
13	9
14	2
15	8
16	6
17	9
18	2
19	4
20	3
21	6
22	8
23	6
24	3
25	7
26	2
27	5
28	8
29	9
30	8
31	4
32	8
33	8
34	5
35	9
36	9
37	2
38	3
39	1
40	2
41	7
42	9
43	7
44	9
45	6
46	2
47	9
48	2
49	8
50	9
51	3
DEPOT_SECTION
1
-1
EOF
