NAME : n51-0041
COMMENT : "Generated by pyvrp_manuel (VRPL)"
TYPE : VRPL
DIMENSION : 51
EDGE_WEIGHT_TYPE : EUC_2D
CAPACITY : 40
VEHICLES : 50
DISTANCE : 3000
NODE_COORD_SECTION
1	912	373
2	739	41
3	435	116
4	936	271
5	842	532
6	287	701
7	101	318
8	439	982
9	64	685
10	994	392
11	234	172
12	398	905
13	183	977
14	106	912
15	529	359
16	93	252
17	185	60
18	332	868
19	56	894
20	632	779
21	443	262
22	725	866
23	641	742
24	1000	592
25	251	766
26	228	923
27	581	730
28	577	925
29	768	843
30	262	588
31	843	851
32	338	878
33	45	884
34	300	155
35	919	493
36	304	763
37	857	560
38	142	276
39	225	678
40	31	231
41	18	495
42	953	661
43	552	731
44	180	388
45	890	81
46	11	335
47	52	394
48	832	494
49	630	568
50	156	249
51	559	937
DEMAND_SECTION
1	0
2	3
3	2
4	3
5	9
6	7
7	3
8	6
9	8
10	9
11	4
12	7
13	9
14	9
15	5
16	8
17	9
18	5
19	8
20	7
21	3
22	2
23	2
24	8
25	2
26	3
27	2
28	2
29	9
30	9
31	2
32	6
33	6
34	1
35	5
36	5
37	7
38	9
39	1
40	4
41	4
42	4
43	4
44	2
45	6
46	4
47	3
48	3
49	8
50	2
51	3
DEPOT_SECTION
1
-1
EOF
