NAME : n51-0023
COMMENT : "Generated by pyvrp_manuel (VRPL)"
TYPE : VRPL
DIMENSION : 51
EDGE_WEIGHT_TYPE : EUC_2D
CAPACITY : 40
VEHICLES : 50
DISTANCE : 3000
NODE_COORD_SECTION
1	597	774
2	36	420
3	700	849
4	168	255
5	917	910
6	985	857
7	634	499
8	128	320
9	10	826
10	808	725
11	411	77
12	936	613
13	606	373
14	139	555
15	421	951
16	686	668
17	867	237
18	836	503
19	40	814
20	163	807
21	888	463
22	335	584
23	874	754
24	881	485
25	122	722
26	537	619
27	966	385
28	955	205
29	176	827
30	880	310
31	592	557
32	660	424
33	13	667
34	15	155
35	106	697
36	718	209
37	948	149
38	865	719
39	390	896
40	868	908
41	94	313
42	146	899
43	612	247
44	434	845
45	967	504
46	47	272
47	851	576
48	834	912
49	329	790
50	442	278
51	155	598
DEMAND_SECTION
1	0
2	6
3	1
4	4
5	1
6	8
7	5
8	8
9	7
10	3
11	5
12	8
13	8
14	4
15	8
16	4
17	2
18	9
19	9
20	1
21	9
22	9
23	6
24	4
25	5
26	9
27	8
28	4
29	4
30	8
31	8
32	4
33	8
34	4
35	1
36	6
37	1
38	7
39	3
40	4
41	9
42	2
43	3
44	5
45	7
46	3
47	8
48	4
49	8
50	4
51	4
DEPOT_SECTION
1
-1
EOF
