NAME : n51-0039
COMMENT : "Generated by pyvrp_manuel (VRPL)"
TYPE : VRPL
DIMENSION : 51
EDGE_WEIGHT_TYPE : EUC_2D
CAPACITY : 40
VEHICLES : 50
DISTANCE : 3000
NODE_COORD_SECTION
1	122	330
2	905	403
3	161	807
4	320	22
5	309	422
6	610	880
7	817	286
8	905	684
9	629	135
10	415	679
11	353	712
12	733	151
13	905	552
14	467	462
15	461	443
16	333	574
17	367	905
18	329	41
19	996	795
20	144	895
21	65	251
22	241	583
23	636	296
24	331	232
25	883	743
26	544	527
27	531	385
28	274	950
29	305	192
30	450	654
31	73	637
32	476	268
33	563	550
34	18	735
35	691	213
36	658	236
37	872	277
38	679	661
39	471	226
40	737	630
41	268	431
42	707	78
43	573	606
44	10	572
45	108	52
46	939	757
47	858	945
48	231	287
49	500	701
50	551	454
51	1000	256
DEMAND_SECTION
1	0
2	4
3	5
4	2
5	3
6	1
7	3
8	6
9	1
10	5
11	7
12	8
13	6
14	5
15	8
16	9
17	2
18	3
19	1
20	9
21	4
22	8
23	7
24	9
25	2
26	6
27	3
28	4
29	9
30	4
31	3
32	5
33	6
34	8
35	6
36	8
37	5
38	2
39	9
40	3
41	5
42	9
43	6
44	3
45	2
46	2
47	3
48	6
49	2
50	5
51	1
DEPOT_SECTION
1
-1
EOF
