NAME : n51-0024
COMMENT : "Generated by pyvrp_manuel (VRPL)"
TYPE : VRPL
DIMENSION : 51
EDGE_WEIGHT_TYPE : EUC_2D
CAPACITY : 40
VEHICLES : 50
DISTANCE : 3000
NODE_COORD_SECTION
1	957	866
2	609	828
3	991	108
4	420	349
5	756	744
6	953	844
7	840	121
8	169	99
9	253	254
10	849	257
11	929	922
12	812	793
13	855	582
14	168	874
15	864	840
16	151	437
17	824	484
18	465	233
19	750	721
20	391	869
21	206	760
22	479	298
23	577	64
24	908	394
25	243	549
26	788	872
27	831	408
28	613	959
29	769	998
30	587	20
31	648	373
32	589	695
33	782	263
34	129	958
35	626	740
36	636	410
37	40	949
38	974	490
39	369	720
40	32	638
41	927	370
42	472	748
43	455	490
44	659	461
45	498	470
46	781	962
47	545	574
48	144	779
49	783	136
50	793	637
51	193	418
DEMAND_SECTION
1	0
2	4
3	8
4	6
5	4
6	8
7	9
8	3
9	2
10	9
11	1
12	7
13	6
14	8
15	1
16	2
17	9
18	7
19	9
20	3
21	9
22	7
23	1
24	3
25	4
26	7
27	9
28	9
29	1
30	9
31	6
32	2
33	1
34	5
35	8
36	3
37	8
38	2
39	6
40	6
41	4
42	3
43	9
44	8
45	8
46	1
47	5
48	7
49	1
50	9
51	9
DEPOT_SECTION
1
-1
EOF
