NAME : n51-0010
COMMENT : "Generated by pyvrp_manuel (VRPL)"
TYPE : VRPL
DIMENSION : 51
EDGE_WEIGHT_TYPE : EUC_2D
CAPACITY : 40
VEHICLES : 50
DISTANCE : 3000
NODE_COORD_SECTION
1	437	638
2	922	407
3	129	360
4	423	476
5	655	925
6	593	836
7	114	253
8	111	642
9	967	71
10	396	451
11	210	117
12	810	344
13	214	432
14	82	967
15	609	378
16	670	837
17	444	717
18	35	912
19	856	322
20	703	657
21	387	999
22	647	137
23	590	358
24	25	870
25	602	103
26	745	267
27	891	449
28	440	120
29	249	860
30	749	279
31	551	394
32	99	674
33	285	827
34	457	650
35	406	543
36	892	65
37	985	643
38	133	45
39	531	251
40	989	253
41	931	806
42	162	348
43	832	218
44	186	218
45	418	763
46	451	604
47	660	463
48	777	870
49	228	736
50	405	479
51	92	926
DEMAND_SECTION
1	0
2	6
3	4
4	2
5	2
6	1
7	9
8	4
9	2
10	6
11	1
12	3
13	2
14	5
15	5
16	2
17	1
18	1
19	3
20	5
21	9
22	2
23	7
24	4
25	3
26	3
27	9
28	8
29	7
30	9
31	9
32	9
33	7
34	1
35	7
36	9
37	2
38	3
39	6
40	2
41	2
42	9
43	6
44	9
45	9
46	2
47	8
48	6
49	7
50	9
51	9
DEPOT_SECTION
1
-1
EOF
