NAME : n51-0019
COMMENT : "Generated by pyvrp_manuel (VRPL)"
TYPE : VRPL
DIMENSION : 51
EDGE_WEIGHT_TYPE : EUC_2D
CAPACITY : 40
VEHICLES : 50
DISTANCE : 3000
NODE_COORD_SECTION
1	890	69
2	448	740
3	858	819
4	276	558
5	334	621
6	42	907
7	828	393
8	285	916
9	776	985
10	205	149
11	50	425
12	503	908
13	241	52
14	521	588
15	638	302
16	108	34
17	997	370
18	406	772
19	235	42
20	13	473
21	658	736
22	275	537
23	522	805
24	199	868
25	387	715
26	87	322
27	224	258
28	113	615
29	988	877
30	188	450
31	367	282
32	281	633
33	284	150
34	567	975
35	483	983
36	180	920
37	488	857
38	568	627
39	80	409
40	494	420
41	826	313
42	299	137
43	665	912
44	589	193
45	690	567
46	817	500
47	966	933
48	182	881
49	331	12
50	967	231
51	580	960
DEMAND_SECTION
1	0
2	3
3	4
4	7
5	4
6	7
7	6
8	6
9	3
10	2
11	6
12	8
13	5
14	1
15	4
16	8
17	1
18	6
19	5
20	3
21	6
22	8
23	5
24	3
25	8
26	6
27	1
28	1
29	4
30	6
31	4
32	6
33	7
34	6
35	6
36	6
37	2
38	7
39	5
40	8
41	2
42	2
43	6
44	3
45	7
46	2
47	7
48	4
49	7
50	7
51	1
DEPOT_SECTION
1
-1
EOF
