NAME : n51-0001
COMMENT : "Generated by pyvrp_manuel (VRPL)"
TYPE : VRPL
DIMENSION : 51
EDGE_WEIGHT_TYPE : EUC_2D
CAPACITY : 40
VEHICLES : 50
DISTANCE : 3000
NODE_COORD_SECTION
1	814	349
2	670	311
3	802	731
4	726	214
5	433	662
6	484	303
7	419	680
8	246	1000
9	688	870
10	577	674
11	406	313
12	413	159
13	37	449
14	821	699
15	989	436
16	576	582
17	777	941
18	123	328
19	449	405
20	814	8
21	158	174
22	713	124
23	558	436
24	608	492
25	521	863
26	595	734
27	147	387
28	247	149
29	205	373
30	661	362
31	113	158
32	608	527
33	44	601
34	651	949
35	381	848
36	277	931
37	91	379
38	75	266
39	671	726
40	821	921
41	341	187
42	597	108
43	266	384
44	26	374
45	567	347
46	252	520
47	245	269
48	193	310
49	535	243
50	181	134
51	28	583
DEMAND_SECTION
1	0
2	9
3	9
4	7
5	4
6	8
7	2
8	5
9	5
10	3
11	4
12	8
13	6
14	7
15	4
16	2
17	1
18	7
19	1
20	4
21	3
22	4
23	3
24	4
25	9
26	9
27	2
28	1
29	8
30	7
31	6
32	3
33	8
34	1
35	9
36	8
37	9
38	6
39	9
40	1
41	8
42	9
43	6
44	9
45	5
46	2
47	4
48	1
49	9
50	8
51	6
DEPOT_SECTION
1
-1
EOF
