NAME : n51-0022
COMMENT : "Generated by pyvrp_manuel (VRPL)"
TYPE : VRPL
DIMENSION : 51
EDGE_WEIGHT_TYPE : EUC_2D
CAPACITY : 40
VEHICLES : 50
DISTANCE : 3000
NODE_COORD_SECTION
1	26	50
2	9	18
3	677	731
4	934	887
5	810	350
6	466	187
7	517	606
8	728	603
9	591	500
10	108	282
11	384	634
12	519	219
13	267	376
14	926	834
15	70	229
16	686	328
17	344	93
18	449	672
19	944	364
20	302	592
21	540	561
22	36	890
23	494	457
24	338	39
25	335	41
26	706	238
27	46	247
28	696	222
29	114	303
30	970	776
31	620	371
32	296	603
33	860	114
34	889	19
35	48	23
36	662	521
37	625	133
38	198	711
39	857	81
40	528	467
41	378	673
42	119	746
43	305	837
44	376	850
45	166	46
46	992	330
47	504	866
48	947	605
49	33	190
50	811	659
51	772	312
DEMAND_SECTION
1	0
2	4
3	4
4	3
5	8
6	6
7	9
8	2
9	3
10	5
11	1
12	2
13	4
14	3
15	6
16	2
17	2
18	9
19	5
20	8
21	8
22	6
23	9
24	7
25	2
26	3
27	2
28	7
29	5
30	7
31	4
32	6
33	1
34	3
35	3
36	2
37	4
38	2
39	2
40	3
41	7
42	8
43	4
44	2
45	1
46	7
47	1
48	2
49	9
50	6
51	9
DEPOT_SECTION
1
-1
EOF
