NAME : n51-0042
COMMENT : "Generated by pyvrp_manuel (VRPLTW)"
TYPE : VRPLTW
DIMENSION : 51
EDGE_WEIGHT_TYPE : EUC_2D
CAPACITY : 40
VEHICLES : 50
DISTANCE : 3000
SERVICE_TIME : 200
NODE_COORD_SECTION
1	880	1
2	982	500
3	233	512
4	285	638
5	681	358
6	529	798
7	175	389
8	426	169
9	541	518
10	96	603
11	977	766
12	229	958
13	156	246
14	721	898
15	977	930
16	225	614
17	186	511
18	914	746
19	38	285
20	78	736
21	437	134
22	340	664
23	546	969
24	493	657
25	349	560
26	518	929
27	710	215
28	56	24
29	318	565
30	970	451
31	695	754
32	117	86
33	689	733
34	267	578
35	10	506
36	623	505
37	421	708
38	363	872
39	69	214
40	83	48
41	871	376
42	107	604
43	121	526
44	738	394
45	757	603
46	99	598
47	822	384
48	547	564
49	543	630
50	21	879
51	718	562
DEMAND_SECTION
1	0
2	7
3	2
4	1
5	2
6	4
7	4
8	2
9	4
10	5
11	4
12	6
13	7
14	9
15	6
16	6
17	9
18	5
19	6
20	1
21	4
22	2
23	7
24	9
25	7
26	4
27	5
28	6
29	9
30	3
31	4
32	3
33	2
34	2
35	9
36	7
37	4
38	3
39	3
40	5
41	8
42	3
43	5
44	5
45	2
46	6
47	4
48	8
49	5
50	3
51	1
TIME_WINDOW_SECTION
1	0	3000
2	407	674
3	458	2338
4	1353	1560
5	1274	2302
6	908	2561
7	354	1762
8	809	2371
9	1383	1943
10	1147	1474
11	1015	1570
12	1218	1660
13	752	985
14	154	2047
15	926	1647
16	1125	2151
17	1344	1902
18	408	1254
19	757	1832
20	1433	1934
21	794	2258
22	385	2170
23	426	2171
24	631	1085
25	839	1920
26	533	2364
27	209	998
28	920	2050
29	388	2022
30	1949	2261
31	1332	1909
32	1708	2046
33	713	1959
34	1009	2666
35	169	2030
36	1273	2267
37	916	2647
38	1095	1658
39	707	2623
40	890	2630
41	165	1134
42	825	1705
43	712	1931
44	273	1561
45	885	2441
46	677	2037
47	0	914
48	769	2677
49	495	1751
50	635	1877
51	974	2054
DEPOT_SECTION
1
-1
EOF
