NAME : n51-0004
COMMENT : "Generated by pyvrp_manuel (VRPLTW)"
TYPE : VRPLTW
DIMENSION : 51
EDGE_WEIGHT_TYPE : EUC_2D
CAPACITY : 40
VEHICLES : 50
DISTANCE : 3000
SERVICE_TIME : 200
NODE_COORD_SECTION
1	490	896
2	820	537
3	264	960
4	704	120
5	979	880
6	318	781
7	216	422
8	925	521
9	146	333
10	364	404
11	548	962
12	527	191
13	526	740
14	748	43
15	411	128
16	287	680
17	145	686
18	924	533
19	167	321
20	609	119
21	748	46
22	19	14
23	399	836
24	27	916
25	300	646
26	523	49
27	915	769
28	997	753
29	170	917
30	527	737
31	99	356
32	9	305
33	608	107
34	659	768
35	570	165
36	112	346
37	719	993
38	788	444
39	675	9
40	73	733
41	217	741
42	147	252
43	88	761
44	449	885
45	809	777
46	516	345
47	391	566
48	748	150
49	920	446
50	81	229
51	942	957
DEMAND_SECTION
1	0
2	1
3	5
4	7
5	6
6	8
7	9
8	9
9	3
10	9
11	7
12	7
13	2
14	7
15	9
16	9
17	4
18	3
19	4
20	7
21	4
22	7
23	6
24	8
25	1
26	9
27	5
28	7
29	6
30	9
31	3
32	4
33	8
34	6
35	4
36	5
37	6
38	4
39	4
40	8
41	8
42	4
43	3
44	4
45	8
46	8
47	6
48	2
49	3
50	3
51	9
TIME_WINDOW_SECTION
1	0	3000
2	1953	2357
3	1040	2385
4	1115	2216
5	738	1960
6	832	1245
7	1578	2460
8	1303	1984
9	823	2119
10	1814	2017
11	722	1472
12	815	1471
13	1646	2921
14	78	1923
15	729	1179
16	781	2682
17	257	2247
18	791	1806
19	865	2139
20	937	2686
21	775	1182
22	699	1708
23	1720	3000
24	1865	2386
25	0	758
26	411	2213
27	995	2244
28	0	1746
29	289	1891
30	487	1425
31	393	1244
32	726	2174
33	118	1535
34	1300	3000
35	976	2633
36	697	1855
37	1006	2074
38	613	1207
39	1283	1785
40	1093	1408
41	1163	2088
42	14	1780
43	787	2141
44	433	2325
45	40	1209
46	261	890
47	0	889
48	1652	2341
49	1669	2009
50	1218	1850
51	951	2238
DEPOT_SECTION
1
-1
EOF
