NAME : n1001-0048
COMMENT : "Generated by pyvrp_manuel (VRPB)"
TYPE : VRPB
DIMENSION : 1001
EDGE_WEIGHT_TYPE : EUC_2D
CAPACITY : 150
VEHICLES : 1000
NODE_COORD_SECTION
1	726	258
2	21	716
3	684	821
4	855	874
5	531	897
6	68	301
7	31	820
8	347	43
9	443	850
10	408	470
11	279	389
12	280	809
13	399	851
14	596	842
15	341	794
16	557	23
17	194	974
18	30	71
19	632	124
20	168	97
21	944	393
22	738	8
23	189	227
24	686	839
25	893	963
26	2	684
27	267	324
28	721	39
29	943	365
30	170	690
31	781	527
32	929	278
33	211	52
34	848	711
35	485	17
36	362	896
37	562	362
38	299	363
39	383	916
40	279	960
41	950	46
42	795	903
43	172	311
44	873	855
45	181	412
46	145	697
47	313	174
48	461	417
49	282	828
50	819	437
51	854	677
52	871	350
53	695	674
54	106	132
55	306	652
56	222	29
57	276	758
58	304	36
59	264	684
60	887	205
61	521	319
62	999	390
63	673	372
64	693	720
65	483	80
66	468	481
67	411	722
68	19	783
69	244	601
70	834	376
71	430	943
72	369	24
73	258	303
74	732	943
75	307	414
76	300	75
77	754	902
78	242	306
79	152	231
80	273	483
81	543	446
82	803	678
83	333	351
84	469	592
85	761	10
86	534	597
87	76	187
88	698	942
89	90	295
90	498	393
91	209	781
92	398	594
93	387	191
94	746	473
95	624	432
96	922	777
97	823	982
98	618	88
99	295	8
100	419	324
101	947	126
102	761	279
103	831	386
104	530	564
105	602	533
106	421	763
107	362	208
108	576	637
109	70	502
110	268	225
111	286	226
112	735	851
113	105	185
114	82	789
115	130	507
116	675	798
117	197	81
118	169	701
119	652	84
120	254	238
121	659	182
122	473	416
123	877	810
124	780	67
125	225	76
126	946	585
127	882	940
128	578	689
129	486	589
130	854	123
131	200	16
132	504	359
133	869	84
134	298	822
135	157	375
136	283	227
137	686	659
138	836	259
139	84	619
140	887	169
141	970	340
142	194	380
143	385	784
144	329	347
145	961	379
146	45	160
147	463	629
148	866	769
149	721	38
150	779	778
151	86	633
152	662	429
153	665	582
154	115	306
155	179	101
156	160	869
157	548	57
158	317	756
159	497	923
160	768	65
161	86	563
162	766	967
163	468	634
164	763	112
165	312	493
166	265	253
167	546	984
168	343	599
169	855	997
170	450	699
171	845	802
172	686	815
173	552	433
174	506	326
175	554	235
176	870	562
177	528	888
178	689	675
179	280	988
180	925	867
181	396	994
182	968	891
183	826	598
184	953	511
185	77	325
186	445	776
187	261	431
188	342	529
189	956	930
190	706	134
191	694	955
192	95	227
193	6	897
194	532	997
195	496	945
196	6	841
197	414	365
198	43	531
199	208	765
200	90	713
201	977	709
202	746	609
203	871	397
204	206	752
205	302	626
206	427	824
207	123	259
208	215	120
209	166	812
210	618	576
211	902	693
212	853	289
213	32	887
214	457	597
215	983	571
216	915	973
217	896	693
218	220	669
219	37	107
220	207	846
221	777	385
222	470	861
223	69	516
224	137	355
225	241	238
226	415	810
227	116	86
228	456	766
229	446	966
230	117	905
231	922	400
232	224	318
233	388	886
234	447	196
235	106	464
236	555	47
237	331	906
238	812	564
239	884	335
240	328	182
241	64	404
242	548	430
243	809	69
244	814	692
245	244	601
246	898	607
247	92	672
248	519	634
249	504	425
250	58	80
251	242	404
252	258	559
253	13	33
254	170	694
255	134	18
256	130	578
257	86	104
258	150	794
259	944	24
260	696	747
261	491	722
262	545	107
263	110	647
264	872	81
265	768	250
266	619	365
267	533	921
268	691	407
269	705	422
270	651	362
271	658	331
272	361	72
273	211	173
274	636	967
275	621	75
276	462	239
277	432	234
278	480	65
279	309	180
280	47	581
281	634	4
282	541	862
283	89	139
284	619	229
285	910	692
286	498	22
287	200	359
288	702	208
289	954	771
290	990	51
291	229	481
292	399	12
293	476	855
294	502	791
295	36	826
296	32	343
297	603	220
298	96	218
299	573	135
300	886	442
301	551	204
302	893	987
303	31	433
304	80	727
305	871	324
306	738	141
307	488	872
308	516	278
309	747	170
310	554	176
311	371	53
312	632	232
313	251	738
314	786	166
315	467	841
316	277	784
317	858	390
318	157	737
319	513	107
320	333	135
321	67	916
322	439	677
323	817	539
324	589	993
325	600	31
326	363	378
327	68	794
328	115	538
329	996	605
330	556	788
331	145	39
332	140	821
333	798	651
334	783	726
335	762	975
336	468	926
337	738	895
338	352	230
339	414	861
340	365	221
341	457	381
342	427	401
343	842	144
344	375	260
345	711	744
346	756	771
347	334	276
348	818	980
349	614	326
350	51	715
351	473	710
352	797	905
353	363	427
354	511	300
355	477	268
356	593	619
357	686	667
358	333	560
359	815	271
360	114	734
361	388	916
362	199	915
363	858	78
364	269	749
365	409	598
366	345	572
367	948	910
368	177	9
369	318	931
370	360	426
371	74	927
372	128	791
373	322	824
374	191	718
375	74	57
376	928	905
377	289	578
378	724	613
379	973	460
380	511	675
381	815	315
382	653	85
383	710	146
384	580	454
385	584	209
386	37	871
387	346	470
388	348	574
389	972	694
390	613	554
391	929	964
392	894	341
393	534	480
394	132	16
395	836	872
396	286	692
397	312	50
398	243	257
399	171	83
400	422	17
401	534	448
402	868	560
403	44	515
404	381	352
405	444	41
406	956	353
407	474	140
408	152	551
409	285	285
410	367	4
411	384	80
412	259	443
413	646	579
414	409	578
415	628	168
416	984	331
417	779	581
418	434	360
419	586	304
420	65	211
421	170	488
422	346	167
423	25	64
424	925	690
425	221	258
426	542	831
427	694	302
428	626	209
429	397	410
430	687	437
431	726	655
432	268	776
433	554	297
434	43	121
435	720	482
436	137	762
437	716	923
438	357	668
439	812	971
440	110	610
441	296	493
442	200	221
443	732	475
444	677	36
445	192	540
446	751	415
447	944	418
448	708	852
449	452	429
450	654	145
451	268	833
452	78	278
453	407	772
454	481	129
455	524	262
456	195	870
457	353	355
458	907	708
459	699	242
460	248	578
461	921	620
462	711	526
463	543	568
464	184	969
465	69	685
466	879	665
467	808	662
468	901	930
469	323	985
470	476	434
471	655	486
472	885	453
473	88	442
474	448	277
475	948	973
476	507	560
477	584	486
478	309	392
479	838	928
480	780	779
481	412	583
482	44	14
483	920	210
484	962	510
485	255	381
486	251	58
487	293	610
488	471	698
489	865	518
490	130	461
491	717	179
492	815	640
493	888	339
494	680	256
495	458	507
496	388	382
497	506	193
498	693	800
499	267	828
500	142	853
501	517	692
502	335	630
503	668	485
504	836	566
505	99	337
506	198	240
507	360	701
508	745	356
509	711	610
510	532	512
511	346	667
512	680	145
513	361	309
514	372	171
515	269	205
516	369	150
517	114	726
518	710	925
519	985	452
520	318	357
521	407	610
522	183	334
523	54	366
524	480	529
525	791	333
526	232	628
527	482	345
528	831	751
529	201	299
530	198	946
531	327	482
532	356	218
533	496	258
534	12	625
535	370	199
536	889	282
537	530	316
538	277	548
539	319	23
540	992	432
541	609	699
542	735	698
543	186	828
544	951	591
545	383	825
546	527	152
547	506	368
548	479	190
549	549	214
550	227	724
551	900	113
552	979	79
553	734	683
554	254	305
555	326	162
556	110	344
557	152	607
558	731	37
559	589	451
560	589	964
561	176	863
562	362	664
563	787	142
564	387	530
565	771	521
566	332	91
567	390	527
568	891	395
569	579	838
570	288	599
571	552	245
572	262	362
573	85	934
574	952	18
575	694	197
576	480	827
577	535	935
578	256	660
579	567	962
580	170	719
581	864	139
582	179	230
583	32	656
584	988	743
585	426	979
586	666	997
587	910	624
588	873	797
589	671	482
590	157	140
591	254	131
592	302	149
593	636	805
594	660	821
595	502	496
596	787	751
597	963	197
598	978	411
599	698	25
600	950	558
601	746	580
602	930	944
603	530	930
604	397	650
605	800	638
606	74	732
607	302	378
608	663	921
609	583	972
610	409	407
611	227	654
612	591	216
613	948	508
614	13	155
615	332	596
616	273	117
617	389	301
618	715	137
619	845	261
620	771	820
621	544	255
622	64	458
623	231	12
624	385	296
625	76	390
626	324	683
627	246	638
628	564	794
629	949	954
630	435	44
631	235	704
632	693	183
633	593	661
634	190	366
635	154	87
636	813	348
637	105	410
638	111	444
639	872	473
640	491	581
641	121	642
642	35	299
643	304	401
644	467	850
645	222	967
646	770	752
647	319	646
648	125	447
649	64	329
650	389	86
651	677	140
652	730	302
653	455	955
654	314	560
655	156	389
656	571	812
657	109	653
658	905	86
659	204	640
660	262	116
661	147	858
662	599	232
663	684	30
664	77	97
665	585	878
666	46	14
667	627	33
668	952	948
669	66	580
670	183	149
671	952	14
672	718	528
673	302	328
674	869	572
675	353	874
676	423	841
677	665	435
678	169	670
679	953	353
680	119	880
681	675	668
682	941	336
683	248	170
684	143	844
685	582	378
686	351	849
687	545	932
688	198	289
689	340	470
690	259	126
691	878	522
692	192	200
693	849	554
694	939	686
695	402	10
696	424	926
697	503	921
698	928	260
699	856	850
700	525	50
701	306	954
702	688	580
703	551	919
704	911	152
705	902	635
706	908	505
707	728	597
708	910	535
709	830	822
710	838	508
711	186	975
712	532	988
713	766	745
714	958	326
715	270	250
716	153	930
717	654	718
718	99	148
719	715	649
720	386	658
721	63	506
722	258	909
723	783	849
724	243	255
725	732	880
726	700	630
727	809	682
728	44	844
729	825	188
730	85	570
731	910	820
732	185	257
733	222	121
734	767	234
735	789	885
736	690	502
737	187	793
738	536	163
739	997	266
740	875	380
741	357	828
742	966	646
743	895	374
744	628	611
745	156	643
746	857	28
747	152	779
748	732	964
749	616	559
750	682	583
751	722	390
752	847	642
753	565	5
754	837	348
755	435	589
756	257	368
757	964	558
758	549	236
759	327	508
760	531	522
761	467	345
762	968	147
763	457	237
764	760	36
765	202	946
766	51	358
767	258	683
768	445	252
769	323	516
770	537	632
771	494	674
772	91	142
773	546	773
774	949	795
775	328	671
776	491	952
777	670	151
778	690	657
779	902	608
780	812	928
781	70	312
782	469	878
783	410	182
784	259	379
785	104	524
786	530	423
787	851	973
788	829	202
789	424	72
790	591	356
791	698	395
792	213	139
793	206	568
794	257	653
795	880	757
796	96	995
797	542	470
798	268	865
799	44	320
800	364	61
801	300	210
802	173	4
803	273	48
804	701	216
805	17	871
806	832	204
807	259	34
808	590	297
809	422	342
810	972	776
811	316	691
812	446	871
813	900	520
814	85	253
815	966	95
816	173	782
817	182	6
818	296	695
819	724	697
820	987	292
821	290	694
822	393	315
823	8	455
824	886	956
825	12	681
826	428	490
827	587	618
828	181	155
829	419	726
830	510	25
831	375	32
832	136	89
833	330	817
834	73	409
835	432	113
836	712	279
837	523	914
838	11	891
839	48	521
840	454	906
841	514	16
842	431	73
843	563	254
844	444	947
845	486	782
846	933	283
847	686	78
848	404	318
849	42	604
850	814	945
851	857	685
852	340	875
853	296	167
854	110	717
855	313	871
856	563	932
857	408	299
858	216	633
859	2	668
860	542	985
861	138	499
862	362	816
863	487	677
864	405	547
865	539	81
866	770	793
867	889	990
868	437	642
869	119	164
870	392	7
871	736	103
872	80	947
873	157	281
874	831	603
875	857	315
876	65	982
877	788	982
878	661	939
879	629	797
880	692	660
881	182	182
882	798	496
883	905	221
884	734	129
885	882	13
886	659	222
887	351	846
888	375	863
889	34	607
890	664	554
891	339	2
892	486	461
893	253	315
894	627	436
895	195	772
896	344	477
897	529	324
898	635	890
899	448	345
900	845	223
901	578	615
902	987	5
903	149	635
904	200	101
905	856	511
906	817	540
907	402	845
908	949	641
909	803	397
910	629	390
911	411	760
912	928	444
913	201	357
914	507	44
915	952	961
916	681	242
917	826	844
918	160	734
919	86	743
920	231	355
921	125	910
922	229	60
923	688	88
924	14	222
925	41	987
926	174	933
927	526	456
928	462	886
929	682	724
930	97	125
931	379	251
932	25	620
933	398	539
934	263	964
935	125	999
936	615	437
937	879	850
938	389	890
939	580	687
940	726	129
941	119	42
942	380	250
943	836	403
944	335	608
945	262	304
946	324	944
947	841	223
948	611	924
949	789	356
950	108	66
951	950	47
952	225	299
953	718	481
954	565	546
955	551	948
956	35	474
957	364	374
958	596	527
959	267	8
960	824	560
961	258	848
962	423	177
963	202	454
964	859	985
965	290	666
966	500	313
967	863	790
968	303	382
969	863	567
970	649	705
971	501	440
972	16	558
973	492	911
974	728	488
975	508	320
976	48	418
977	407	71
978	866	72
979	440	706
980	318	812
981	682	229
982	61	807
983	674	318
984	368	706
985	605	115
986	800	727
987	729	919
988	881	37
989	443	422
990	770	915
991	877	828
992	490	555
993	353	6
994	559	621
995	301	271
996	354	267
997	712	950
998	8	30
999	581	138
1000	522	303
1001	448	594
DEMAND_SECTION
1	0
2	6
3	5
4	5
5	7
6	8
7	1
8	2
9	4
10	1
11	8
12	2
13	5
14	9
15	3
16	9
17	1
18	2
19	7
20	5
21	2
22	3
23	2
24	5
25	9
26	1
27	6
28	3
29	2
30	6
31	3
32	6
33	8
34	1
35	2
36	9
37	3
38	2
39	3
40	8
41	9
42	5
43	2
44	1
45	1
46	9
47	6
48	9
49	6
50	7
51	7
52	6
53	2
54	3
55	1
56	8
57	1
58	4
59	5
60	2
61	4
62	5
63	2
64	6
65	8
66	7
67	8
68	1
69	1
70	6
71	1
72	1
73	6
74	9
75	1
76	4
77	9
78	1
79	2
80	6
81	6
82	6
83	3
84	3
85	4
86	4
87	4
88	4
89	7
90	6
91	9
92	3
93	1
94	8
95	6
96	8
97	7
98	5
99	6
100	2
101	5
102	4
103	7
104	9
105	6
106	2
107	7
108	4
109	6
110	1
111	6
112	4
113	9
114	2
115	1
116	9
117	1
118	7
119	6
120	8
121	8
122	7
123	1
124	7
125	2
126	6
127	8
128	7
129	8
130	6
131	6
132	8
133	7
134	1
135	3
136	7
137	6
138	2
139	6
140	3
141	5
142	7
143	9
144	8
145	1
146	1
147	7
148	8
149	4
150	9
151	9
152	6
153	3
154	8
155	2
156	8
157	1
158	2
159	8
160	3
161	7
162	9
163	8
164	5
165	8
166	4
167	7
168	1
169	1
170	2
171	8
172	3
173	4
174	8
175	7
176	4
177	3
178	8
179	7
180	3
181	1
182	8
183	9
184	8
185	9
186	3
187	1
188	6
189	2
190	6
191	6
192	2
193	6
194	9
195	3
196	5
197	9
198	8
199	7
200	8
201	1
202	5
203	5
204	6
205	6
206	3
207	1
208	9
209	8
210	1
211	6
212	3
213	6
214	8
215	9
216	1
217	9
218	5
219	3
220	3
221	6
222	2
223	2
224	4
225	5
226	5
227	7
228	1
229	7
230	7
231	9
232	9
233	2
234	9
235	1
236	2
237	9
238	3
239	3
240	5
241	5
242	9
243	6
244	4
245	4
246	8
247	4
248	6
249	3
250	5
251	2
252	7
253	3
254	4
255	3
256	4
257	2
258	9
259	8
260	4
261	9
262	4
263	5
264	6
265	8
266	8
267	1
268	2
269	8
270	7
271	8
272	2
273	4
274	8
275	7
276	5
277	4
278	4
279	1
280	1
281	5
282	4
283	9
284	9
285	3
286	4
287	8
288	2
289	1
290	5
291	3
292	8
293	9
294	3
295	7
296	8
297	2
298	4
299	3
300	2
301	8
302	1
303	8
304	4
305	1
306	7
307	3
308	3
309	8
310	6
311	7
312	2
313	8
314	5
315	2
316	7
317	3
318	3
319	1
320	2
321	6
322	6
323	7
324	4
325	2
326	1
327	6
328	9
329	8
330	2
331	2
332	3
333	3
334	6
335	7
336	1
337	6
338	6
339	2
340	4
341	7
342	9
343	8
344	7
345	7
346	9
347	6
348	1
349	5
350	2
351	1
352	4
353	4
354	6
355	4
356	5
357	7
358	2
359	1
360	3
361	2
362	9
363	6
364	9
365	9
366	1
367	7
368	5
369	9
370	2
371	2
372	5
373	2
374	9
375	7
376	2
377	8
378	7
379	4
380	5
381	9
382	8
383	5
384	2
385	2
386	4
387	8
388	4
389	3
390	5
391	5
392	9
393	1
394	5
395	6
396	9
397	9
398	3
399	8
400	5
401	3
402	4
403	6
404	8
405	9
406	6
407	8
408	3
409	3
410	4
411	1
412	3
413	9
414	8
415	6
416	6
417	2
418	1
419	4
420	6
421	2
422	6
423	5
424	5
425	7
426	7
427	4
428	1
429	2
430	5
431	2
432	5
433	8
434	7
435	1
436	8
437	7
438	3
439	7
440	3
441	9
442	1
443	5
444	2
445	4
446	2
447	7
448	5
449	6
450	2
451	7
452	7
453	6
454	1
455	3
456	4
457	9
458	5
459	4
460	2
461	7
462	1
463	5
464	4
465	9
466	7
467	3
468	8
469	3
470	9
471	4
472	8
473	7
474	1
475	9
476	7
477	2
478	3
479	9
480	2
481	1
482	5
483	1
484	6
485	4
486	6
487	2
488	1
489	3
490	5
491	2
492	4
493	1
494	9
495	2
496	5
497	8
498	9
499	7
500	1
501	1
502	7
503	7
504	3
505	5
506	8
507	3
508	9
509	6
510	4
511	8
512	7
513	6
514	8
515	8
516	9
517	6
518	7
519	5
520	6
521	1
522	5
523	5
524	9
525	5
526	5
527	4
528	7
529	4
530	8
531	8
532	8
533	2
534	7
535	4
536	3
537	6
538	8
539	1
540	9
541	3
542	7
543	1
544	7
545	2
546	2
547	4
548	5
549	4
550	9
551	1
552	7
553	5
554	2
555	4
556	5
557	5
558	5
559	6
560	7
561	9
562	8
563	9
564	1
565	2
566	5
567	8
568	1
569	2
570	1
571	5
572	7
573	9
574	2
575	8
576	3
577	1
578	6
579	3
580	5
581	8
582	1
583	1
584	5
585	1
586	9
587	8
588	2
589	1
590	7
591	1
592	1
593	5
594	5
595	3
596	9
597	1
598	7
599	5
600	2
601	3
602	1
603	2
604	4
605	6
606	5
607	1
608	9
609	9
610	8
611	2
612	3
613	5
614	3
615	7
616	7
617	3
618	3
619	1
620	5
621	7
622	8
623	2
624	3
625	7
626	3
627	3
628	5
629	9
630	6
631	3
632	5
633	2
634	9
635	5
636	7
637	9
638	2
639	3
640	7
641	2
642	7
643	1
644	1
645	3
646	7
647	2
648	4
649	3
650	1
651	1
652	1
653	6
654	1
655	7
656	2
657	6
658	2
659	6
660	1
661	5
662	8
663	2
664	1
665	4
666	4
667	2
668	3
669	2
670	7
671	1
672	9
673	1
674	4
675	6
676	4
677	1
678	1
679	5
680	7
681	9
682	5
683	8
684	9
685	8
686	9
687	1
688	1
689	2
690	8
691	9
692	4
693	4
694	5
695	5
696	6
697	8
698	2
699	6
700	4
701	4
702	3
703	4
704	7
705	8
706	7
707	9
708	6
709	3
710	7
711	1
712	4
713	8
714	2
715	7
716	9
717	4
718	8
719	3
720	2
721	4
722	5
723	4
724	4
725	3
726	5
727	8
728	8
729	4
730	3
731	6
732	2
733	5
734	3
735	5
736	7
737	3
738	2
739	9
740	2
741	8
742	7
743	2
744	9
745	4
746	9
747	4
748	2
749	6
750	9
751	9
752	3
753	3
754	1
755	3
756	5
757	5
758	3
759	5
760	7
761	6
762	8
763	2
764	8
765	5
766	2
767	9
768	1
769	2
770	6
771	5
772	9
773	4
774	2
775	4
776	6
777	4
778	3
779	9
780	3
781	9
782	5
783	9
784	1
785	3
786	1
787	5
788	3
789	1
790	6
791	4
792	1
793	3
794	5
795	4
796	3
797	2
798	9
799	5
800	6
801	9
802	5
803	5
804	1
805	4
806	2
807	1
808	9
809	8
810	6
811	6
812	6
813	9
814	9
815	3
816	1
817	4
818	6
819	5
820	4
821	7
822	1
823	5
824	3
825	2
826	1
827	7
828	9
829	3
830	4
831	6
832	5
833	7
834	9
835	2
836	8
837	4
838	6
839	4
840	3
841	9
842	3
843	2
844	2
845	8
846	3
847	8
848	1
849	9
850	8
851	4
852	6
853	6
854	1
855	4
856	7
857	1
858	3
859	3
860	9
861	2
862	4
863	1
864	5
865	5
866	3
867	5
868	6
869	3
870	5
871	8
872	7
873	7
874	9
875	4
876	8
877	3
878	1
879	9
880	8
881	2
882	6
883	7
884	9
885	9
886	5
887	8
888	4
889	8
890	7
891	5
892	1
893	7
894	5
895	5
896	2
897	9
898	9
899	4
900	3
901	7
902	6
903	8
904	8
905	4
906	1
907	9
908	4
909	5
910	4
911	4
912	9
913	8
914	2
915	8
916	3
917	2
918	1
919	5
920	8
921	4
922	2
923	3
924	8
925	2
926	4
927	7
928	2
929	3
930	5
931	7
932	2
933	2
934	1
935	7
936	1
937	4
938	9
939	2
940	6
941	9
942	9
943	6
944	1
945	3
946	1
947	1
948	8
949	5
950	7
951	5
952	9
953	9
954	1
955	6
956	8
957	2
958	5
959	6
960	5
961	8
962	7
963	1
964	8
965	4
966	5
967	8
968	2
969	3
970	3
971	8
972	8
973	2
974	2
975	2
976	4
977	7
978	2
979	9
980	7
981	5
982	1
983	7
984	4
985	5
986	4
987	1
988	4
989	3
990	1
991	7
992	3
993	8
994	8
995	3
996	7
997	1
998	9
999	7
1000	1
1001	3
BACKHAUL_SECTION
5	13	18	31	32	34	39	41	45	49	52	69	74	77	80	83	94	95	98	101	107	114	115	121	124	128	133	141	143	146	158	162	163	171	184	187	190	194	199	216	217	223	225	226	236	239	245	249	254	255	261	262	265	271	275	277	279	282	283	284	313	326	327	330	332	344	348	349	351	352	353	357	364	369	375	376	377	380	382	386	391	392	402	405	408	416	418	422	426	427	431	436	441	447	451	453	454	462	476	488	489	501	503	510	512	525	527	529	535	539	548	556	570	580	588	593	594	601	603	605	609	617	618	620	629	630	633	635	638	643	645	652	655	658	664	665	667	675	676	684	690	707	718	719	721	723	738	739	740	744	754	759	760	764	776	777	778	779	780	783	800	802	804	807	809	819	821	822	828	843	847	848	860	864	866	873	874	875	876	880	884	888	890	893	900	910	920	924	929	931	937	946	948	950	961	970	980	984	989	991	-1
DEPOT_SECTION
1
-1
EOF
