NAME : n1001-0002
COMMENT : "Generated by pyvrp_manuel (VRPB)"
TYPE : VRPB
DIMENSION : 1001
EDGE_WEIGHT_TYPE : EUC_2D
CAPACITY : 150
VEHICLES : 1000
NODE_COORD_SECTION
1	87	316
2	691	883
3	754	426
4	650	860
5	686	546
6	137	38
7	214	515
8	372	229
9	165	470
10	592	514
11	860	970
12	167	601
13	97	91
14	549	978
15	231	461
16	769	384
17	965	968
18	647	149
19	113	274
20	372	976
21	184	162
22	511	608
23	812	16
24	953	591
25	547	640
26	818	377
27	671	253
28	991	514
29	162	473
30	759	991
31	690	851
32	872	900
33	659	676
34	251	686
35	483	767
36	604	457
37	394	394
38	573	972
39	694	571
40	842	4
41	81	954
42	101	456
43	755	481
44	842	369
45	54	698
46	441	36
47	193	513
48	321	488
49	61	885
50	537	308
51	758	455
52	440	850
53	556	327
54	50	185
55	329	677
56	41	807
57	662	409
58	323	653
59	217	317
60	390	282
61	659	982
62	381	862
63	935	591
64	692	391
65	267	844
66	380	380
67	883	557
68	894	541
69	386	56
70	552	89
71	618	56
72	946	513
73	132	907
74	127	538
75	760	446
76	342	152
77	670	224
78	28	134
79	70	591
80	592	265
81	387	826
82	863	790
83	934	194
84	400	338
85	801	809
86	289	486
87	706	64
88	521	9
89	456	216
90	341	211
91	311	834
92	195	111
93	544	96
94	666	871
95	430	541
96	279	123
97	836	765
98	834	564
99	814	878
100	480	387
101	198	469
102	868	900
103	484	778
104	94	826
105	78	702
106	123	710
107	395	870
108	951	437
109	679	545
110	557	31
111	980	27
112	540	614
113	540	448
114	180	413
115	639	925
116	224	476
117	917	387
118	776	638
119	926	442
120	379	469
121	693	246
122	286	883
123	549	201
124	847	721
125	755	107
126	82	21
127	373	731
128	851	930
129	846	168
130	757	719
131	185	884
132	378	696
133	933	194
134	395	467
135	148	894
136	208	329
137	380	765
138	214	947
139	453	142
140	192	473
141	101	898
142	813	4
143	799	483
144	613	820
145	479	329
146	147	40
147	709	913
148	916	177
149	260	727
150	999	869
151	601	989
152	357	29
153	464	857
154	320	524
155	404	474
156	250	912
157	458	889
158	915	107
159	956	294
160	460	605
161	275	574
162	428	941
163	281	960
164	558	468
165	666	67
166	974	301
167	10	516
168	73	423
169	993	903
170	593	220
171	653	141
172	103	40
173	583	432
174	615	24
175	433	958
176	598	553
177	485	156
178	541	71
179	201	946
180	475	679
181	733	126
182	680	485
183	904	907
184	102	665
185	761	776
186	739	340
187	770	574
188	14	194
189	942	22
190	68	759
191	763	798
192	273	502
193	524	723
194	958	970
195	246	143
196	150	119
197	976	839
198	301	862
199	352	901
200	609	329
201	524	632
202	759	725
203	909	873
204	78	841
205	760	927
206	484	387
207	231	959
208	173	857
209	101	446
210	624	509
211	596	946
212	71	106
213	194	110
214	686	907
215	690	263
216	698	515
217	109	963
218	351	353
219	534	732
220	715	255
221	609	185
222	430	670
223	81	963
224	43	980
225	768	455
226	809	459
227	718	443
228	983	397
229	605	503
230	495	1
231	737	533
232	487	534
233	710	433
234	44	805
235	878	203
236	643	66
237	42	11
238	944	870
239	512	124
240	972	679
241	693	316
242	941	840
243	749	927
244	884	713
245	328	618
246	714	41
247	856	762
248	833	225
249	431	460
250	874	632
251	884	85
252	465	23
253	972	44
254	454	437
255	725	314
256	275	464
257	674	466
258	514	393
259	762	442
260	152	342
261	752	521
262	811	366
263	376	376
264	123	634
265	882	202
266	554	500
267	58	736
268	319	559
269	758	552
270	200	299
271	348	286
272	141	618
273	397	688
274	152	369
275	630	848
276	838	910
277	98	933
278	174	476
279	444	947
280	437	279
281	124	98
282	601	352
283	595	754
284	682	139
285	397	51
286	489	469
287	107	907
288	86	774
289	921	268
290	250	233
291	726	395
292	584	918
293	402	850
294	535	591
295	720	437
296	706	229
297	413	877
298	242	285
299	832	566
300	328	692
301	511	973
302	568	992
303	666	839
304	921	725
305	1	746
306	732	507
307	578	920
308	625	299
309	385	470
310	476	634
311	658	885
312	390	508
313	699	361
314	403	943
315	34	558
316	195	602
317	666	550
318	766	739
319	226	265
320	781	658
321	114	879
322	962	608
323	715	489
324	724	333
325	205	295
326	284	526
327	683	745
328	20	240
329	764	445
330	319	584
331	722	867
332	314	11
333	789	387
334	764	974
335	308	984
336	644	570
337	544	358
338	625	321
339	698	860
340	661	111
341	58	702
342	116	906
343	754	787
344	111	254
345	949	94
346	899	854
347	360	652
348	730	327
349	149	996
350	423	691
351	775	983
352	994	68
353	309	450
354	247	987
355	143	278
356	364	178
357	896	142
358	53	437
359	139	30
360	102	158
361	891	543
362	202	793
363	840	604
364	193	883
365	962	817
366	773	216
367	996	548
368	186	614
369	816	764
370	205	499
371	480	256
372	591	300
373	675	494
374	688	333
375	99	641
376	762	430
377	438	56
378	942	438
379	312	698
380	329	384
381	484	861
382	773	958
383	737	981
384	108	245
385	989	953
386	292	571
387	568	513
388	447	270
389	727	941
390	195	333
391	766	585
392	824	328
393	333	702
394	122	529
395	988	129
396	194	623
397	502	973
398	33	708
399	908	787
400	346	444
401	544	232
402	448	104
403	554	346
404	135	501
405	372	550
406	261	670
407	274	365
408	797	192
409	900	27
410	923	267
411	410	435
412	208	549
413	589	663
414	467	877
415	478	160
416	147	354
417	559	550
418	338	975
419	271	569
420	606	370
421	680	875
422	338	965
423	768	811
424	499	648
425	687	890
426	528	124
427	595	449
428	327	907
429	763	482
430	528	801
431	882	818
432	718	609
433	475	134
434	461	632
435	6	751
436	69	96
437	818	704
438	26	92
439	849	695
440	28	774
441	458	610
442	910	911
443	76	77
444	670	905
445	910	170
446	7	430
447	124	527
448	598	331
449	49	833
450	717	376
451	493	491
452	259	554
453	52	98
454	501	174
455	196	726
456	113	639
457	661	90
458	984	725
459	111	173
460	293	116
461	81	60
462	956	817
463	406	895
464	717	646
465	136	402
466	299	162
467	758	190
468	649	663
469	436	674
470	668	279
471	285	914
472	685	787
473	614	959
474	121	246
475	518	249
476	710	395
477	11	928
478	836	526
479	648	883
480	890	813
481	713	259
482	203	491
483	941	819
484	417	80
485	623	644
486	248	580
487	690	752
488	263	819
489	571	682
490	638	40
491	245	401
492	211	802
493	798	202
494	847	478
495	973	305
496	846	516
497	14	973
498	747	542
499	193	859
500	993	171
501	408	555
502	12	220
503	872	157
504	864	631
505	994	373
506	281	26
507	969	943
508	629	862
509	402	409
510	898	948
511	506	642
512	235	428
513	221	856
514	459	968
515	957	812
516	693	798
517	229	399
518	718	489
519	133	415
520	388	550
521	686	109
522	732	25
523	869	699
524	579	268
525	991	886
526	884	15
527	210	74
528	177	437
529	597	10
530	720	755
531	270	522
532	116	556
533	695	990
534	587	168
535	793	729
536	550	279
537	187	546
538	172	424
539	36	166
540	188	86
541	421	379
542	531	81
543	868	987
544	984	749
545	954	942
546	358	844
547	281	247
548	43	908
549	891	449
550	535	705
551	367	133
552	968	395
553	726	46
554	353	924
555	663	66
556	612	573
557	156	357
558	727	945
559	947	538
560	453	96
561	972	699
562	301	425
563	435	50
564	201	428
565	723	956
566	871	404
567	464	999
568	535	224
569	979	592
570	839	30
571	252	222
572	488	701
573	930	198
574	760	546
575	621	506
576	180	902
577	175	119
578	142	285
579	232	390
580	992	298
581	256	457
582	647	747
583	191	394
584	405	170
585	911	320
586	662	39
587	670	673
588	857	341
589	730	1
590	302	443
591	507	858
592	890	305
593	52	319
594	645	223
595	95	763
596	426	581
597	551	312
598	34	175
599	839	659
600	649	420
601	856	290
602	446	719
603	391	279
604	26	179
605	866	559
606	814	214
607	687	841
608	465	705
609	404	517
610	966	871
611	74	805
612	994	60
613	956	866
614	513	282
615	121	157
616	684	620
617	468	473
618	600	786
619	619	788
620	526	936
621	836	340
622	205	236
623	879	355
624	252	933
625	290	63
626	115	645
627	408	50
628	980	281
629	955	551
630	931	906
631	590	275
632	108	76
633	312	41
634	16	328
635	686	604
636	233	784
637	577	172
638	792	176
639	769	384
640	595	723
641	724	832
642	306	129
643	987	275
644	400	250
645	770	723
646	600	40
647	861	997
648	545	910
649	968	510
650	896	809
651	298	805
652	157	617
653	380	884
654	977	607
655	17	840
656	213	224
657	825	187
658	613	544
659	98	760
660	359	740
661	176	953
662	730	555
663	187	512
664	2	424
665	615	558
666	637	666
667	287	775
668	771	971
669	74	601
670	331	332
671	349	100
672	264	111
673	496	59
674	470	628
675	462	563
676	909	669
677	381	9
678	717	859
679	890	415
680	30	79
681	525	421
682	937	428
683	165	322
684	859	455
685	266	421
686	621	448
687	595	642
688	608	532
689	981	315
690	849	665
691	982	81
692	615	977
693	454	743
694	437	827
695	650	923
696	121	838
697	887	159
698	358	783
699	787	280
700	937	339
701	897	823
702	932	803
703	690	936
704	580	84
705	127	439
706	542	437
707	520	142
708	558	100
709	906	806
710	765	285
711	328	672
712	251	765
713	947	832
714	86	179
715	906	922
716	163	232
717	560	242
718	167	782
719	536	531
720	175	755
721	921	837
722	959	656
723	258	106
724	522	777
725	198	219
726	907	410
727	90	820
728	698	17
729	820	740
730	761	739
731	248	782
732	580	879
733	240	419
734	511	640
735	176	917
736	69	618
737	878	361
738	91	902
739	341	550
740	896	919
741	774	220
742	692	390
743	399	649
744	247	331
745	721	750
746	104	113
747	464	774
748	43	904
749	265	265
750	365	481
751	355	323
752	691	21
753	69	81
754	421	367
755	651	383
756	156	545
757	106	514
758	820	443
759	855	640
760	494	24
761	932	478
762	389	209
763	157	536
764	80	937
765	946	359
766	511	954
767	779	376
768	856	930
769	955	498
770	859	334
771	335	146
772	111	317
773	728	92
774	667	976
775	519	129
776	769	825
777	945	553
778	337	264
779	435	288
780	837	973
781	394	266
782	405	381
783	515	822
784	673	184
785	225	742
786	356	875
787	748	380
788	804	736
789	170	108
790	444	268
791	262	455
792	673	586
793	873	355
794	379	505
795	670	5
796	666	354
797	540	813
798	400	794
799	36	375
800	371	585
801	686	880
802	86	94
803	250	749
804	73	894
805	939	833
806	750	183
807	427	719
808	868	176
809	965	794
810	275	2
811	852	806
812	164	252
813	860	910
814	918	191
815	517	749
816	309	712
817	307	434
818	393	999
819	964	116
820	915	558
821	26	383
822	126	191
823	597	187
824	53	862
825	742	862
826	198	380
827	39	477
828	90	34
829	324	239
830	433	716
831	444	255
832	196	22
833	567	127
834	420	236
835	433	883
836	81	185
837	156	386
838	735	728
839	241	145
840	408	342
841	106	92
842	149	256
843	321	53
844	788	951
845	996	759
846	184	772
847	821	49
848	673	652
849	393	682
850	548	527
851	559	713
852	925	759
853	116	654
854	650	501
855	280	699
856	189	239
857	738	257
858	619	774
859	424	351
860	319	386
861	558	298
862	2	308
863	904	812
864	197	5
865	592	752
866	7	226
867	138	772
868	77	211
869	690	291
870	13	897
871	999	937
872	27	802
873	247	987
874	448	276
875	371	119
876	423	184
877	289	235
878	457	928
879	340	553
880	187	687
881	218	290
882	87	435
883	791	750
884	12	629
885	593	835
886	178	177
887	597	362
888	266	569
889	801	196
890	426	63
891	828	929
892	249	503
893	198	556
894	610	827
895	136	386
896	840	277
897	729	410
898	236	862
899	250	309
900	884	444
901	566	889
902	718	356
903	274	391
904	109	625
905	730	839
906	21	390
907	869	778
908	980	17
909	420	291
910	528	944
911	345	734
912	476	136
913	465	204
914	772	343
915	673	875
916	252	508
917	957	894
918	348	814
919	34	791
920	333	425
921	349	793
922	348	209
923	807	985
924	948	533
925	145	80
926	765	550
927	149	199
928	362	202
929	107	788
930	829	735
931	426	997
932	499	717
933	95	499
934	617	534
935	60	647
936	222	530
937	975	490
938	150	813
939	990	944
940	666	642
941	940	412
942	586	448
943	834	779
944	272	596
945	937	756
946	630	727
947	340	1
948	209	230
949	216	511
950	102	909
951	704	750
952	194	144
953	470	178
954	930	479
955	81	908
956	339	758
957	948	213
958	154	167
959	404	397
960	695	588
961	87	698
962	259	627
963	26	131
964	7	376
965	206	574
966	134	547
967	188	338
968	294	507
969	584	275
970	138	354
971	192	114
972	672	255
973	532	651
974	519	725
975	861	666
976	22	821
977	34	661
978	578	828
979	544	377
980	118	501
981	861	685
982	949	311
983	630	925
984	402	269
985	642	189
986	675	378
987	12	579
988	810	864
989	230	789
990	604	757
991	599	142
992	927	785
993	114	930
994	60	642
995	813	50
996	425	250
997	171	36
998	37	731
999	404	248
1000	342	503
1001	668	313
DEMAND_SECTION
1	0
2	3
3	7
4	1
5	4
6	1
7	8
8	5
9	3
10	7
11	2
12	8
13	6
14	1
15	4
16	3
17	7
18	5
19	8
20	1
21	4
22	7
23	7
24	6
25	9
26	9
27	8
28	5
29	6
30	7
31	1
32	5
33	9
34	8
35	8
36	3
37	3
38	8
39	7
40	1
41	2
42	4
43	7
44	3
45	8
46	6
47	9
48	5
49	5
50	2
51	3
52	6
53	7
54	9
55	9
56	2
57	5
58	4
59	8
60	3
61	8
62	5
63	8
64	2
65	8
66	1
67	1
68	1
69	3
70	8
71	7
72	6
73	5
74	1
75	5
76	5
77	9
78	1
79	4
80	9
81	9
82	3
83	9
84	3
85	6
86	5
87	9
88	7
89	5
90	8
91	6
92	6
93	6
94	1
95	4
96	1
97	8
98	9
99	2
100	9
101	9
102	3
103	3
104	2
105	1
106	4
107	7
108	1
109	3
110	7
111	4
112	4
113	5
114	1
115	4
116	5
117	7
118	7
119	6
120	3
121	6
122	8
123	7
124	9
125	3
126	5
127	1
128	4
129	8
130	6
131	4
132	9
133	5
134	1
135	2
136	4
137	2
138	5
139	9
140	3
141	3
142	4
143	8
144	9
145	4
146	1
147	9
148	8
149	7
150	3
151	1
152	1
153	1
154	3
155	9
156	7
157	8
158	5
159	3
160	2
161	5
162	8
163	9
164	2
165	3
166	6
167	5
168	2
169	8
170	6
171	9
172	2
173	4
174	5
175	3
176	8
177	9
178	9
179	1
180	2
181	6
182	8
183	5
184	1
185	6
186	2
187	6
188	8
189	2
190	2
191	5
192	8
193	3
194	3
195	9
196	2
197	9
198	3
199	8
200	4
201	6
202	2
203	9
204	4
205	4
206	9
207	6
208	8
209	8
210	5
211	5
212	8
213	1
214	5
215	2
216	8
217	2
218	2
219	3
220	2
221	3
222	9
223	4
224	4
225	6
226	9
227	9
228	8
229	7
230	6
231	5
232	4
233	9
234	2
235	4
236	8
237	7
238	3
239	9
240	1
241	1
242	7
243	3
244	6
245	6
246	5
247	7
248	8
249	8
250	1
251	5
252	1
253	9
254	8
255	1
256	7
257	2
258	1
259	1
260	5
261	3
262	2
263	7
264	6
265	3
266	9
267	3
268	6
269	1
270	8
271	2
272	3
273	2
274	6
275	3
276	9
277	9
278	9
279	3
280	9
281	2
282	6
283	9
284	4
285	2
286	6
287	5
288	4
289	8
290	5
291	3
292	5
293	4
294	2
295	4
296	2
297	8
298	9
299	8
300	1
301	7
302	2
303	1
304	2
305	9
306	6
307	7
308	6
309	6
310	4
311	5
312	8
313	1
314	5
315	6
316	2
317	8
318	3
319	2
320	3
321	4
322	9
323	3
324	7
325	2
326	8
327	3
328	7
329	4
330	3
331	3
332	9
333	8
334	5
335	6
336	6
337	7
338	2
339	9
340	4
341	6
342	1
343	5
344	2
345	4
346	5
347	9
348	8
349	8
350	8
351	9
352	1
353	1
354	5
355	6
356	2
357	6
358	8
359	9
360	8
361	6
362	9
363	1
364	6
365	4
366	5
367	7
368	6
369	1
370	7
371	2
372	5
373	9
374	3
375	9
376	1
377	1
378	8
379	1
380	1
381	6
382	1
383	4
384	4
385	6
386	6
387	8
388	1
389	3
390	7
391	1
392	4
393	5
394	7
395	2
396	5
397	6
398	2
399	5
400	5
401	7
402	4
403	3
404	3
405	2
406	3
407	8
408	5
409	5
410	4
411	5
412	5
413	6
414	9
415	8
416	3
417	8
418	7
419	3
420	5
421	4
422	7
423	7
424	3
425	3
426	1
427	9
428	5
429	4
430	1
431	7
432	1
433	7
434	7
435	8
436	6
437	9
438	6
439	7
440	8
441	4
442	4
443	5
444	2
445	1
446	4
447	4
448	7
449	8
450	3
451	5
452	3
453	9
454	5
455	5
456	7
457	5
458	3
459	6
460	6
461	5
462	6
463	9
464	7
465	4
466	1
467	1
468	6
469	7
470	4
471	6
472	8
473	5
474	6
475	2
476	2
477	4
478	2
479	4
480	5
481	2
482	3
483	2
484	5
485	1
486	1
487	6
488	4
489	9
490	5
491	5
492	9
493	4
494	8
495	6
496	6
497	1
498	7
499	5
500	2
501	9
502	5
503	8
504	4
505	8
506	9
507	3
508	9
509	4
510	7
511	1
512	3
513	3
514	6
515	4
516	6
517	2
518	9
519	4
520	6
521	3
522	4
523	6
524	4
525	2
526	2
527	7
528	5
529	7
530	6
531	2
532	4
533	5
534	3
535	2
536	6
537	5
538	4
539	3
540	7
541	8
542	4
543	6
544	4
545	8
546	6
547	5
548	5
549	2
550	4
551	4
552	7
553	2
554	2
555	9
556	8
557	6
558	9
559	9
560	8
561	2
562	8
563	6
564	6
565	3
566	9
567	3
568	3
569	7
570	8
571	1
572	2
573	5
574	8
575	7
576	9
577	9
578	7
579	4
580	7
581	3
582	7
583	3
584	4
585	4
586	6
587	7
588	2
589	5
590	8
591	5
592	8
593	5
594	3
595	6
596	6
597	2
598	3
599	5
600	9
601	7
602	6
603	5
604	7
605	9
606	8
607	4
608	2
609	4
610	9
611	1
612	9
613	7
614	2
615	3
616	1
617	4
618	2
619	6
620	7
621	9
622	7
623	2
624	9
625	4
626	9
627	7
628	3
629	6
630	2
631	7
632	5
633	5
634	3
635	1
636	8
637	7
638	9
639	2
640	5
641	6
642	4
643	4
644	4
645	4
646	4
647	9
648	1
649	9
650	6
651	9
652	8
653	8
654	3
655	1
656	4
657	6
658	2
659	5
660	1
661	2
662	1
663	5
664	8
665	4
666	5
667	8
668	1
669	7
670	1
671	4
672	4
673	3
674	5
675	9
676	5
677	5
678	9
679	6
680	5
681	5
682	5
683	2
684	1
685	8
686	1
687	1
688	5
689	7
690	9
691	1
692	5
693	4
694	8
695	6
696	4
697	7
698	2
699	7
700	7
701	6
702	3
703	2
704	5
705	6
706	8
707	1
708	8
709	3
710	7
711	9
712	8
713	7
714	4
715	3
716	4
717	9
718	6
719	3
720	3
721	8
722	7
723	8
724	9
725	5
726	9
727	9
728	5
729	3
730	4
731	9
732	6
733	2
734	9
735	5
736	2
737	4
738	9
739	8
740	2
741	2
742	9
743	4
744	1
745	6
746	8
747	2
748	4
749	6
750	4
751	2
752	6
753	6
754	3
755	9
756	5
757	8
758	7
759	3
760	3
761	5
762	2
763	1
764	8
765	9
766	2
767	6
768	3
769	4
770	7
771	2
772	3
773	3
774	4
775	7
776	6
777	3
778	2
779	7
780	8
781	9
782	9
783	1
784	8
785	9
786	1
787	5
788	7
789	1
790	2
791	1
792	1
793	7
794	1
795	9
796	5
797	9
798	5
799	8
800	9
801	4
802	1
803	3
804	6
805	5
806	3
807	2
808	6
809	7
810	5
811	8
812	3
813	1
814	2
815	5
816	6
817	5
818	6
819	8
820	4
821	7
822	8
823	7
824	3
825	7
826	9
827	9
828	2
829	3
830	3
831	7
832	6
833	8
834	7
835	9
836	6
837	1
838	6
839	1
840	8
841	4
842	6
843	7
844	5
845	2
846	4
847	1
848	5
849	3
850	8
851	5
852	5
853	6
854	5
855	6
856	5
857	7
858	9
859	4
860	5
861	4
862	8
863	6
864	4
865	4
866	9
867	7
868	5
869	7
870	1
871	5
872	2
873	6
874	6
875	9
876	6
877	7
878	3
879	7
880	2
881	3
882	9
883	9
884	8
885	3
886	7
887	3
888	5
889	1
890	8
891	6
892	7
893	3
894	8
895	5
896	3
897	5
898	9
899	5
900	9
901	7
902	7
903	4
904	8
905	2
906	7
907	6
908	3
909	6
910	6
911	4
912	4
913	1
914	6
915	3
916	5
917	8
918	1
919	5
920	1
921	8
922	4
923	2
924	7
925	8
926	1
927	9
928	1
929	4
930	1
931	9
932	1
933	5
934	6
935	2
936	8
937	3
938	8
939	2
940	4
941	3
942	1
943	5
944	4
945	6
946	9
947	3
948	8
949	6
950	5
951	2
952	3
953	1
954	3
955	3
956	9
957	3
958	4
959	2
960	4
961	8
962	7
963	3
964	1
965	5
966	2
967	8
968	7
969	2
970	8
971	8
972	1
973	6
974	5
975	4
976	3
977	9
978	3
979	7
980	5
981	9
982	1
983	2
984	3
985	1
986	6
987	8
988	4
989	6
990	1
991	2
992	6
993	8
994	5
995	5
996	3
997	4
998	7
999	5
1000	1
1001	1
BACKHAUL_SECTION
5	13	18	31	32	34	39	41	45	49	52	69	74	77	80	83	94	95	98	101	107	114	115	121	124	128	133	141	143	146	158	162	163	171	184	187	190	194	199	216	217	223	225	226	236	239	245	249	254	255	261	262	265	271	275	277	279	282	283	284	313	326	327	330	332	344	348	349	351	352	353	357	364	369	375	376	377	380	382	386	391	392	402	405	408	416	418	422	426	427	431	436	441	447	451	453	454	462	476	488	489	501	503	510	512	525	527	529	535	539	548	556	570	580	588	593	594	601	603	605	609	617	618	620	629	630	633	635	638	643	645	652	655	658	664	665	667	675	676	684	690	707	718	719	721	723	738	739	740	744	754	759	760	764	776	777	778	779	780	783	800	802	804	807	809	819	821	822	828	843	847	848	860	864	866	873	874	875	876	880	884	888	890	893	900	910	920	924	929	931	937	946	948	950	961	970	980	984	989	991	-1
DEPOT_SECTION
1
-1
EOF
