NAME : n1001-0047
COMMENT : "Generated by pyvrp_manuel (VRPB)"
TYPE : VRPB
DIMENSION : 1001
EDGE_WEIGHT_TYPE : EUC_2D
CAPACITY : 150
VEHICLES : 1000
NODE_COORD_SECTION
1	123	404
2	748	551
3	524	62
4	319	874
5	407	244
6	611	642
7	338	31
8	576	580
9	140	407
10	897	898
11	511	33
12	687	790
13	254	410
14	998	644
15	50	139
16	201	998
17	506	264
18	172	408
19	596	401
20	739	271
21	206	688
22	538	88
23	137	904
24	890	550
25	667	315
26	439	156
27	11	956
28	587	64
29	491	25
30	592	45
31	63	209
32	404	181
33	209	305
34	612	135
35	568	70
36	74	756
37	144	192
38	5	933
39	72	106
40	403	7
41	915	300
42	948	317
43	450	494
44	184	623
45	84	635
46	355	624
47	748	885
48	968	140
49	290	576
50	503	225
51	510	417
52	988	742
53	584	774
54	228	66
55	191	874
56	557	870
57	785	212
58	859	462
59	271	810
60	918	598
61	994	740
62	967	678
63	495	389
64	74	870
65	967	101
66	883	9
67	692	315
68	917	966
69	197	999
70	805	871
71	428	299
72	38	335
73	780	297
74	896	470
75	836	113
76	232	557
77	464	682
78	626	560
79	76	512
80	41	991
81	282	731
82	212	974
83	509	979
84	70	211
85	6	370
86	479	966
87	377	86
88	864	631
89	858	790
90	943	31
91	664	738
92	978	312
93	394	607
94	947	199
95	140	686
96	88	342
97	842	828
98	88	963
99	947	454
100	567	690
101	920	885
102	840	825
103	241	732
104	935	799
105	771	292
106	918	24
107	417	679
108	812	146
109	303	951
110	539	457
111	763	929
112	829	708
113	439	374
114	933	881
115	690	309
116	729	594
117	244	445
118	497	761
119	799	62
120	297	501
121	138	45
122	440	283
123	91	340
124	860	453
125	341	497
126	635	251
127	948	179
128	60	623
129	134	717
130	170	245
131	114	600
132	556	766
133	519	107
134	249	874
135	612	2
136	49	854
137	399	942
138	253	414
139	806	649
140	401	790
141	698	552
142	989	322
143	769	189
144	551	435
145	911	225
146	705	759
147	937	913
148	527	398
149	490	109
150	915	899
151	157	502
152	2	293
153	336	911
154	506	235
155	224	636
156	275	422
157	265	758
158	534	875
159	277	941
160	205	990
161	724	186
162	840	768
163	293	125
164	890	354
165	702	203
166	529	858
167	613	12
168	617	32
169	359	474
170	574	399
171	266	177
172	210	927
173	855	791
174	67	83
175	985	4
176	370	588
177	925	185
178	290	770
179	444	173
180	632	537
181	625	170
182	164	622
183	468	261
184	153	686
185	275	174
186	786	891
187	123	959
188	30	34
189	569	388
190	579	199
191	591	624
192	598	270
193	486	893
194	637	483
195	114	646
196	617	457
197	632	236
198	527	835
199	343	574
200	981	320
201	505	492
202	563	392
203	643	631
204	753	963
205	762	131
206	822	297
207	984	948
208	646	103
209	203	481
210	55	49
211	806	415
212	372	18
213	523	15
214	802	300
215	559	687
216	18	824
217	993	250
218	193	956
219	220	338
220	839	858
221	696	104
222	740	921
223	187	699
224	349	37
225	433	485
226	400	274
227	351	894
228	341	846
229	10	956
230	709	575
231	610	713
232	367	283
233	65	611
234	14	679
235	606	802
236	262	727
237	454	925
238	885	370
239	628	532
240	757	504
241	981	97
242	897	371
243	349	884
244	963	38
245	273	154
246	306	366
247	292	794
248	20	848
249	521	836
250	423	520
251	30	314
252	509	843
253	619	825
254	192	668
255	903	69
256	517	37
257	795	176
258	188	149
259	290	466
260	807	388
261	879	261
262	952	3
263	910	353
264	854	817
265	480	494
266	669	76
267	459	902
268	341	104
269	266	117
270	53	903
271	503	918
272	213	596
273	387	6
274	998	897
275	53	823
276	741	643
277	803	604
278	44	548
279	293	52
280	921	878
281	934	101
282	417	337
283	982	909
284	213	953
285	617	233
286	830	306
287	617	148
288	511	69
289	984	737
290	203	823
291	860	454
292	733	95
293	684	143
294	681	816
295	650	617
296	70	130
297	913	413
298	517	898
299	528	788
300	309	248
301	505	434
302	21	10
303	632	697
304	404	776
305	434	990
306	25	869
307	940	275
308	504	356
309	844	755
310	72	704
311	301	20
312	370	14
313	927	537
314	710	989
315	529	229
316	449	668
317	561	519
318	783	335
319	50	264
320	882	892
321	335	372
322	713	795
323	452	774
324	760	304
325	26	162
326	812	217
327	981	897
328	921	601
329	472	556
330	634	811
331	668	91
332	460	409
333	155	651
334	14	225
335	401	428
336	606	62
337	118	601
338	737	573
339	24	838
340	866	245
341	404	351
342	635	989
343	517	533
344	535	65
345	146	26
346	567	436
347	975	573
348	208	844
349	459	949
350	516	853
351	776	989
352	390	942
353	304	93
354	911	629
355	651	816
356	655	971
357	227	929
358	392	108
359	596	730
360	213	63
361	148	191
362	928	642
363	994	91
364	216	137
365	287	914
366	337	873
367	996	933
368	297	589
369	984	50
370	330	508
371	238	639
372	195	687
373	532	310
374	900	606
375	218	812
376	882	797
377	442	50
378	895	23
379	304	946
380	483	192
381	750	700
382	612	524
383	505	387
384	209	243
385	935	464
386	904	692
387	206	350
388	561	229
389	141	796
390	674	736
391	155	225
392	672	49
393	895	199
394	983	706
395	992	418
396	785	447
397	460	102
398	594	373
399	890	166
400	857	862
401	465	306
402	79	812
403	929	895
404	214	41
405	375	538
406	449	936
407	481	749
408	402	649
409	975	999
410	805	232
411	395	624
412	780	365
413	179	24
414	8	560
415	677	554
416	82	138
417	282	494
418	54	74
419	223	15
420	789	494
421	484	10
422	944	818
423	207	896
424	66	450
425	75	83
426	655	805
427	719	955
428	599	45
429	414	901
430	592	655
431	212	730
432	392	406
433	331	623
434	760	185
435	218	580
436	390	254
437	182	224
438	252	847
439	239	628
440	51	267
441	561	508
442	41	853
443	477	229
444	521	443
445	957	528
446	576	594
447	162	205
448	496	55
449	726	880
450	600	128
451	197	664
452	14	356
453	271	820
454	489	962
455	629	224
456	388	898
457	809	72
458	708	662
459	498	660
460	912	14
461	545	216
462	225	519
463	505	939
464	228	646
465	595	352
466	643	482
467	492	413
468	608	9
469	508	200
470	444	124
471	947	70
472	687	995
473	27	563
474	430	328
475	628	28
476	154	646
477	962	543
478	120	598
479	447	648
480	537	613
481	36	513
482	478	389
483	464	373
484	803	477
485	749	913
486	427	235
487	696	783
488	276	370
489	872	735
490	560	366
491	75	827
492	384	332
493	507	905
494	774	397
495	231	605
496	741	729
497	120	791
498	252	307
499	435	713
500	955	918
501	322	474
502	24	757
503	770	328
504	743	136
505	188	196
506	714	156
507	618	526
508	755	812
509	269	172
510	833	225
511	679	137
512	115	630
513	296	256
514	973	176
515	549	454
516	105	408
517	932	364
518	519	127
519	615	512
520	860	161
521	906	484
522	872	365
523	206	537
524	44	74
525	385	504
526	939	818
527	229	516
528	8	823
529	190	885
530	490	247
531	84	191
532	893	400
533	777	364
534	509	563
535	147	189
536	615	24
537	995	479
538	741	475
539	524	460
540	1	241
541	798	482
542	62	905
543	443	133
544	47	872
545	515	714
546	740	858
547	431	965
548	796	396
549	915	573
550	671	932
551	128	621
552	914	652
553	437	2
554	789	429
555	741	366
556	703	921
557	617	211
558	65	988
559	225	11
560	555	671
561	427	310
562	688	863
563	529	816
564	628	105
565	403	570
566	876	943
567	818	758
568	706	698
569	81	46
570	874	160
571	318	97
572	13	539
573	791	315
574	274	211
575	672	467
576	855	1000
577	7	167
578	77	27
579	287	160
580	411	117
581	841	911
582	317	652
583	650	490
584	88	753
585	183	215
586	299	907
587	988	661
588	688	61
589	50	907
590	333	802
591	562	167
592	51	988
593	693	439
594	803	303
595	283	535
596	424	570
597	877	397
598	288	693
599	169	257
600	900	831
601	501	260
602	569	628
603	636	299
604	419	995
605	919	52
606	308	677
607	844	300
608	82	475
609	878	206
610	191	858
611	536	617
612	57	599
613	22	107
614	962	146
615	594	105
616	490	407
617	494	134
618	336	479
619	41	581
620	157	86
621	383	556
622	337	950
623	270	538
624	507	492
625	578	69
626	9	732
627	50	174
628	490	598
629	692	73
630	696	382
631	832	926
632	295	590
633	923	236
634	476	251
635	28	619
636	482	938
637	775	37
638	706	145
639	617	827
640	633	581
641	88	495
642	696	426
643	491	474
644	619	116
645	985	671
646	756	624
647	300	612
648	177	701
649	887	638
650	29	789
651	648	570
652	650	48
653	291	156
654	159	854
655	446	858
656	599	703
657	780	438
658	696	692
659	55	198
660	610	348
661	272	449
662	515	72
663	585	494
664	284	398
665	780	728
666	45	4
667	752	359
668	563	724
669	555	859
670	813	433
671	600	359
672	316	542
673	191	549
674	250	723
675	212	74
676	687	314
677	278	485
678	764	723
679	135	148
680	303	443
681	855	994
682	648	24
683	183	84
684	447	442
685	75	999
686	173	496
687	376	873
688	390	544
689	221	805
690	532	870
691	610	171
692	433	579
693	517	915
694	842	967
695	317	192
696	621	90
697	915	695
698	845	942
699	267	505
700	166	975
701	295	636
702	147	635
703	244	338
704	344	906
705	365	243
706	681	697
707	297	806
708	661	752
709	207	977
710	25	434
711	745	706
712	337	925
713	122	558
714	282	954
715	523	20
716	157	119
717	400	944
718	823	991
719	201	682
720	687	427
721	460	729
722	818	984
723	882	574
724	712	948
725	948	256
726	656	344
727	953	548
728	708	285
729	533	694
730	668	912
731	910	23
732	689	647
733	823	762
734	348	122
735	992	149
736	356	30
737	6	743
738	801	396
739	350	553
740	152	814
741	190	691
742	14	447
743	855	978
744	37	719
745	80	754
746	756	780
747	544	367
748	151	212
749	794	457
750	80	966
751	399	353
752	131	672
753	438	497
754	264	149
755	862	605
756	312	136
757	380	988
758	767	39
759	197	777
760	918	465
761	32	685
762	221	506
763	725	799
764	763	860
765	887	65
766	181	304
767	848	807
768	726	208
769	136	421
770	387	474
771	495	309
772	526	120
773	400	768
774	762	754
775	956	252
776	40	206
777	768	463
778	508	323
779	180	904
780	906	635
781	980	347
782	289	782
783	205	842
784	912	957
785	733	480
786	157	985
787	138	801
788	399	767
789	319	394
790	261	160
791	703	957
792	871	77
793	689	646
794	787	707
795	767	436
796	644	275
797	487	779
798	734	472
799	479	687
800	736	662
801	133	539
802	174	308
803	431	680
804	450	183
805	562	240
806	610	42
807	940	726
808	586	488
809	83	342
810	411	15
811	646	522
812	243	238
813	795	46
814	44	783
815	448	813
816	375	453
817	127	242
818	765	943
819	580	852
820	322	888
821	124	856
822	791	635
823	850	829
824	918	108
825	739	553
826	196	555
827	453	39
828	949	784
829	416	228
830	404	798
831	874	249
832	310	14
833	802	848
834	511	722
835	323	944
836	126	446
837	694	614
838	152	877
839	493	936
840	291	640
841	793	360
842	377	844
843	391	226
844	311	286
845	46	350
846	394	417
847	709	946
848	838	144
849	503	78
850	47	542
851	890	627
852	574	24
853	229	508
854	766	242
855	963	896
856	153	817
857	149	995
858	310	316
859	491	434
860	52	533
861	142	512
862	644	579
863	20	323
864	174	232
865	997	165
866	507	509
867	263	992
868	681	384
869	468	70
870	622	850
871	230	359
872	897	340
873	349	153
874	60	887
875	94	993
876	991	538
877	519	854
878	888	546
879	198	229
880	868	274
881	948	42
882	903	128
883	82	26
884	495	317
885	504	603
886	788	333
887	870	553
888	890	444
889	378	629
890	286	777
891	182	631
892	386	813
893	677	807
894	612	906
895	147	965
896	465	807
897	783	523
898	976	935
899	152	284
900	258	326
901	526	455
902	517	589
903	575	152
904	255	423
905	664	747
906	18	208
907	9	387
908	724	922
909	977	763
910	833	917
911	889	306
912	942	813
913	277	161
914	816	233
915	709	803
916	371	93
917	624	920
918	21	963
919	626	744
920	660	150
921	978	420
922	434	687
923	841	488
924	917	565
925	189	419
926	916	939
927	361	225
928	32	484
929	586	144
930	900	57
931	368	452
932	183	813
933	3	805
934	698	392
935	705	725
936	520	178
937	467	229
938	393	376
939	758	136
940	732	553
941	854	641
942	780	856
943	346	106
944	603	250
945	456	110
946	925	130
947	462	707
948	561	543
949	234	505
950	577	2
951	165	897
952	513	693
953	190	166
954	412	549
955	28	319
956	942	300
957	960	311
958	466	909
959	383	28
960	362	80
961	785	288
962	950	375
963	535	397
964	853	320
965	691	800
966	565	439
967	827	196
968	828	707
969	477	737
970	874	622
971	863	52
972	684	25
973	907	501
974	758	812
975	459	624
976	835	555
977	938	91
978	327	524
979	371	860
980	814	872
981	913	562
982	495	172
983	885	941
984	110	310
985	922	833
986	161	145
987	427	550
988	510	88
989	263	545
990	99	146
991	649	172
992	5	285
993	641	798
994	500	728
995	103	386
996	225	412
997	42	506
998	432	656
999	675	749
1000	285	861
1001	384	691
DEMAND_SECTION
1	0
2	8
3	5
4	3
5	8
6	1
7	9
8	3
9	3
10	2
11	6
12	4
13	8
14	1
15	7
16	1
17	1
18	6
19	1
20	7
21	7
22	6
23	1
24	5
25	2
26	6
27	2
28	8
29	1
30	9
31	4
32	2
33	6
34	7
35	6
36	9
37	5
38	7
39	1
40	7
41	5
42	2
43	3
44	4
45	7
46	8
47	8
48	1
49	1
50	5
51	8
52	9
53	5
54	1
55	2
56	7
57	9
58	5
59	7
60	2
61	5
62	2
63	5
64	5
65	1
66	2
67	8
68	1
69	8
70	5
71	2
72	6
73	2
74	2
75	7
76	3
77	1
78	1
79	1
80	1
81	2
82	5
83	7
84	6
85	4
86	6
87	2
88	5
89	7
90	5
91	2
92	6
93	3
94	7
95	1
96	7
97	3
98	4
99	1
100	8
101	4
102	9
103	8
104	3
105	2
106	8
107	3
108	6
109	6
110	7
111	3
112	1
113	3
114	5
115	3
116	8
117	9
118	4
119	3
120	4
121	1
122	1
123	1
124	8
125	9
126	3
127	2
128	1
129	2
130	8
131	2
132	7
133	5
134	9
135	7
136	3
137	4
138	6
139	6
140	6
141	1
142	2
143	4
144	8
145	8
146	4
147	6
148	1
149	2
150	8
151	8
152	3
153	5
154	4
155	9
156	1
157	2
158	3
159	9
160	7
161	3
162	5
163	6
164	1
165	9
166	6
167	6
168	1
169	5
170	4
171	7
172	2
173	7
174	8
175	9
176	6
177	8
178	8
179	8
180	3
181	5
182	1
183	9
184	5
185	2
186	1
187	3
188	4
189	6
190	5
191	6
192	8
193	6
194	3
195	6
196	2
197	9
198	2
199	3
200	6
201	6
202	4
203	1
204	2
205	9
206	1
207	3
208	6
209	1
210	4
211	7
212	2
213	6
214	6
215	6
216	5
217	8
218	8
219	5
220	1
221	4
222	9
223	3
224	3
225	7
226	4
227	3
228	4
229	1
230	8
231	8
232	5
233	5
234	3
235	5
236	5
237	8
238	6
239	5
240	2
241	1
242	2
243	2
244	1
245	8
246	6
247	5
248	1
249	6
250	5
251	7
252	3
253	9
254	2
255	3
256	8
257	7
258	3
259	2
260	7
261	5
262	5
263	1
264	9
265	6
266	7
267	6
268	4
269	2
270	9
271	9
272	1
273	3
274	4
275	8
276	1
277	2
278	4
279	2
280	8
281	8
282	6
283	9
284	8
285	7
286	5
287	3
288	7
289	3
290	1
291	4
292	2
293	2
294	6
295	6
296	7
297	6
298	7
299	3
300	9
301	8
302	9
303	7
304	8
305	1
306	1
307	6
308	1
309	2
310	1
311	8
312	8
313	8
314	8
315	3
316	1
317	9
318	4
319	7
320	5
321	1
322	8
323	8
324	5
325	9
326	6
327	8
328	9
329	9
330	4
331	4
332	7
333	6
334	2
335	7
336	7
337	1
338	9
339	3
340	1
341	7
342	1
343	6
344	9
345	4
346	7
347	9
348	9
349	5
350	2
351	1
352	4
353	2
354	5
355	1
356	5
357	3
358	7
359	3
360	4
361	8
362	8
363	3
364	5
365	9
366	5
367	6
368	3
369	2
370	6
371	8
372	3
373	3
374	7
375	6
376	5
377	6
378	7
379	7
380	1
381	4
382	4
383	6
384	7
385	6
386	3
387	3
388	9
389	6
390	2
391	8
392	4
393	5
394	2
395	4
396	1
397	6
398	8
399	8
400	4
401	3
402	3
403	3
404	1
405	8
406	3
407	7
408	9
409	6
410	1
411	8
412	7
413	2
414	1
415	3
416	6
417	6
418	3
419	5
420	2
421	5
422	3
423	3
424	5
425	2
426	8
427	2
428	4
429	7
430	3
431	6
432	3
433	1
434	8
435	3
436	3
437	5
438	3
439	5
440	8
441	2
442	8
443	9
444	6
445	8
446	7
447	5
448	5
449	8
450	5
451	6
452	4
453	6
454	5
455	8
456	1
457	5
458	6
459	7
460	5
461	8
462	9
463	8
464	2
465	4
466	1
467	3
468	3
469	5
470	4
471	4
472	9
473	5
474	8
475	9
476	8
477	3
478	6
479	7
480	8
481	2
482	1
483	2
484	1
485	5
486	3
487	7
488	3
489	3
490	7
491	5
492	2
493	1
494	9
495	5
496	8
497	8
498	3
499	2
500	2
501	1
502	5
503	6
504	3
505	4
506	3
507	4
508	3
509	5
510	4
511	9
512	9
513	3
514	2
515	4
516	4
517	5
518	9
519	5
520	8
521	7
522	5
523	4
524	2
525	6
526	8
527	8
528	9
529	5
530	2
531	3
532	2
533	8
534	2
535	6
536	9
537	2
538	2
539	5
540	6
541	7
542	4
543	9
544	8
545	9
546	2
547	8
548	1
549	7
550	7
551	2
552	6
553	6
554	8
555	5
556	3
557	1
558	1
559	3
560	8
561	8
562	1
563	9
564	6
565	5
566	6
567	3
568	7
569	3
570	9
571	9
572	2
573	1
574	8
575	7
576	2
577	6
578	6
579	7
580	9
581	9
582	9
583	7
584	4
585	3
586	5
587	6
588	4
589	3
590	5
591	5
592	2
593	2
594	4
595	8
596	9
597	3
598	5
599	7
600	4
601	7
602	3
603	4
604	3
605	1
606	1
607	4
608	3
609	3
610	7
611	7
612	2
613	9
614	9
615	4
616	4
617	9
618	2
619	8
620	3
621	9
622	8
623	3
624	6
625	8
626	5
627	1
628	7
629	5
630	4
631	2
632	6
633	9
634	8
635	3
636	8
637	1
638	2
639	5
640	7
641	7
642	9
643	9
644	9
645	4
646	4
647	2
648	7
649	5
650	4
651	6
652	7
653	2
654	1
655	7
656	3
657	2
658	3
659	6
660	3
661	7
662	4
663	9
664	4
665	4
666	9
667	6
668	2
669	3
670	8
671	7
672	9
673	2
674	7
675	9
676	4
677	5
678	2
679	7
680	2
681	1
682	6
683	1
684	1
685	8
686	2
687	4
688	2
689	7
690	3
691	3
692	4
693	4
694	2
695	8
696	7
697	1
698	8
699	5
700	2
701	5
702	6
703	8
704	3
705	5
706	6
707	8
708	1
709	5
710	5
711	5
712	5
713	9
714	8
715	5
716	1
717	5
718	5
719	9
720	5
721	9
722	1
723	6
724	1
725	6
726	8
727	1
728	6
729	5
730	1
731	1
732	5
733	3
734	3
735	5
736	3
737	3
738	9
739	4
740	4
741	4
742	3
743	8
744	1
745	5
746	7
747	2
748	3
749	7
750	1
751	1
752	2
753	4
754	6
755	9
756	8
757	1
758	2
759	4
760	3
761	9
762	6
763	7
764	8
765	8
766	5
767	4
768	3
769	4
770	8
771	2
772	9
773	3
774	2
775	2
776	4
777	3
778	8
779	6
780	8
781	9
782	9
783	4
784	5
785	1
786	4
787	6
788	3
789	5
790	9
791	2
792	5
793	9
794	1
795	1
796	8
797	2
798	9
799	6
800	1
801	3
802	1
803	8
804	7
805	7
806	4
807	9
808	4
809	1
810	7
811	6
812	2
813	3
814	7
815	2
816	9
817	4
818	2
819	1
820	6
821	8
822	9
823	1
824	4
825	4
826	2
827	8
828	6
829	1
830	3
831	2
832	4
833	9
834	6
835	2
836	9
837	1
838	4
839	9
840	6
841	6
842	1
843	5
844	7
845	4
846	4
847	4
848	1
849	5
850	5
851	3
852	9
853	9
854	6
855	8
856	5
857	5
858	4
859	1
860	8
861	4
862	8
863	2
864	9
865	8
866	7
867	6
868	2
869	4
870	6
871	6
872	3
873	6
874	6
875	3
876	7
877	4
878	1
879	5
880	5
881	8
882	6
883	5
884	1
885	6
886	5
887	7
888	5
889	4
890	9
891	7
892	4
893	4
894	9
895	2
896	4
897	1
898	6
899	4
900	2
901	7
902	6
903	3
904	6
905	1
906	4
907	1
908	9
909	6
910	7
911	9
912	3
913	9
914	1
915	2
916	9
917	8
918	9
919	3
920	8
921	7
922	9
923	2
924	1
925	2
926	7
927	4
928	5
929	4
930	1
931	2
932	2
933	2
934	4
935	3
936	4
937	8
938	6
939	7
940	7
941	1
942	2
943	9
944	1
945	6
946	7
947	6
948	4
949	7
950	5
951	7
952	2
953	8
954	3
955	6
956	6
957	7
958	6
959	9
960	2
961	9
962	9
963	8
964	1
965	9
966	7
967	5
968	6
969	4
970	3
971	4
972	3
973	4
974	3
975	3
976	9
977	9
978	2
979	8
980	7
981	6
982	3
983	1
984	4
985	6
986	3
987	4
988	1
989	4
990	1
991	8
992	7
993	2
994	6
995	4
996	3
997	4
998	9
999	2
1000	4
1001	3
BACKHAUL_SECTION
5	13	18	31	32	34	39	41	45	49	52	69	74	77	80	83	94	95	98	101	107	114	115	121	124	128	133	141	143	146	158	162	163	171	184	187	190	194	199	216	217	223	225	226	236	239	245	249	254	255	261	262	265	271	275	277	279	282	283	284	313	326	327	330	332	344	348	349	351	352	353	357	364	369	375	376	377	380	382	386	391	392	402	405	408	416	418	422	426	427	431	436	441	447	451	453	454	462	476	488	489	501	503	510	512	525	527	529	535	539	548	556	570	580	588	593	594	601	603	605	609	617	618	620	629	630	633	635	638	643	645	652	655	658	664	665	667	675	676	684	690	707	718	719	721	723	738	739	740	744	754	759	760	764	776	777	778	779	780	783	800	802	804	807	809	819	821	822	828	843	847	848	860	864	866	873	874	875	876	880	884	888	890	893	900	910	920	924	929	931	937	946	948	950	961	970	980	984	989	991	-1
DEPOT_SECTION
1
-1
EOF
