NAME : n1001-0009
COMMENT : "Generated by pyvrp_manuel (VRPB)"
TYPE : VRPB
DIMENSION : 1001
EDGE_WEIGHT_TYPE : EUC_2D
CAPACITY : 150
VEHICLES : 1000
NODE_COORD_SECTION
1	166	894
2	788	566
3	479	363
4	56	355
5	933	481
6	311	852
7	342	731
8	19	197
9	379	674
10	137	227
11	378	861
12	615	990
13	773	340
14	692	279
15	108	38
16	932	306
17	253	289
18	951	314
19	652	664
20	410	120
21	847	506
22	685	995
23	289	139
24	76	837
25	950	36
26	712	496
27	29	408
28	859	843
29	726	766
30	942	344
31	51	951
32	662	81
33	454	837
34	890	89
35	271	655
36	949	567
37	376	956
38	93	480
39	600	827
40	375	47
41	72	594
42	742	574
43	995	806
44	501	228
45	157	244
46	317	127
47	21	943
48	409	659
49	932	389
50	510	151
51	335	682
52	292	743
53	172	205
54	212	416
55	290	826
56	988	689
57	167	421
58	298	824
59	421	362
60	16	444
61	112	982
62	526	990
63	283	943
64	199	157
65	702	863
66	213	894
67	238	151
68	731	280
69	965	316
70	944	576
71	468	572
72	25	50
73	895	853
74	307	558
75	901	730
76	344	743
77	173	38
78	166	562
79	787	498
80	902	796
81	998	894
82	509	189
83	186	647
84	559	27
85	561	493
86	421	372
87	561	948
88	444	704
89	117	237
90	375	298
91	322	491
92	223	718
93	791	449
94	107	889
95	240	752
96	629	757
97	43	715
98	93	555
99	695	481
100	506	834
101	479	292
102	467	959
103	950	653
104	417	388
105	214	218
106	365	485
107	354	231
108	76	827
109	810	446
110	103	806
111	355	334
112	922	514
113	726	732
114	325	353
115	219	632
116	47	31
117	626	804
118	317	434
119	758	515
120	850	433
121	944	236
122	539	24
123	152	364
124	571	616
125	513	413
126	47	132
127	654	308
128	772	754
129	768	669
130	152	958
131	772	753
132	890	969
133	465	130
134	399	806
135	932	120
136	563	842
137	868	636
138	780	546
139	62	857
140	251	330
141	340	101
142	375	5
143	374	788
144	58	996
145	516	5
146	395	458
147	2	479
148	737	91
149	448	195
150	162	328
151	721	542
152	933	392
153	258	212
154	105	614
155	270	727
156	217	470
157	477	143
158	941	872
159	239	273
160	220	924
161	216	782
162	478	416
163	954	493
164	474	991
165	687	38
166	382	683
167	923	208
168	265	262
169	646	706
170	863	707
171	100	805
172	476	789
173	104	413
174	191	702
175	878	803
176	579	559
177	565	750
178	409	867
179	23	778
180	59	693
181	12	117
182	480	658
183	405	20
184	435	317
185	876	548
186	409	983
187	816	453
188	477	437
189	474	346
190	296	747
191	317	524
192	864	848
193	732	96
194	526	764
195	30	59
196	802	451
197	271	917
198	546	1
199	788	376
200	91	14
201	455	70
202	669	773
203	13	341
204	167	313
205	14	671
206	467	682
207	915	489
208	366	872
209	772	922
210	826	473
211	613	828
212	523	490
213	61	641
214	27	142
215	425	583
216	279	774
217	904	580
218	774	220
219	881	709
220	966	348
221	766	649
222	141	565
223	420	627
224	932	282
225	213	404
226	848	327
227	284	664
228	873	104
229	486	291
230	196	887
231	838	296
232	843	632
233	929	701
234	678	49
235	929	492
236	714	767
237	754	560
238	614	614
239	909	165
240	983	803
241	599	813
242	656	422
243	842	877
244	577	938
245	517	319
246	666	118
247	598	184
248	973	992
249	592	576
250	289	748
251	375	276
252	630	676
253	733	488
254	757	393
255	546	531
256	222	524
257	738	28
258	764	737
259	28	750
260	639	141
261	823	33
262	16	461
263	730	390
264	744	643
265	240	761
266	196	380
267	987	623
268	486	194
269	590	809
270	309	354
271	387	502
272	886	339
273	33	242
274	458	404
275	270	92
276	793	328
277	365	54
278	170	349
279	136	170
280	662	114
281	446	142
282	313	618
283	445	43
284	540	920
285	421	557
286	810	951
287	831	454
288	936	368
289	958	761
290	695	961
291	109	517
292	682	631
293	143	698
294	378	984
295	257	121
296	950	143
297	417	763
298	160	314
299	189	480
300	885	917
301	428	62
302	549	474
303	959	785
304	161	514
305	57	101
306	841	205
307	73	830
308	750	779
309	827	953
310	967	350
311	198	420
312	5	399
313	929	646
314	842	720
315	594	256
316	990	591
317	339	763
318	286	244
319	922	13
320	950	70
321	810	510
322	6	826
323	219	735
324	710	232
325	826	668
326	317	970
327	455	870
328	397	6
329	617	669
330	290	140
331	9	295
332	699	793
333	155	837
334	430	442
335	937	868
336	592	116
337	886	450
338	682	766
339	901	962
340	338	251
341	984	108
342	299	823
343	513	314
344	88	561
345	633	864
346	824	235
347	290	411
348	544	764
349	768	408
350	274	682
351	722	443
352	516	544
353	442	500
354	140	812
355	491	442
356	421	61
357	278	824
358	268	184
359	822	57
360	274	416
361	182	287
362	121	652
363	722	34
364	131	749
365	539	352
366	888	214
367	222	293
368	290	835
369	512	903
370	467	114
371	159	862
372	451	172
373	564	430
374	120	500
375	948	267
376	926	157
377	153	653
378	468	971
379	277	876
380	908	705
381	457	796
382	937	463
383	789	339
384	929	703
385	477	155
386	459	805
387	872	950
388	0	313
389	619	609
390	600	817
391	633	810
392	25	87
393	340	240
394	861	692
395	34	209
396	792	155
397	447	341
398	194	307
399	707	292
400	37	408
401	971	30
402	704	628
403	982	713
404	286	259
405	377	117
406	683	250
407	527	724
408	822	47
409	81	388
410	516	355
411	908	276
412	391	952
413	98	667
414	411	64
415	924	276
416	869	607
417	263	430
418	163	313
419	353	112
420	738	188
421	989	911
422	397	329
423	506	197
424	883	300
425	317	971
426	888	895
427	509	844
428	565	450
429	120	74
430	601	325
431	449	933
432	403	574
433	732	107
434	930	552
435	997	555
436	643	803
437	102	124
438	894	855
439	682	558
440	29	583
441	799	302
442	370	749
443	863	41
444	812	699
445	860	929
446	236	720
447	720	938
448	791	825
449	380	312
450	326	378
451	749	295
452	955	910
453	328	848
454	729	263
455	940	433
456	181	203
457	498	568
458	167	441
459	163	832
460	585	764
461	428	375
462	721	859
463	20	273
464	819	817
465	420	245
466	18	920
467	819	509
468	398	846
469	289	735
470	440	200
471	948	679
472	940	216
473	533	661
474	561	424
475	165	670
476	707	146
477	720	598
478	742	186
479	31	285
480	959	677
481	755	401
482	369	136
483	984	236
484	667	729
485	634	777
486	541	347
487	701	644
488	32	35
489	719	266
490	91	951
491	327	789
492	935	974
493	849	2
494	548	377
495	572	166
496	941	562
497	986	988
498	136	386
499	65	998
500	918	893
501	756	926
502	991	907
503	922	877
504	592	30
505	693	362
506	831	511
507	653	439
508	961	452
509	191	503
510	683	405
511	774	858
512	875	116
513	267	827
514	369	364
515	626	587
516	508	451
517	800	876
518	394	862
519	905	746
520	575	379
521	60	709
522	60	530
523	628	964
524	829	151
525	651	61
526	670	675
527	899	901
528	424	502
529	909	150
530	278	319
531	39	387
532	807	152
533	460	530
534	971	259
535	40	727
536	178	390
537	125	768
538	975	490
539	468	563
540	677	399
541	339	871
542	959	897
543	399	327
544	19	597
545	483	912
546	287	133
547	523	191
548	633	622
549	767	37
550	135	639
551	384	284
552	569	677
553	50	785
554	394	233
555	557	820
556	486	203
557	776	685
558	351	885
559	514	862
560	341	233
561	379	919
562	447	816
563	500	965
564	988	383
565	171	842
566	65	840
567	920	706
568	212	249
569	962	598
570	142	759
571	16	765
572	43	776
573	625	773
574	313	12
575	726	500
576	188	687
577	592	869
578	141	907
579	415	939
580	830	336
581	87	369
582	913	227
583	641	751
584	602	43
585	663	124
586	571	619
587	377	885
588	702	250
589	788	801
590	442	188
591	461	544
592	315	194
593	619	951
594	969	11
595	681	733
596	548	662
597	366	701
598	681	99
599	833	68
600	436	184
601	334	307
602	401	213
603	955	5
604	347	649
605	846	410
606	969	573
607	950	235
608	338	431
609	351	352
610	392	318
611	183	1
612	45	705
613	978	866
614	24	766
615	657	616
616	678	644
617	500	844
618	756	309
619	204	584
620	236	309
621	513	260
622	827	641
623	666	73
624	746	407
625	120	516
626	224	237
627	424	781
628	357	666
629	828	638
630	184	81
631	616	10
632	877	992
633	889	399
634	639	427
635	928	915
636	689	711
637	643	676
638	599	392
639	879	12
640	266	167
641	175	873
642	649	689
643	809	426
644	199	682
645	760	334
646	599	83
647	368	39
648	77	108
649	944	278
650	640	785
651	45	629
652	831	866
653	537	28
654	685	476
655	877	37
656	284	11
657	967	830
658	433	395
659	967	814
660	556	201
661	974	64
662	728	699
663	829	4
664	483	777
665	282	403
666	210	132
667	613	946
668	76	455
669	825	174
670	90	607
671	656	183
672	250	437
673	670	347
674	597	81
675	315	939
676	54	880
677	96	147
678	925	373
679	448	555
680	531	217
681	417	616
682	232	370
683	963	713
684	37	105
685	648	837
686	785	28
687	853	969
688	354	22
689	224	343
690	781	945
691	673	42
692	761	88
693	710	614
694	965	560
695	142	281
696	688	673
697	77	843
698	765	841
699	553	796
700	295	548
701	93	546
702	720	847
703	245	779
704	494	324
705	528	514
706	121	374
707	87	131
708	347	356
709	448	231
710	618	799
711	139	318
712	192	615
713	375	644
714	399	883
715	590	78
716	843	527
717	732	676
718	757	962
719	69	509
720	472	601
721	397	561
722	431	774
723	741	361
724	920	697
725	698	465
726	169	274
727	222	325
728	216	215
729	964	118
730	369	338
731	277	826
732	975	388
733	271	733
734	88	490
735	221	95
736	908	319
737	804	577
738	657	493
739	763	370
740	363	323
741	948	152
742	954	910
743	9	726
744	349	659
745	396	364
746	300	397
747	695	306
748	828	679
749	837	539
750	619	29
751	982	641
752	502	265
753	639	44
754	680	808
755	948	897
756	887	550
757	424	224
758	174	181
759	177	334
760	841	459
761	229	58
762	303	18
763	176	251
764	121	418
765	150	514
766	269	908
767	12	629
768	917	513
769	924	176
770	473	658
771	211	775
772	331	974
773	18	990
774	351	579
775	870	356
776	642	171
777	346	740
778	13	968
779	873	959
780	322	583
781	457	996
782	980	725
783	784	291
784	889	766
785	0	113
786	159	274
787	722	829
788	578	657
789	412	178
790	788	59
791	152	657
792	14	49
793	904	390
794	422	705
795	253	606
796	767	707
797	361	570
798	579	62
799	953	75
800	459	12
801	311	747
802	577	365
803	440	871
804	445	374
805	498	110
806	931	25
807	239	631
808	51	334
809	222	171
810	349	563
811	428	475
812	273	426
813	49	920
814	579	536
815	127	453
816	119	493
817	322	234
818	71	118
819	841	968
820	130	655
821	463	621
822	359	563
823	421	1
824	999	588
825	540	974
826	492	800
827	23	979
828	444	217
829	927	697
830	442	166
831	725	86
832	483	595
833	730	83
834	811	976
835	781	700
836	428	646
837	63	264
838	445	549
839	806	215
840	49	230
841	192	665
842	91	317
843	365	143
844	87	824
845	230	159
846	179	712
847	212	250
848	384	942
849	318	819
850	663	372
851	873	652
852	898	960
853	292	949
854	93	139
855	227	979
856	352	11
857	46	238
858	332	278
859	614	156
860	461	343
861	426	328
862	653	245
863	885	239
864	870	866
865	391	118
866	190	986
867	473	982
868	202	149
869	185	997
870	344	452
871	700	852
872	688	900
873	421	523
874	570	41
875	16	150
876	131	767
877	889	524
878	115	780
879	795	359
880	512	654
881	724	364
882	689	538
883	459	568
884	190	8
885	408	983
886	488	18
887	314	304
888	230	699
889	645	868
890	531	937
891	817	844
892	703	510
893	35	694
894	81	822
895	996	40
896	202	778
897	465	560
898	170	611
899	32	831
900	364	233
901	728	971
902	814	845
903	524	819
904	970	911
905	962	849
906	356	209
907	401	58
908	714	360
909	755	729
910	438	53
911	171	638
912	50	290
913	108	300
914	307	924
915	30	246
916	278	883
917	126	507
918	908	984
919	44	649
920	222	106
921	172	351
922	153	864
923	651	546
924	44	926
925	76	221
926	261	790
927	119	17
928	522	377
929	22	860
930	718	704
931	720	495
932	963	217
933	186	846
934	878	183
935	257	547
936	805	798
937	582	70
938	495	536
939	828	440
940	235	194
941	276	288
942	822	581
943	410	96
944	712	681
945	59	106
946	102	854
947	735	48
948	155	197
949	899	73
950	112	706
951	589	350
952	945	739
953	501	961
954	198	472
955	522	700
956	468	728
957	987	395
958	50	459
959	134	96
960	559	549
961	108	91
962	272	907
963	551	36
964	740	448
965	765	95
966	2	447
967	496	817
968	332	342
969	451	575
970	517	172
971	685	421
972	43	28
973	888	971
974	361	830
975	2	478
976	629	278
977	3	207
978	953	319
979	715	332
980	733	682
981	881	43
982	192	854
983	995	450
984	423	849
985	621	457
986	202	567
987	404	779
988	576	216
989	426	276
990	643	389
991	751	394
992	400	275
993	93	911
994	560	670
995	46	890
996	126	987
997	742	526
998	259	344
999	817	1000
1000	904	44
1001	897	161
DEMAND_SECTION
1	0
2	6
3	7
4	3
5	2
6	5
7	3
8	6
9	7
10	8
11	9
12	2
13	4
14	6
15	2
16	6
17	4
18	3
19	1
20	5
21	9
22	3
23	6
24	5
25	9
26	6
27	9
28	6
29	1
30	1
31	7
32	5
33	3
34	9
35	7
36	8
37	2
38	1
39	1
40	2
41	3
42	8
43	7
44	1
45	7
46	3
47	7
48	5
49	4
50	7
51	3
52	8
53	6
54	3
55	6
56	5
57	9
58	3
59	2
60	9
61	4
62	8
63	3
64	7
65	8
66	2
67	3
68	2
69	3
70	6
71	8
72	4
73	9
74	5
75	4
76	3
77	6
78	1
79	7
80	3
81	2
82	4
83	4
84	9
85	1
86	2
87	4
88	8
89	4
90	8
91	9
92	1
93	2
94	2
95	2
96	5
97	1
98	1
99	6
100	6
101	9
102	7
103	9
104	6
105	3
106	8
107	7
108	8
109	3
110	6
111	4
112	3
113	2
114	4
115	7
116	9
117	7
118	8
119	1
120	7
121	1
122	5
123	5
124	9
125	5
126	4
127	1
128	3
129	9
130	7
131	1
132	2
133	9
134	7
135	8
136	1
137	2
138	9
139	8
140	6
141	6
142	1
143	5
144	3
145	5
146	9
147	4
148	7
149	8
150	3
151	6
152	3
153	1
154	1
155	4
156	5
157	2
158	2
159	1
160	2
161	1
162	1
163	9
164	4
165	3
166	9
167	9
168	4
169	4
170	7
171	2
172	6
173	1
174	2
175	3
176	6
177	6
178	1
179	1
180	2
181	1
182	2
183	6
184	3
185	8
186	6
187	2
188	2
189	9
190	6
191	1
192	9
193	9
194	4
195	6
196	7
197	4
198	7
199	6
200	6
201	7
202	7
203	5
204	2
205	7
206	5
207	9
208	2
209	5
210	1
211	4
212	3
213	2
214	2
215	3
216	2
217	4
218	2
219	3
220	6
221	2
222	5
223	3
224	8
225	9
226	4
227	5
228	5
229	6
230	4
231	2
232	6
233	5
234	3
235	7
236	8
237	5
238	9
239	6
240	9
241	6
242	5
243	6
244	6
245	2
246	6
247	7
248	3
249	3
250	7
251	6
252	7
253	8
254	8
255	8
256	9
257	1
258	1
259	9
260	2
261	1
262	2
263	2
264	7
265	9
266	8
267	2
268	5
269	5
270	8
271	4
272	3
273	1
274	1
275	5
276	6
277	5
278	5
279	7
280	2
281	9
282	8
283	2
284	4
285	5
286	1
287	3
288	5
289	7
290	5
291	8
292	7
293	7
294	1
295	6
296	3
297	6
298	4
299	8
300	4
301	2
302	4
303	6
304	5
305	2
306	8
307	2
308	1
309	4
310	1
311	2
312	7
313	9
314	9
315	4
316	2
317	2
318	6
319	3
320	9
321	2
322	4
323	9
324	3
325	2
326	1
327	1
328	8
329	2
330	8
331	5
332	8
333	6
334	5
335	4
336	5
337	5
338	2
339	9
340	3
341	4
342	2
343	4
344	6
345	9
346	5
347	2
348	8
349	3
350	7
351	4
352	1
353	2
354	8
355	2
356	1
357	4
358	2
359	7
360	9
361	5
362	6
363	9
364	4
365	4
366	6
367	5
368	3
369	7
370	8
371	7
372	7
373	6
374	2
375	9
376	7
377	9
378	8
379	2
380	3
381	8
382	1
383	6
384	4
385	9
386	4
387	2
388	7
389	8
390	1
391	2
392	7
393	7
394	8
395	8
396	8
397	6
398	2
399	6
400	6
401	4
402	6
403	3
404	5
405	1
406	5
407	2
408	3
409	7
410	4
411	4
412	7
413	2
414	7
415	6
416	9
417	1
418	9
419	4
420	9
421	3
422	1
423	2
424	1
425	8
426	5
427	4
428	3
429	3
430	1
431	1
432	2
433	1
434	5
435	1
436	7
437	2
438	6
439	9
440	5
441	3
442	3
443	8
444	6
445	1
446	5
447	8
448	5
449	7
450	3
451	6
452	1
453	5
454	2
455	2
456	7
457	9
458	3
459	7
460	5
461	4
462	6
463	9
464	6
465	3
466	6
467	6
468	8
469	7
470	2
471	2
472	8
473	2
474	6
475	8
476	7
477	9
478	7
479	8
480	4
481	1
482	8
483	3
484	1
485	2
486	6
487	7
488	7
489	8
490	5
491	5
492	6
493	8
494	6
495	8
496	8
497	5
498	5
499	3
500	3
501	9
502	4
503	9
504	4
505	2
506	9
507	8
508	4
509	9
510	3
511	8
512	7
513	3
514	1
515	4
516	7
517	6
518	8
519	6
520	7
521	5
522	3
523	2
524	4
525	6
526	2
527	4
528	5
529	7
530	3
531	6
532	9
533	5
534	5
535	8
536	3
537	7
538	2
539	6
540	5
541	1
542	6
543	9
544	3
545	4
546	9
547	8
548	5
549	9
550	2
551	8
552	5
553	8
554	9
555	5
556	3
557	2
558	6
559	3
560	1
561	5
562	9
563	9
564	7
565	5
566	2
567	2
568	5
569	8
570	8
571	3
572	6
573	7
574	9
575	2
576	2
577	9
578	1
579	6
580	6
581	8
582	7
583	9
584	1
585	2
586	9
587	4
588	8
589	9
590	5
591	2
592	8
593	3
594	7
595	2
596	5
597	4
598	6
599	6
600	8
601	1
602	3
603	6
604	3
605	6
606	7
607	4
608	6
609	3
610	8
611	6
612	5
613	4
614	3
615	7
616	5
617	6
618	5
619	5
620	9
621	6
622	9
623	9
624	9
625	1
626	5
627	2
628	2
629	1
630	2
631	8
632	2
633	1
634	3
635	8
636	1
637	9
638	3
639	4
640	8
641	3
642	3
643	4
644	9
645	3
646	5
647	9
648	5
649	8
650	5
651	7
652	5
653	6
654	7
655	4
656	8
657	5
658	9
659	5
660	3
661	1
662	8
663	4
664	2
665	7
666	1
667	3
668	5
669	7
670	6
671	3
672	6
673	4
674	8
675	6
676	7
677	8
678	4
679	1
680	4
681	3
682	8
683	1
684	3
685	2
686	2
687	2
688	8
689	7
690	2
691	7
692	7
693	2
694	4
695	5
696	7
697	2
698	3
699	4
700	3
701	3
702	8
703	7
704	8
705	1
706	2
707	1
708	2
709	5
710	7
711	8
712	2
713	3
714	7
715	8
716	2
717	6
718	8
719	2
720	6
721	8
722	6
723	9
724	2
725	4
726	2
727	7
728	9
729	6
730	1
731	4
732	5
733	8
734	9
735	6
736	4
737	6
738	8
739	2
740	3
741	7
742	8
743	7
744	8
745	7
746	3
747	6
748	1
749	3
750	7
751	8
752	3
753	9
754	2
755	4
756	1
757	4
758	3
759	2
760	4
761	3
762	5
763	9
764	9
765	9
766	3
767	1
768	8
769	2
770	2
771	5
772	2
773	6
774	4
775	8
776	4
777	4
778	6
779	1
780	9
781	9
782	2
783	4
784	4
785	1
786	3
787	1
788	4
789	7
790	7
791	9
792	7
793	3
794	6
795	2
796	5
797	7
798	4
799	3
800	4
801	7
802	1
803	4
804	6
805	8
806	9
807	3
808	6
809	8
810	4
811	8
812	9
813	4
814	1
815	4
816	7
817	2
818	1
819	1
820	2
821	4
822	1
823	2
824	1
825	1
826	7
827	8
828	5
829	7
830	9
831	2
832	4
833	8
834	9
835	9
836	9
837	3
838	5
839	9
840	6
841	4
842	6
843	1
844	9
845	8
846	9
847	2
848	9
849	2
850	2
851	6
852	6
853	4
854	8
855	6
856	7
857	1
858	6
859	9
860	9
861	5
862	1
863	1
864	9
865	6
866	7
867	7
868	2
869	5
870	1
871	8
872	2
873	8
874	5
875	7
876	6
877	1
878	4
879	3
880	9
881	5
882	8
883	9
884	8
885	3
886	7
887	6
888	9
889	8
890	2
891	4
892	3
893	6
894	8
895	6
896	7
897	3
898	5
899	1
900	3
901	7
902	5
903	5
904	1
905	4
906	9
907	1
908	5
909	9
910	1
911	3
912	6
913	8
914	6
915	4
916	8
917	8
918	7
919	9
920	2
921	2
922	1
923	2
924	1
925	3
926	6
927	7
928	1
929	5
930	6
931	2
932	8
933	7
934	2
935	5
936	5
937	2
938	7
939	3
940	2
941	9
942	7
943	6
944	3
945	7
946	7
947	5
948	2
949	6
950	9
951	2
952	8
953	7
954	4
955	2
956	6
957	1
958	6
959	6
960	6
961	1
962	9
963	5
964	1
965	1
966	4
967	7
968	3
969	2
970	6
971	7
972	1
973	7
974	2
975	3
976	1
977	5
978	6
979	3
980	2
981	5
982	1
983	7
984	4
985	1
986	3
987	1
988	2
989	7
990	5
991	5
992	2
993	5
994	6
995	3
996	4
997	4
998	9
999	8
1000	8
1001	7
BACKHAUL_SECTION
5	13	18	31	32	34	39	41	45	49	52	69	74	77	80	83	94	95	98	101	107	114	115	121	124	128	133	141	143	146	158	162	163	171	184	187	190	194	199	216	217	223	225	226	236	239	245	249	254	255	261	262	265	271	275	277	279	282	283	284	313	326	327	330	332	344	348	349	351	352	353	357	364	369	375	376	377	380	382	386	391	392	402	405	408	416	418	422	426	427	431	436	441	447	451	453	454	462	476	488	489	501	503	510	512	525	527	529	535	539	548	556	570	580	588	593	594	601	603	605	609	617	618	620	629	630	633	635	638	643	645	652	655	658	664	665	667	675	676	684	690	707	718	719	721	723	738	739	740	744	754	759	760	764	776	777	778	779	780	783	800	802	804	807	809	819	821	822	828	843	847	848	860	864	866	873	874	875	876	880	884	888	890	893	900	910	920	924	929	931	937	946	948	950	961	970	980	984	989	991	-1
DEPOT_SECTION
1
-1
EOF
