NAME : n1001-0004
COMMENT : "Generated by pyvrp_manuel (VRPB)"
TYPE : VRPB
DIMENSION : 1001
EDGE_WEIGHT_TYPE : EUC_2D
CAPACITY : 150
VEHICLES : 1000
NODE_COORD_SECTION
1	540	921
2	427	338
3	599	112
4	882	624
5	742	22
6	644	768
7	616	629
8	224	805
9	303	751
10	463	386
11	878	671
12	73	550
13	619	598
14	652	91
15	719	892
16	310	27
17	138	123
18	640	28
19	158	939
20	582	596
21	513	237
22	866	15
23	987	494
24	216	844
25	581	309
26	266	576
27	352	54
28	351	986
29	191	311
30	922	957
31	536	741
32	8	15
33	486	393
34	25	437
35	98	514
36	82	516
37	137	892
38	385	476
39	731	164
40	501	401
41	739	625
42	689	392
43	100	230
44	669	44
45	520	156
46	520	795
47	537	327
48	646	892
49	300	217
50	601	551
51	136	9
52	640	167
53	783	616
54	261	816
55	544	875
56	723	557
57	926	467
58	613	83
59	239	997
60	533	552
61	743	405
62	759	209
63	169	948
64	736	519
65	636	197
66	83	390
67	211	868
68	618	597
69	741	603
70	444	711
71	310	660
72	513	813
73	613	973
74	888	129
75	976	999
76	947	331
77	891	668
78	426	703
79	937	982
80	949	886
81	540	290
82	59	905
83	524	480
84	579	90
85	218	700
86	26	125
87	233	487
88	657	877
89	167	968
90	51	581
91	6	25
92	643	441
93	427	893
94	362	626
95	150	484
96	232	701
97	535	344
98	929	391
99	61	830
100	621	337
101	80	348
102	409	698
103	500	570
104	308	68
105	771	764
106	168	776
107	477	993
108	817	827
109	316	957
110	455	968
111	526	840
112	797	750
113	735	4
114	56	467
115	247	841
116	779	561
117	424	342
118	84	929
119	477	649
120	619	439
121	896	857
122	318	263
123	585	470
124	925	173
125	826	205
126	76	370
127	294	393
128	168	190
129	773	404
130	387	856
131	778	72
132	745	827
133	709	723
134	500	588
135	57	356
136	629	81
137	133	251
138	444	810
139	105	691
140	366	148
141	612	657
142	191	787
143	529	408
144	419	659
145	64	948
146	493	815
147	50	518
148	861	702
149	407	75
150	10	746
151	876	178
152	673	951
153	350	375
154	846	508
155	707	512
156	501	117
157	162	33
158	939	283
159	498	313
160	86	937
161	319	115
162	101	53
163	502	369
164	468	322
165	152	923
166	461	517
167	858	108
168	791	765
169	570	394
170	412	907
171	82	127
172	129	503
173	784	944
174	717	319
175	900	412
176	444	556
177	399	806
178	632	843
179	61	979
180	770	965
181	631	175
182	541	781
183	707	820
184	651	95
185	490	855
186	515	101
187	22	16
188	630	743
189	946	616
190	599	371
191	176	674
192	271	121
193	44	754
194	248	831
195	740	873
196	40	167
197	239	690
198	545	579
199	800	199
200	395	143
201	880	402
202	809	378
203	866	932
204	910	660
205	678	513
206	553	119
207	778	745
208	691	590
209	744	613
210	758	549
211	849	908
212	431	534
213	802	792
214	125	292
215	196	213
216	100	838
217	893	900
218	685	948
219	935	471
220	710	370
221	584	217
222	443	903
223	21	136
224	763	418
225	467	165
226	705	868
227	258	651
228	84	856
229	16	858
230	149	97
231	270	363
232	746	57
233	271	185
234	789	528
235	286	419
236	558	440
237	311	12
238	402	966
239	935	158
240	470	340
241	180	106
242	497	555
243	509	337
244	529	401
245	498	844
246	484	381
247	491	837
248	703	856
249	343	451
250	880	877
251	494	208
252	528	604
253	649	65
254	850	476
255	545	533
256	798	462
257	570	737
258	696	172
259	676	1
260	370	698
261	201	300
262	786	18
263	469	449
264	913	315
265	725	481
266	131	507
267	508	448
268	756	207
269	43	966
270	970	547
271	106	626
272	478	323
273	183	927
274	995	978
275	763	641
276	601	110
277	290	623
278	855	719
279	597	532
280	388	974
281	129	33
282	759	167
283	901	561
284	686	971
285	872	964
286	200	258
287	979	483
288	772	281
289	244	229
290	244	600
291	668	111
292	918	363
293	879	674
294	932	673
295	804	67
296	594	585
297	27	809
298	260	622
299	242	140
300	277	236
301	248	547
302	731	118
303	274	971
304	16	348
305	694	732
306	90	838
307	463	37
308	881	666
309	549	383
310	621	192
311	660	349
312	935	223
313	918	540
314	650	918
315	525	23
316	464	308
317	10	985
318	781	813
319	560	779
320	133	398
321	275	858
322	441	650
323	55	311
324	626	961
325	806	626
326	16	290
327	157	988
328	335	238
329	793	495
330	474	495
331	514	399
332	326	172
333	370	99
334	698	86
335	421	253
336	564	937
337	522	208
338	118	988
339	815	183
340	276	817
341	435	792
342	36	473
343	367	402
344	575	487
345	480	887
346	870	632
347	168	442
348	477	158
349	930	829
350	808	890
351	707	686
352	434	933
353	694	499
354	860	831
355	92	50
356	134	288
357	837	403
358	906	25
359	524	378
360	663	941
361	504	980
362	824	523
363	59	285
364	330	549
365	930	409
366	774	861
367	542	87
368	151	188
369	410	405
370	153	470
371	5	442
372	346	311
373	438	990
374	271	787
375	320	528
376	809	842
377	193	790
378	856	373
379	415	306
380	393	852
381	422	346
382	55	536
383	766	483
384	973	504
385	248	510
386	518	210
387	658	425
388	345	815
389	155	627
390	728	30
391	700	182
392	278	171
393	138	393
394	912	276
395	358	754
396	280	46
397	168	665
398	567	616
399	114	329
400	611	861
401	841	653
402	953	580
403	90	197
404	17	835
405	956	572
406	883	6
407	592	847
408	659	993
409	512	64
410	613	183
411	114	49
412	151	707
413	841	366
414	205	321
415	892	239
416	791	679
417	419	917
418	823	161
419	871	281
420	243	505
421	41	925
422	811	175
423	363	808
424	907	105
425	16	723
426	949	251
427	370	997
428	956	813
429	339	302
430	158	377
431	443	296
432	944	532
433	953	118
434	491	183
435	75	767
436	545	676
437	124	17
438	322	393
439	590	207
440	5	668
441	850	794
442	197	801
443	720	213
444	351	897
445	631	870
446	517	808
447	39	90
448	853	128
449	271	878
450	297	46
451	951	592
452	801	861
453	518	20
454	251	662
455	940	576
456	994	789
457	54	522
458	540	166
459	694	963
460	290	266
461	487	527
462	620	576
463	51	919
464	975	137
465	385	820
466	572	675
467	475	836
468	559	390
469	52	72
470	55	846
471	271	262
472	140	919
473	398	349
474	367	563
475	892	185
476	621	807
477	664	743
478	247	963
479	683	966
480	86	279
481	52	180
482	867	973
483	459	234
484	423	863
485	596	251
486	244	398
487	73	991
488	477	699
489	216	264
490	555	513
491	970	365
492	786	471
493	711	53
494	896	191
495	738	303
496	897	746
497	984	37
498	389	506
499	275	423
500	478	254
501	473	268
502	442	834
503	733	402
504	494	734
505	287	757
506	643	943
507	661	485
508	802	792
509	676	568
510	893	549
511	290	939
512	755	736
513	64	988
514	922	829
515	695	58
516	973	912
517	573	511
518	39	611
519	840	218
520	752	852
521	700	27
522	309	69
523	836	995
524	814	994
525	680	592
526	485	890
527	386	549
528	780	7
529	873	536
530	855	766
531	953	137
532	672	798
533	698	703
534	95	219
535	90	518
536	88	51
537	114	218
538	865	373
539	967	769
540	778	530
541	372	140
542	461	569
543	910	750
544	68	312
545	978	184
546	796	661
547	976	20
548	186	760
549	244	740
550	368	752
551	843	778
552	687	564
553	345	327
554	518	543
555	694	872
556	575	293
557	960	703
558	581	309
559	612	397
560	71	953
561	250	973
562	555	353
563	946	69
564	372	489
565	90	280
566	317	218
567	698	392
568	393	847
569	719	158
570	37	5
571	354	518
572	229	382
573	722	422
574	263	512
575	757	372
576	550	913
577	75	163
578	839	923
579	541	331
580	812	348
581	273	51
582	63	592
583	16	838
584	671	540
585	92	328
586	777	917
587	398	613
588	596	429
589	32	920
590	192	152
591	898	796
592	29	747
593	692	194
594	440	739
595	774	164
596	15	968
597	793	159
598	985	530
599	654	90
600	853	786
601	818	18
602	301	655
603	680	31
604	701	426
605	528	48
606	211	136
607	612	244
608	769	656
609	243	105
610	261	22
611	481	611
612	562	41
613	927	916
614	22	84
615	565	825
616	378	111
617	513	722
618	863	872
619	903	376
620	305	32
621	34	200
622	216	946
623	570	406
624	273	2
625	311	833
626	815	191
627	355	858
628	570	695
629	633	393
630	107	86
631	495	996
632	166	29
633	894	744
634	35	313
635	549	463
636	205	824
637	661	187
638	150	656
639	179	504
640	104	15
641	838	606
642	604	635
643	201	461
644	261	236
645	116	979
646	419	725
647	261	124
648	527	277
649	190	358
650	140	605
651	672	581
652	84	764
653	301	828
654	843	356
655	905	647
656	370	490
657	295	632
658	244	996
659	731	223
660	537	56
661	400	614
662	888	445
663	28	206
664	764	150
665	961	337
666	911	422
667	604	803
668	894	522
669	606	272
670	332	133
671	290	164
672	520	51
673	690	575
674	176	381
675	572	936
676	232	582
677	769	400
678	797	924
679	300	408
680	238	227
681	561	190
682	762	844
683	285	303
684	453	67
685	6	544
686	659	484
687	286	581
688	473	754
689	366	804
690	939	872
691	785	146
692	108	347
693	717	508
694	563	664
695	469	31
696	292	233
697	695	758
698	252	710
699	24	230
700	915	473
701	162	871
702	774	204
703	925	601
704	858	981
705	184	686
706	992	174
707	422	34
708	678	669
709	232	453
710	122	764
711	684	704
712	525	258
713	353	659
714	505	563
715	388	225
716	676	289
717	448	695
718	965	559
719	110	583
720	195	324
721	382	939
722	153	718
723	320	16
724	947	891
725	532	125
726	185	61
727	291	126
728	304	813
729	815	340
730	500	571
731	321	40
732	496	990
733	754	423
734	299	565
735	357	274
736	814	88
737	618	901
738	920	943
739	592	517
740	968	143
741	148	436
742	110	809
743	974	879
744	503	246
745	454	709
746	433	657
747	832	922
748	727	615
749	158	124
750	822	706
751	318	61
752	936	414
753	112	488
754	383	334
755	197	991
756	221	549
757	206	841
758	890	842
759	258	595
760	735	11
761	417	265
762	521	56
763	594	453
764	999	939
765	379	692
766	416	917
767	169	821
768	215	503
769	403	156
770	963	481
771	369	746
772	697	54
773	45	427
774	664	430
775	135	895
776	699	701
777	882	914
778	390	678
779	119	906
780	822	842
781	513	177
782	368	476
783	453	998
784	890	48
785	862	117
786	410	788
787	466	407
788	524	412
789	232	329
790	585	281
791	752	38
792	391	132
793	373	760
794	627	475
795	734	816
796	933	34
797	813	406
798	510	128
799	844	256
800	864	877
801	349	687
802	531	98
803	164	731
804	279	916
805	321	183
806	785	714
807	15	197
808	335	108
809	148	324
810	21	970
811	475	257
812	776	26
813	313	281
814	588	10
815	440	245
816	881	552
817	674	23
818	433	530
819	3	171
820	752	568
821	488	244
822	514	668
823	561	135
824	55	731
825	637	681
826	250	647
827	246	385
828	216	684
829	55	651
830	463	167
831	307	690
832	436	583
833	248	28
834	319	323
835	146	214
836	898	713
837	792	438
838	456	123
839	34	626
840	167	547
841	92	121
842	105	706
843	982	271
844	124	7
845	493	323
846	807	977
847	567	871
848	216	158
849	275	162
850	319	476
851	594	224
852	834	7
853	80	406
854	564	697
855	569	98
856	593	667
857	410	205
858	999	643
859	538	322
860	765	155
861	394	290
862	884	658
863	20	566
864	134	779
865	367	883
866	546	173
867	896	352
868	455	706
869	753	233
870	879	518
871	52	562
872	484	9
873	282	623
874	863	570
875	93	334
876	824	344
877	266	455
878	507	979
879	245	544
880	113	150
881	97	187
882	929	706
883	289	186
884	76	293
885	384	219
886	820	951
887	120	246
888	151	785
889	387	294
890	927	752
891	545	31
892	309	141
893	155	401
894	65	820
895	995	104
896	277	167
897	626	894
898	886	293
899	487	334
900	106	982
901	451	64
902	660	900
903	156	720
904	848	286
905	608	771
906	382	682
907	439	202
908	307	823
909	66	365
910	349	382
911	363	276
912	90	616
913	725	963
914	979	578
915	360	739
916	996	149
917	551	753
918	607	254
919	693	844
920	129	33
921	945	451
922	788	777
923	95	90
924	117	908
925	465	146
926	470	323
927	746	868
928	652	514
929	754	23
930	284	50
931	703	700
932	605	218
933	266	655
934	505	224
935	92	673
936	400	378
937	413	918
938	194	679
939	392	512
940	689	571
941	881	520
942	797	838
943	427	191
944	838	20
945	140	305
946	321	376
947	272	509
948	875	983
949	983	742
950	998	961
951	87	156
952	715	168
953	723	265
954	663	394
955	815	490
956	984	872
957	297	385
958	539	701
959	936	418
960	94	764
961	197	400
962	77	936
963	841	634
964	625	293
965	466	61
966	435	355
967	124	208
968	932	565
969	840	349
970	657	321
971	383	584
972	349	414
973	175	872
974	191	814
975	251	943
976	732	383
977	645	372
978	955	747
979	525	504
980	418	451
981	327	12
982	693	504
983	493	546
984	860	54
985	266	248
986	797	205
987	505	393
988	760	914
989	627	542
990	651	457
991	466	221
992	52	289
993	776	350
994	773	881
995	389	784
996	985	535
997	441	679
998	22	845
999	832	793
1000	139	301
1001	765	398
DEMAND_SECTION
1	0
2	6
3	9
4	2
5	2
6	8
7	4
8	9
9	7
10	7
11	8
12	3
13	2
14	7
15	8
16	4
17	4
18	9
19	4
20	7
21	5
22	1
23	2
24	8
25	6
26	1
27	3
28	3
29	1
30	1
31	6
32	5
33	8
34	4
35	3
36	8
37	2
38	7
39	1
40	7
41	7
42	1
43	7
44	4
45	7
46	6
47	6
48	5
49	1
50	7
51	4
52	4
53	5
54	1
55	2
56	7
57	3
58	2
59	2
60	2
61	4
62	1
63	4
64	9
65	5
66	1
67	9
68	4
69	1
70	6
71	1
72	2
73	3
74	7
75	7
76	6
77	2
78	7
79	3
80	7
81	5
82	7
83	6
84	6
85	9
86	2
87	9
88	4
89	8
90	6
91	1
92	4
93	6
94	3
95	4
96	2
97	5
98	4
99	5
100	2
101	4
102	5
103	6
104	5
105	1
106	2
107	8
108	4
109	2
110	9
111	5
112	9
113	3
114	5
115	7
116	4
117	4
118	1
119	3
120	6
121	8
122	1
123	5
124	6
125	4
126	8
127	9
128	2
129	3
130	4
131	6
132	7
133	6
134	5
135	3
136	5
137	3
138	8
139	6
140	1
141	2
142	5
143	9
144	6
145	1
146	9
147	2
148	1
149	7
150	2
151	5
152	1
153	6
154	4
155	4
156	9
157	1
158	6
159	9
160	4
161	5
162	3
163	8
164	7
165	2
166	6
167	8
168	8
169	8
170	5
171	7
172	8
173	5
174	3
175	1
176	5
177	8
178	5
179	1
180	8
181	4
182	5
183	6
184	8
185	7
186	1
187	8
188	3
189	5
190	1
191	9
192	9
193	2
194	3
195	9
196	4
197	6
198	5
199	9
200	9
201	4
202	6
203	3
204	3
205	3
206	9
207	3
208	7
209	8
210	7
211	9
212	7
213	5
214	7
215	1
216	1
217	7
218	7
219	7
220	8
221	8
222	1
223	4
224	2
225	6
226	7
227	7
228	3
229	5
230	2
231	1
232	6
233	7
234	1
235	7
236	8
237	3
238	9
239	7
240	8
241	6
242	2
243	5
244	9
245	4
246	7
247	1
248	6
249	1
250	2
251	6
252	4
253	1
254	6
255	7
256	7
257	7
258	9
259	3
260	4
261	3
262	5
263	6
264	6
265	4
266	3
267	4
268	9
269	3
270	6
271	5
272	8
273	4
274	9
275	2
276	2
277	6
278	5
279	3
280	8
281	7
282	6
283	2
284	9
285	5
286	8
287	8
288	6
289	7
290	6
291	6
292	6
293	8
294	6
295	4
296	2
297	3
298	9
299	1
300	3
301	6
302	6
303	2
304	4
305	7
306	7
307	2
308	8
309	8
310	5
311	6
312	8
313	8
314	6
315	7
316	4
317	1
318	2
319	1
320	2
321	4
322	6
323	3
324	8
325	8
326	6
327	5
328	9
329	9
330	7
331	3
332	7
333	3
334	4
335	6
336	7
337	5
338	1
339	6
340	8
341	6
342	9
343	6
344	7
345	5
346	2
347	3
348	9
349	5
350	5
351	6
352	7
353	3
354	1
355	7
356	6
357	2
358	4
359	3
360	1
361	4
362	2
363	7
364	9
365	1
366	3
367	6
368	8
369	7
370	8
371	3
372	7
373	2
374	6
375	3
376	5
377	6
378	8
379	1
380	8
381	7
382	4
383	3
384	5
385	2
386	5
387	1
388	3
389	6
390	8
391	2
392	4
393	6
394	1
395	8
396	3
397	5
398	2
399	1
400	7
401	8
402	7
403	4
404	3
405	6
406	9
407	4
408	2
409	4
410	4
411	4
412	5
413	6
414	7
415	1
416	7
417	7
418	4
419	8
420	7
421	6
422	6
423	6
424	3
425	7
426	5
427	7
428	1
429	2
430	1
431	3
432	6
433	9
434	1
435	2
436	6
437	9
438	3
439	4
440	1
441	5
442	9
443	2
444	2
445	7
446	4
447	8
448	8
449	9
450	5
451	8
452	5
453	7
454	4
455	8
456	5
457	5
458	9
459	3
460	7
461	1
462	6
463	4
464	4
465	5
466	2
467	7
468	1
469	1
470	8
471	4
472	1
473	5
474	1
475	5
476	7
477	6
478	7
479	6
480	8
481	5
482	9
483	8
484	1
485	3
486	4
487	1
488	5
489	7
490	1
491	2
492	5
493	9
494	2
495	5
496	2
497	8
498	6
499	5
500	5
501	2
502	4
503	6
504	4
505	3
506	4
507	2
508	2
509	6
510	3
511	6
512	6
513	4
514	5
515	3
516	4
517	2
518	3
519	1
520	3
521	4
522	1
523	1
524	3
525	3
526	9
527	1
528	3
529	3
530	5
531	6
532	4
533	8
534	7
535	7
536	1
537	9
538	6
539	9
540	3
541	8
542	7
543	2
544	9
545	8
546	1
547	7
548	1
549	1
550	4
551	2
552	3
553	8
554	1
555	8
556	3
557	7
558	9
559	8
560	5
561	4
562	6
563	6
564	6
565	7
566	1
567	2
568	5
569	4
570	7
571	3
572	5
573	8
574	3
575	1
576	8
577	3
578	3
579	7
580	9
581	3
582	1
583	7
584	9
585	8
586	2
587	6
588	1
589	3
590	8
591	8
592	9
593	2
594	1
595	4
596	6
597	6
598	2
599	6
600	5
601	8
602	8
603	1
604	1
605	8
606	3
607	4
608	7
609	8
610	9
611	5
612	5
613	5
614	7
615	1
616	9
617	6
618	2
619	2
620	9
621	6
622	2
623	6
624	6
625	3
626	2
627	2
628	3
629	1
630	9
631	7
632	3
633	3
634	6
635	5
636	9
637	7
638	3
639	2
640	4
641	9
642	4
643	5
644	1
645	8
646	3
647	4
648	1
649	7
650	7
651	6
652	5
653	6
654	2
655	5
656	4
657	2
658	5
659	9
660	6
661	2
662	2
663	2
664	3
665	9
666	6
667	3
668	1
669	4
670	3
671	4
672	2
673	9
674	3
675	1
676	5
677	1
678	2
679	7
680	7
681	7
682	1
683	3
684	1
685	6
686	3
687	6
688	4
689	3
690	9
691	6
692	5
693	5
694	5
695	6
696	6
697	4
698	2
699	3
700	7
701	6
702	4
703	4
704	4
705	9
706	8
707	2
708	6
709	1
710	3
711	8
712	7
713	4
714	6
715	4
716	7
717	6
718	2
719	3
720	4
721	5
722	3
723	8
724	2
725	4
726	3
727	1
728	4
729	5
730	1
731	1
732	6
733	4
734	2
735	8
736	4
737	4
738	7
739	3
740	3
741	1
742	4
743	5
744	3
745	1
746	6
747	3
748	8
749	4
750	6
751	9
752	8
753	7
754	6
755	8
756	2
757	7
758	9
759	4
760	2
761	2
762	8
763	5
764	7
765	1
766	2
767	8
768	7
769	6
770	6
771	1
772	8
773	7
774	5
775	8
776	5
777	7
778	4
779	6
780	8
781	2
782	9
783	6
784	3
785	1
786	2
787	9
788	4
789	8
790	4
791	9
792	9
793	7
794	2
795	4
796	9
797	1
798	8
799	2
800	4
801	6
802	3
803	8
804	3
805	6
806	8
807	8
808	3
809	8
810	2
811	4
812	6
813	1
814	1
815	5
816	7
817	9
818	9
819	7
820	9
821	8
822	7
823	8
824	1
825	5
826	7
827	9
828	6
829	1
830	4
831	8
832	1
833	6
834	5
835	6
836	9
837	4
838	4
839	7
840	9
841	3
842	5
843	8
844	3
845	1
846	1
847	8
848	9
849	3
850	5
851	3
852	4
853	6
854	9
855	7
856	6
857	5
858	9
859	2
860	2
861	2
862	5
863	4
864	3
865	7
866	3
867	3
868	1
869	7
870	5
871	4
872	5
873	6
874	4
875	5
876	1
877	9
878	1
879	8
880	7
881	4
882	3
883	4
884	7
885	9
886	7
887	9
888	1
889	9
890	8
891	8
892	3
893	6
894	3
895	5
896	6
897	7
898	8
899	8
900	7
901	3
902	7
903	9
904	5
905	3
906	8
907	2
908	9
909	9
910	7
911	6
912	5
913	9
914	6
915	7
916	4
917	5
918	9
919	2
920	6
921	4
922	1
923	9
924	7
925	4
926	9
927	3
928	7
929	7
930	6
931	2
932	7
933	1
934	5
935	6
936	6
937	8
938	4
939	8
940	8
941	3
942	7
943	4
944	4
945	9
946	5
947	2
948	5
949	6
950	4
951	7
952	8
953	1
954	4
955	7
956	7
957	4
958	5
959	3
960	5
961	4
962	1
963	2
964	9
965	4
966	2
967	8
968	1
969	4
970	6
971	1
972	6
973	1
974	4
975	2
976	4
977	5
978	1
979	1
980	9
981	1
982	4
983	5
984	3
985	7
986	9
987	7
988	1
989	8
990	9
991	3
992	6
993	1
994	6
995	3
996	5
997	8
998	3
999	4
1000	8
1001	1
BACKHAUL_SECTION
5	13	18	31	32	34	39	41	45	49	52	69	74	77	80	83	94	95	98	101	107	114	115	121	124	128	133	141	143	146	158	162	163	171	184	187	190	194	199	216	217	223	225	226	236	239	245	249	254	255	261	262	265	271	275	277	279	282	283	284	313	326	327	330	332	344	348	349	351	352	353	357	364	369	375	376	377	380	382	386	391	392	402	405	408	416	418	422	426	427	431	436	441	447	451	453	454	462	476	488	489	501	503	510	512	525	527	529	535	539	548	556	570	580	588	593	594	601	603	605	609	617	618	620	629	630	633	635	638	643	645	652	655	658	664	665	667	675	676	684	690	707	718	719	721	723	738	739	740	744	754	759	760	764	776	777	778	779	780	783	800	802	804	807	809	819	821	822	828	843	847	848	860	864	866	873	874	875	876	880	884	888	890	893	900	910	920	924	929	931	937	946	948	950	961	970	980	984	989	991	-1
DEPOT_SECTION
1
-1
EOF
