NAME : n1001-0008
COMMENT : "Generated by pyvrp_manuel (VRPB)"
TYPE : VRPB
DIMENSION : 1001
EDGE_WEIGHT_TYPE : EUC_2D
CAPACITY : 150
VEHICLES : 1000
NODE_COORD_SECTION
1	556	592
2	746	318
3	837	282
4	653	325
5	860	203
6	225	395
7	993	189
8	169	728
9	504	100
10	915	266
11	650	75
12	556	753
13	921	488
14	980	429
15	356	219
16	289	397
17	377	475
18	661	673
19	677	376
20	13	117
21	502	874
22	734	789
23	20	638
24	470	910
25	989	493
26	270	597
27	711	350
28	245	403
29	283	625
30	917	176
31	844	685
32	522	526
33	238	660
34	812	999
35	502	473
36	869	991
37	994	805
38	894	503
39	529	308
40	562	33
41	326	104
42	304	223
43	406	332
44	372	1
45	579	618
46	799	2
47	792	142
48	170	457
49	76	605
50	448	659
51	528	385
52	434	375
53	793	818
54	754	156
55	222	858
56	25	742
57	676	511
58	693	736
59	124	998
60	988	163
61	420	990
62	903	413
63	443	675
64	864	129
65	413	842
66	444	56
67	927	387
68	624	858
69	957	75
70	889	574
71	627	472
72	575	289
73	297	474
74	165	277
75	346	746
76	254	648
77	923	834
78	880	207
79	501	696
80	249	110
81	635	159
82	707	946
83	922	151
84	549	400
85	772	391
86	943	647
87	641	788
88	489	422
89	80	6
90	287	463
91	476	885
92	390	819
93	838	704
94	173	45
95	336	45
96	437	28
97	636	703
98	605	255
99	748	695
100	17	554
101	419	683
102	604	879
103	98	434
104	761	754
105	527	676
106	485	812
107	511	285
108	460	65
109	904	758
110	990	493
111	440	32
112	657	351
113	626	73
114	393	346
115	945	205
116	509	990
117	769	250
118	932	485
119	532	890
120	474	441
121	189	223
122	301	771
123	476	913
124	804	209
125	392	385
126	525	401
127	938	821
128	208	986
129	635	753
130	930	848
131	720	756
132	526	53
133	632	321
134	252	969
135	663	901
136	274	62
137	185	194
138	90	146
139	313	946
140	737	308
141	462	197
142	814	329
143	128	618
144	943	213
145	269	294
146	417	853
147	342	128
148	876	895
149	243	986
150	761	764
151	604	662
152	37	145
153	807	853
154	705	619
155	550	598
156	233	866
157	743	165
158	711	574
159	734	38
160	397	134
161	687	41
162	527	665
163	272	881
164	273	14
165	926	756
166	357	570
167	619	993
168	269	529
169	314	828
170	290	442
171	427	759
172	243	13
173	7	429
174	68	979
175	612	267
176	509	342
177	378	770
178	292	147
179	661	409
180	842	604
181	817	524
182	68	101
183	136	526
184	359	425
185	737	974
186	129	767
187	545	872
188	992	28
189	571	726
190	728	28
191	89	303
192	948	451
193	82	742
194	355	483
195	960	94
196	20	186
197	619	475
198	234	215
199	808	369
200	739	431
201	970	693
202	911	367
203	15	684
204	533	847
205	962	292
206	250	223
207	471	14
208	625	285
209	447	906
210	624	818
211	404	646
212	618	861
213	81	40
214	81	984
215	793	45
216	272	721
217	950	33
218	536	457
219	232	114
220	360	785
221	295	754
222	598	550
223	863	499
224	680	364
225	154	893
226	391	743
227	986	541
228	393	903
229	611	433
230	257	496
231	238	221
232	628	626
233	54	972
234	86	382
235	968	305
236	478	977
237	139	786
238	975	310
239	840	254
240	436	749
241	735	992
242	237	792
243	604	737
244	525	322
245	637	902
246	860	557
247	903	379
248	672	385
249	276	151
250	879	730
251	858	784
252	87	447
253	249	751
254	455	9
255	652	609
256	322	199
257	655	170
258	593	823
259	261	642
260	110	153
261	191	229
262	490	781
263	8	693
264	148	779
265	620	135
266	664	798
267	252	558
268	23	521
269	984	980
270	718	79
271	11	874
272	167	722
273	502	21
274	241	52
275	498	594
276	679	888
277	485	8
278	657	695
279	885	201
280	858	530
281	902	982
282	759	635
283	557	841
284	188	888
285	576	420
286	351	265
287	291	857
288	876	278
289	390	736
290	398	524
291	520	34
292	200	519
293	856	348
294	427	725
295	748	866
296	490	670
297	574	646
298	676	223
299	877	83
300	219	150
301	454	396
302	450	109
303	839	531
304	613	565
305	965	689
306	575	127
307	718	93
308	883	528
309	562	200
310	806	598
311	564	39
312	936	920
313	1	822
314	121	261
315	358	474
316	473	166
317	533	504
318	122	130
319	444	785
320	12	872
321	218	605
322	248	843
323	712	960
324	664	359
325	972	744
326	795	420
327	890	787
328	990	37
329	997	195
330	880	945
331	0	641
332	307	329
333	536	197
334	79	976
335	928	580
336	700	294
337	966	821
338	907	719
339	382	87
340	141	262
341	893	72
342	31	146
343	292	12
344	552	123
345	441	176
346	699	142
347	313	972
348	542	622
349	529	437
350	794	11
351	414	275
352	7	259
353	459	71
354	313	526
355	649	166
356	295	732
357	78	873
358	252	474
359	621	829
360	207	852
361	774	116
362	435	743
363	302	777
364	734	963
365	356	743
366	271	844
367	201	697
368	403	53
369	781	989
370	927	443
371	867	756
372	280	329
373	39	829
374	828	764
375	521	1
376	498	398
377	29	950
378	258	231
379	315	908
380	158	328
381	524	312
382	99	825
383	836	751
384	97	40
385	285	190
386	55	295
387	864	87
388	677	536
389	647	506
390	427	308
391	979	581
392	705	74
393	319	600
394	134	154
395	36	24
396	777	253
397	717	239
398	141	446
399	586	330
400	78	953
401	417	831
402	27	32
403	988	817
404	549	162
405	434	955
406	916	36
407	911	952
408	997	425
409	384	42
410	721	605
411	598	572
412	260	657
413	46	638
414	625	798
415	672	456
416	958	54
417	675	739
418	697	646
419	438	398
420	644	578
421	803	515
422	671	446
423	222	240
424	995	25
425	721	159
426	20	725
427	21	633
428	35	80
429	56	638
430	527	554
431	835	322
432	864	993
433	960	139
434	475	168
435	148	679
436	514	286
437	292	332
438	158	981
439	810	448
440	35	359
441	318	916
442	360	799
443	127	789
444	957	717
445	284	571
446	983	917
447	188	128
448	913	503
449	457	945
450	377	439
451	194	47
452	298	310
453	633	295
454	128	577
455	268	405
456	409	23
457	226	710
458	292	123
459	505	283
460	875	973
461	820	600
462	967	707
463	146	768
464	894	383
465	787	843
466	432	96
467	624	22
468	549	482
469	372	446
470	241	774
471	884	541
472	415	651
473	124	994
474	691	260
475	442	689
476	360	547
477	275	11
478	400	864
479	302	512
480	981	696
481	861	118
482	171	260
483	654	800
484	932	169
485	705	738
486	189	97
487	242	771
488	60	637
489	51	538
490	426	855
491	608	907
492	562	389
493	120	657
494	912	790
495	739	905
496	152	661
497	582	744
498	466	201
499	123	820
500	97	664
501	703	992
502	182	879
503	456	166
504	965	608
505	960	594
506	116	268
507	687	844
508	386	447
509	75	968
510	151	366
511	766	760
512	312	406
513	356	565
514	925	845
515	263	424
516	78	912
517	857	226
518	265	515
519	91	938
520	141	443
521	335	547
522	715	420
523	875	913
524	446	323
525	161	846
526	426	597
527	472	999
528	831	992
529	119	392
530	739	477
531	802	835
532	905	394
533	929	950
534	888	611
535	933	14
536	345	325
537	924	932
538	424	211
539	764	720
540	993	837
541	84	813
542	823	821
543	212	242
544	473	78
545	865	261
546	165	274
547	5	343
548	453	91
549	768	234
550	852	388
551	360	949
552	750	9
553	862	740
554	527	893
555	270	628
556	380	739
557	528	920
558	429	886
559	999	906
560	211	364
561	381	401
562	441	288
563	741	561
564	352	32
565	616	566
566	65	196
567	244	174
568	44	89
569	774	783
570	928	324
571	689	119
572	565	443
573	994	941
574	494	27
575	134	451
576	660	847
577	56	792
578	470	16
579	78	925
580	578	289
581	70	137
582	312	684
583	901	383
584	791	538
585	726	888
586	134	866
587	982	145
588	955	233
589	50	622
590	817	620
591	112	934
592	540	764
593	303	660
594	653	103
595	123	509
596	858	883
597	941	181
598	80	123
599	253	388
600	153	716
601	376	630
602	586	699
603	191	651
604	78	598
605	562	638
606	262	319
607	89	475
608	285	10
609	811	468
610	350	597
611	216	948
612	934	898
613	98	92
614	185	396
615	313	744
616	830	846
617	905	316
618	436	301
619	262	129
620	839	39
621	73	843
622	57	235
623	983	667
624	203	725
625	212	466
626	346	923
627	390	618
628	10	668
629	217	546
630	79	38
631	126	799
632	56	675
633	850	499
634	263	364
635	668	239
636	509	384
637	203	908
638	872	966
639	232	663
640	699	470
641	311	243
642	131	809
643	11	10
644	364	797
645	140	870
646	495	635
647	850	429
648	897	357
649	778	495
650	443	355
651	740	797
652	819	566
653	238	281
654	726	723
655	15	4
656	55	98
657	817	419
658	339	504
659	41	177
660	338	499
661	391	841
662	632	805
663	770	747
664	260	490
665	390	261
666	82	140
667	536	840
668	703	57
669	946	633
670	43	778
671	298	207
672	213	870
673	460	313
674	36	935
675	490	821
676	427	342
677	396	645
678	959	192
679	385	261
680	573	643
681	965	769
682	806	434
683	255	784
684	909	249
685	522	415
686	802	732
687	294	791
688	128	55
689	740	993
690	81	533
691	329	634
692	734	635
693	840	640
694	400	322
695	655	985
696	638	96
697	487	65
698	359	147
699	44	37
700	982	603
701	361	877
702	52	843
703	611	42
704	877	667
705	918	450
706	671	565
707	43	866
708	366	347
709	226	589
710	501	979
711	565	64
712	547	580
713	591	763
714	357	228
715	695	568
716	671	15
717	356	919
718	638	250
719	726	128
720	440	961
721	184	963
722	735	193
723	795	805
724	351	634
725	42	282
726	853	288
727	815	940
728	889	710
729	652	719
730	645	945
731	44	284
732	975	360
733	912	423
734	484	754
735	697	543
736	439	829
737	3	304
738	262	424
739	740	239
740	418	325
741	474	46
742	489	559
743	221	737
744	81	980
745	660	287
746	105	32
747	663	565
748	400	883
749	392	45
750	450	703
751	531	204
752	664	908
753	221	451
754	5	849
755	306	896
756	273	659
757	763	18
758	623	234
759	395	797
760	171	86
761	246	454
762	309	662
763	541	455
764	888	874
765	831	232
766	542	166
767	172	226
768	932	93
769	427	734
770	306	873
771	859	578
772	99	38
773	620	831
774	488	977
775	627	245
776	56	670
777	750	766
778	594	827
779	694	894
780	103	958
781	889	789
782	112	278
783	121	211
784	618	855
785	205	469
786	196	784
787	397	640
788	825	213
789	451	517
790	178	780
791	119	863
792	636	214
793	223	733
794	506	292
795	393	308
796	199	341
797	631	3
798	386	364
799	166	421
800	379	772
801	249	214
802	285	71
803	441	729
804	13	85
805	406	682
806	897	602
807	116	591
808	764	112
809	405	324
810	779	823
811	275	783
812	640	825
813	727	601
814	788	257
815	501	423
816	567	562
817	91	875
818	177	393
819	163	946
820	612	606
821	398	796
822	609	877
823	106	244
824	642	541
825	274	683
826	841	224
827	197	154
828	562	928
829	716	539
830	57	229
831	431	374
832	708	374
833	48	986
834	94	22
835	420	73
836	196	533
837	182	69
838	489	203
839	176	244
840	721	6
841	417	279
842	838	980
843	284	880
844	582	819
845	520	239
846	589	432
847	329	855
848	127	306
849	592	843
850	717	581
851	709	142
852	713	727
853	601	723
854	954	614
855	551	142
856	55	603
857	28	238
858	894	351
859	785	65
860	92	810
861	758	891
862	521	532
863	626	151
864	557	319
865	551	132
866	47	492
867	971	578
868	585	314
869	142	122
870	395	966
871	956	187
872	615	963
873	90	578
874	709	934
875	628	191
876	437	46
877	336	689
878	490	225
879	691	482
880	39	677
881	674	985
882	114	212
883	758	669
884	826	162
885	949	975
886	854	577
887	847	811
888	402	700
889	402	316
890	576	56
891	401	512
892	155	237
893	490	892
894	694	465
895	470	102
896	835	369
897	335	172
898	138	297
899	661	19
900	718	604
901	182	388
902	725	338
903	396	118
904	90	206
905	130	529
906	892	960
907	491	880
908	155	364
909	692	936
910	140	245
911	40	681
912	108	406
913	952	23
914	303	823
915	795	227
916	459	223
917	731	519
918	154	869
919	4	7
920	777	400
921	883	195
922	745	246
923	776	245
924	966	266
925	86	242
926	845	878
927	827	264
928	417	797
929	352	574
930	22	617
931	340	390
932	205	314
933	417	23
934	368	667
935	621	366
936	402	849
937	373	489
938	67	817
939	426	280
940	908	671
941	658	881
942	776	465
943	246	915
944	713	224
945	702	36
946	33	65
947	836	111
948	825	787
949	971	382
950	525	344
951	521	322
952	867	258
953	48	717
954	527	22
955	306	483
956	714	226
957	380	679
958	487	160
959	493	287
960	717	616
961	667	321
962	538	7
963	45	768
964	95	71
965	614	701
966	171	911
967	911	712
968	600	205
969	86	265
970	557	189
971	65	244
972	987	280
973	221	763
974	235	933
975	929	808
976	849	941
977	932	206
978	769	344
979	551	581
980	346	9
981	641	883
982	271	790
983	235	166
984	816	146
985	665	784
986	129	625
987	616	133
988	82	726
989	713	2
990	641	926
991	479	6
992	216	722
993	28	466
994	787	763
995	830	377
996	823	970
997	403	416
998	236	955
999	952	864
1000	205	5
1001	754	587
DEMAND_SECTION
1	0
2	8
3	8
4	6
5	5
6	4
7	1
8	5
9	1
10	6
11	3
12	2
13	1
14	8
15	4
16	9
17	8
18	7
19	3
20	1
21	8
22	6
23	7
24	5
25	7
26	4
27	9
28	1
29	6
30	4
31	7
32	4
33	5
34	8
35	8
36	8
37	5
38	8
39	6
40	1
41	7
42	9
43	2
44	7
45	3
46	6
47	3
48	7
49	7
50	8
51	2
52	6
53	9
54	2
55	7
56	1
57	5
58	2
59	3
60	3
61	9
62	5
63	9
64	7
65	7
66	7
67	8
68	2
69	7
70	2
71	1
72	2
73	6
74	5
75	6
76	7
77	7
78	6
79	7
80	7
81	3
82	1
83	2
84	8
85	6
86	2
87	5
88	1
89	3
90	6
91	3
92	7
93	7
94	6
95	4
96	5
97	3
98	9
99	3
100	8
101	8
102	6
103	6
104	6
105	7
106	9
107	7
108	2
109	9
110	2
111	3
112	9
113	1
114	1
115	9
116	6
117	9
118	3
119	9
120	7
121	1
122	3
123	9
124	8
125	2
126	2
127	4
128	7
129	8
130	5
131	4
132	7
133	4
134	4
135	6
136	7
137	6
138	8
139	9
140	4
141	2
142	6
143	8
144	7
145	4
146	9
147	6
148	1
149	6
150	2
151	4
152	7
153	4
154	4
155	6
156	1
157	2
158	1
159	6
160	8
161	8
162	4
163	6
164	4
165	8
166	9
167	1
168	3
169	5
170	3
171	3
172	1
173	5
174	5
175	7
176	4
177	8
178	7
179	6
180	7
181	1
182	8
183	8
184	3
185	6
186	1
187	8
188	2
189	9
190	6
191	5
192	2
193	9
194	8
195	8
196	3
197	4
198	9
199	9
200	9
201	4
202	9
203	4
204	9
205	1
206	9
207	5
208	4
209	8
210	8
211	2
212	4
213	9
214	8
215	3
216	1
217	4
218	5
219	3
220	2
221	8
222	1
223	1
224	9
225	4
226	4
227	1
228	5
229	6
230	4
231	1
232	8
233	3
234	2
235	1
236	2
237	9
238	2
239	5
240	3
241	8
242	2
243	6
244	9
245	5
246	3
247	4
248	5
249	3
250	2
251	7
252	2
253	9
254	8
255	6
256	8
257	3
258	7
259	1
260	6
261	1
262	5
263	9
264	9
265	2
266	8
267	3
268	4
269	5
270	5
271	5
272	3
273	8
274	7
275	4
276	4
277	2
278	9
279	3
280	9
281	8
282	5
283	2
284	5
285	3
286	4
287	9
288	7
289	3
290	5
291	1
292	1
293	8
294	8
295	6
296	7
297	5
298	6
299	3
300	5
301	3
302	5
303	8
304	8
305	2
306	1
307	3
308	2
309	5
310	3
311	9
312	8
313	9
314	1
315	5
316	5
317	1
318	6
319	7
320	4
321	6
322	4
323	8
324	6
325	5
326	4
327	7
328	8
329	6
330	8
331	4
332	7
333	3
334	8
335	1
336	6
337	4
338	6
339	3
340	8
341	9
342	6
343	4
344	1
345	5
346	1
347	7
348	8
349	3
350	7
351	2
352	1
353	1
354	1
355	1
356	9
357	9
358	3
359	5
360	1
361	7
362	2
363	5
364	2
365	5
366	2
367	8
368	4
369	3
370	8
371	3
372	8
373	9
374	1
375	2
376	4
377	4
378	2
379	3
380	6
381	5
382	7
383	4
384	4
385	9
386	9
387	2
388	2
389	3
390	3
391	1
392	1
393	1
394	1
395	7
396	9
397	2
398	3
399	3
400	4
401	8
402	5
403	8
404	1
405	8
406	7
407	2
408	9
409	6
410	2
411	5
412	6
413	7
414	6
415	3
416	8
417	2
418	4
419	1
420	7
421	6
422	8
423	1
424	8
425	1
426	9
427	2
428	9
429	2
430	7
431	3
432	4
433	6
434	4
435	1
436	6
437	4
438	2
439	9
440	5
441	6
442	5
443	6
444	8
445	8
446	7
447	8
448	3
449	2
450	3
451	4
452	4
453	3
454	6
455	4
456	5
457	9
458	6
459	1
460	8
461	3
462	4
463	2
464	4
465	8
466	7
467	5
468	7
469	3
470	6
471	5
472	2
473	7
474	7
475	1
476	5
477	1
478	5
479	7
480	2
481	3
482	6
483	9
484	3
485	9
486	8
487	1
488	7
489	1
490	3
491	8
492	4
493	2
494	9
495	4
496	9
497	8
498	3
499	4
500	7
501	7
502	5
503	4
504	3
505	6
506	7
507	4
508	8
509	7
510	9
511	9
512	5
513	8
514	2
515	3
516	4
517	3
518	6
519	1
520	5
521	6
522	3
523	9
524	9
525	8
526	4
527	6
528	2
529	7
530	4
531	8
532	5
533	3
534	8
535	9
536	2
537	9
538	6
539	8
540	7
541	3
542	8
543	8
544	7
545	5
546	9
547	7
548	8
549	4
550	3
551	7
552	8
553	7
554	5
555	7
556	8
557	8
558	9
559	6
560	9
561	7
562	5
563	1
564	2
565	4
566	8
567	7
568	2
569	6
570	4
571	6
572	3
573	1
574	2
575	8
576	4
577	4
578	8
579	5
580	4
581	2
582	2
583	2
584	7
585	2
586	7
587	9
588	9
589	6
590	1
591	5
592	7
593	5
594	1
595	8
596	6
597	8
598	2
599	2
600	4
601	3
602	5
603	6
604	5
605	2
606	4
607	6
608	5
609	6
610	1
611	8
612	7
613	7
614	4
615	1
616	9
617	6
618	2
619	1
620	5
621	1
622	5
623	2
624	2
625	5
626	5
627	7
628	5
629	4
630	1
631	3
632	7
633	8
634	1
635	7
636	3
637	1
638	5
639	8
640	5
641	8
642	6
643	2
644	6
645	9
646	4
647	6
648	9
649	9
650	9
651	7
652	4
653	3
654	4
655	8
656	8
657	9
658	7
659	6
660	8
661	7
662	6
663	2
664	9
665	2
666	9
667	9
668	6
669	4
670	2
671	5
672	3
673	6
674	1
675	2
676	3
677	2
678	5
679	9
680	5
681	8
682	8
683	4
684	3
685	3
686	5
687	5
688	4
689	8
690	6
691	6
692	4
693	6
694	3
695	4
696	7
697	4
698	3
699	5
700	9
701	4
702	2
703	8
704	9
705	1
706	6
707	1
708	7
709	5
710	8
711	7
712	9
713	3
714	3
715	8
716	1
717	3
718	4
719	9
720	1
721	8
722	8
723	6
724	9
725	2
726	9
727	6
728	4
729	5
730	7
731	2
732	1
733	9
734	5
735	5
736	4
737	5
738	5
739	6
740	8
741	9
742	2
743	5
744	8
745	1
746	7
747	3
748	8
749	5
750	7
751	5
752	8
753	4
754	7
755	5
756	1
757	8
758	8
759	9
760	2
761	4
762	4
763	5
764	1
765	5
766	9
767	4
768	5
769	2
770	3
771	3
772	1
773	7
774	6
775	5
776	7
777	9
778	2
779	3
780	6
781	4
782	8
783	4
784	7
785	6
786	4
787	9
788	1
789	2
790	2
791	2
792	2
793	6
794	2
795	7
796	4
797	4
798	5
799	2
800	6
801	7
802	3
803	2
804	6
805	7
806	6
807	1
808	7
809	8
810	4
811	3
812	8
813	5
814	3
815	5
816	9
817	2
818	8
819	4
820	2
821	7
822	2
823	3
824	9
825	7
826	7
827	7
828	3
829	6
830	4
831	4
832	9
833	5
834	1
835	3
836	6
837	7
838	3
839	2
840	2
841	9
842	2
843	9
844	9
845	8
846	8
847	9
848	2
849	7
850	7
851	3
852	2
853	7
854	2
855	9
856	3
857	8
858	1
859	8
860	7
861	7
862	2
863	7
864	4
865	6
866	5
867	5
868	1
869	7
870	6
871	5
872	6
873	4
874	8
875	6
876	3
877	1
878	3
879	1
880	2
881	6
882	8
883	5
884	2
885	5
886	2
887	6
888	3
889	3
890	4
891	6
892	6
893	8
894	4
895	4
896	8
897	2
898	4
899	9
900	5
901	2
902	7
903	7
904	1
905	1
906	4
907	9
908	9
909	4
910	6
911	3
912	5
913	5
914	3
915	2
916	5
917	7
918	8
919	7
920	2
921	3
922	8
923	5
924	4
925	9
926	8
927	7
928	6
929	7
930	8
931	4
932	9
933	7
934	8
935	1
936	3
937	6
938	5
939	8
940	1
941	7
942	7
943	5
944	7
945	7
946	2
947	4
948	4
949	7
950	7
951	6
952	8
953	1
954	5
955	9
956	9
957	2
958	8
959	7
960	2
961	3
962	9
963	2
964	3
965	9
966	9
967	1
968	9
969	7
970	4
971	8
972	9
973	2
974	1
975	3
976	5
977	1
978	6
979	6
980	9
981	1
982	2
983	9
984	2
985	6
986	8
987	2
988	7
989	2
990	3
991	3
992	5
993	2
994	7
995	6
996	3
997	7
998	1
999	9
1000	2
1001	2
BACKHAUL_SECTION
5	13	18	31	32	34	39	41	45	49	52	69	74	77	80	83	94	95	98	101	107	114	115	121	124	128	133	141	143	146	158	162	163	171	184	187	190	194	199	216	217	223	225	226	236	239	245	249	254	255	261	262	265	271	275	277	279	282	283	284	313	326	327	330	332	344	348	349	351	352	353	357	364	369	375	376	377	380	382	386	391	392	402	405	408	416	418	422	426	427	431	436	441	447	451	453	454	462	476	488	489	501	503	510	512	525	527	529	535	539	548	556	570	580	588	593	594	601	603	605	609	617	618	620	629	630	633	635	638	643	645	652	655	658	664	665	667	675	676	684	690	707	718	719	721	723	738	739	740	744	754	759	760	764	776	777	778	779	780	783	800	802	804	807	809	819	821	822	828	843	847	848	860	864	866	873	874	875	876	880	884	888	890	893	900	910	920	924	929	931	937	946	948	950	961	970	980	984	989	991	-1
DEPOT_SECTION
1
-1
EOF
