NAME : n101-0043
COMMENT : "Generated by pyvrp_manuel (OVRPBL)"
TYPE : OVRPBL
DIMENSION : 101
EDGE_WEIGHT_TYPE : EUC_2D
CAPACITY : 50
VEHICLES : 100
OPEN_ROUTE : YES
DISTANCE : 3000
NODE_COORD_SECTION
1	594	416
2	177	333
3	89	890
4	450	567
5	529	571
6	281	990
7	47	435
8	209	160
9	769	867
10	737	650
11	834	768
12	355	288
13	648	814
14	834	502
15	1000	141
16	707	928
17	531	802
18	939	113
19	825	732
20	763	751
21	799	660
22	777	47
23	2	766
24	998	351
25	884	446
26	751	459
27	743	283
28	89	767
29	290	873
30	568	296
31	981	978
32	241	722
33	643	193
34	563	62
35	538	66
36	928	751
37	896	597
38	287	755
39	720	774
40	423	998
41	181	54
42	634	952
43	577	356
44	74	836
45	8	294
46	778	217
47	173	248
48	739	287
49	386	380
50	771	939
51	531	502
52	449	738
53	861	618
54	809	343
55	475	84
56	717	243
57	423	11
58	543	657
59	802	390
60	524	970
61	506	860
62	990	925
63	727	819
64	956	451
65	901	294
66	342	725
67	199	308
68	527	541
69	525	433
70	659	983
71	332	775
72	622	816
73	908	452
74	396	303
75	361	287
76	377	792
77	650	264
78	783	545
79	520	693
80	220	447
81	881	824
82	782	430
83	550	825
84	587	775
85	753	719
86	735	165
87	61	5
88	892	222
89	107	564
90	404	659
91	369	887
92	26	7
93	931	283
94	623	682
95	578	184
96	554	173
97	922	577
98	861	853
99	713	677
100	782	181
101	877	393
DEMAND_SECTION
1	0
2	9
3	3
4	9
5	2
6	4
7	5
8	5
9	2
10	2
11	6
12	7
13	9
14	2
15	1
16	1
17	1
18	3
19	9
20	2
21	1
22	9
23	2
24	7
25	1
26	9
27	9
28	1
29	9
30	4
31	4
32	1
33	8
34	5
35	3
36	2
37	7
38	3
39	4
40	5
41	8
42	3
43	1
44	2
45	7
46	9
47	8
48	8
49	2
50	4
51	3
52	8
53	3
54	9
55	8
56	7
57	4
58	6
59	1
60	5
61	6
62	7
63	6
64	2
65	7
66	6
67	1
68	9
69	9
70	4
71	8
72	6
73	3
74	6
75	1
76	5
77	7
78	3
79	7
80	2
81	5
82	8
83	4
84	8
85	1
86	6
87	3
88	9
89	6
90	1
91	7
92	1
93	2
94	4
95	5
96	7
97	1
98	8
99	5
100	4
101	4
BACKHAUL_SECTION
2	6	13	14	15	16	20	28	46	48	53	64	65	76	79	80	82	83	96	99	-1
DEPOT_SECTION
1
-1
EOF
