NAME : n201-0029
COMMENT : "Generated by pyvrp_manuel (VRPLTW)"
TYPE : VRPLTW
DIMENSION : 201
EDGE_WEIGHT_TYPE : EUC_2D
CAPACITY : 80
VEHICLES : 200
DISTANCE : 3000
SERVICE_TIME : 200
NODE_COORD_SECTION
1	593	112
2	318	824
3	922	206
4	562	374
5	891	436
6	405	825
7	578	831
8	311	63
9	583	917
10	877	284
11	943	189
12	968	470
13	244	609
14	908	817
15	242	624
16	694	380
17	557	972
18	367	887
19	74	314
20	616	302
21	125	418
22	262	702
23	740	147
24	775	798
25	822	180
26	104	483
27	674	728
28	116	911
29	984	461
30	579	587
31	129	24
32	809	903
33	487	65
34	521	173
35	671	957
36	999	912
37	615	991
38	403	483
39	157	708
40	695	703
41	860	932
42	28	358
43	100	880
44	484	55
45	712	194
46	491	767
47	778	811
48	491	451
49	477	7
50	322	881
51	756	43
52	625	959
53	102	450
54	231	493
55	282	938
56	760	403
57	67	234
58	447	635
59	298	194
60	439	102
61	611	51
62	415	81
63	304	505
64	258	172
65	556	246
66	527	606
67	447	63
68	358	449
69	648	97
70	848	622
71	557	529
72	418	681
73	848	398
74	714	791
75	705	502
76	674	549
77	816	352
78	570	582
79	24	627
80	154	748
81	400	633
82	109	725
83	822	678
84	647	211
85	948	639
86	29	490
87	514	671
88	593	892
89	447	418
90	478	802
91	61	891
92	309	773
93	164	320
94	518	442
95	182	49
96	84	971
97	749	338
98	808	432
99	472	196
100	193	835
101	1000	5
102	562	612
103	227	278
104	128	636
105	978	677
106	419	618
107	175	243
108	657	933
109	485	353
110	548	1
111	802	194
112	332	86
113	647	283
114	536	195
115	758	137
116	84	29
117	935	735
118	150	377
119	883	653
120	954	426
121	452	873
122	479	74
123	386	870
124	707	398
125	10	867
126	391	395
127	954	772
128	655	669
129	509	538
130	239	677
131	747	771
132	247	529
133	468	209
134	608	778
135	544	272
136	901	237
137	695	504
138	675	693
139	33	622
140	500	98
141	814	547
142	356	478
143	853	313
144	228	344
145	378	711
146	407	731
147	103	562
148	887	447
149	902	656
150	22	212
151	898	416
152	976	14
153	232	881
154	960	45
155	662	8
156	138	725
157	252	462
158	313	49
159	50	706
160	805	411
161	905	126
162	371	63
163	959	595
164	516	248
165	52	940
166	723	409
167	528	641
168	263	988
169	576	524
170	814	163
171	792	289
172	109	354
173	302	957
174	563	156
175	127	249
176	5	477
177	507	34
178	595	394
179	419	78
180	776	427
181	588	535
182	626	747
183	428	365
184	474	85
185	610	299
186	883	978
187	624	332
188	364	878
189	401	742
190	146	410
191	729	853
192	472	558
193	360	268
194	977	288
195	325	865
196	910	328
197	315	135
198	745	403
199	294	80
200	351	661
201	77	738
DEMAND_SECTION
1	0
2	4
3	7
4	6
5	4
6	7
7	4
8	2
9	9
10	3
11	4
12	6
13	8
14	3
15	4
16	4
17	6
18	8
19	1
20	2
21	8
22	9
23	7
24	4
25	7
26	2
27	1
28	4
29	1
30	5
31	4
32	4
33	7
34	2
35	7
36	2
37	7
38	1
39	7
40	5
41	9
42	6
43	4
44	5
45	5
46	5
47	6
48	8
49	9
50	6
51	4
52	3
53	2
54	1
55	8
56	2
57	5
58	5
59	1
60	8
61	3
62	6
63	7
64	5
65	4
66	2
67	1
68	3
69	7
70	8
71	1
72	2
73	9
74	8
75	9
76	5
77	8
78	7
79	9
80	9
81	2
82	2
83	5
84	1
85	7
86	3
87	6
88	8
89	3
90	3
91	9
92	7
93	1
94	3
95	4
96	2
97	6
98	6
99	3
100	2
101	9
102	6
103	3
104	3
105	2
106	1
107	7
108	8
109	4
110	2
111	9
112	9
113	6
114	1
115	2
116	5
117	2
118	2
119	5
120	1
121	4
122	8
123	7
124	4
125	5
126	2
127	4
128	9
129	2
130	2
131	8
132	7
133	9
134	4
135	9
136	5
137	9
138	3
139	1
140	6
141	8
142	7
143	2
144	7
145	7
146	2
147	5
148	5
149	9
150	6
151	4
152	4
153	3
154	5
155	9
156	4
157	2
158	7
159	1
160	4
161	5
162	6
163	7
164	7
165	7
166	4
167	4
168	6
169	2
170	6
171	8
172	4
173	1
174	3
175	6
176	5
177	9
178	1
179	2
180	8
181	1
182	2
183	8
184	8
185	7
186	6
187	1
188	7
189	3
190	3
191	3
192	5
193	6
194	7
195	6
196	3
197	6
198	6
199	7
200	7
201	2
TIME_WINDOW_SECTION
1	0	3000
2	1225	2674
3	1087	2791
4	1769	2077
5	416	640
6	1291	2224
7	801	2156
8	750	2590
9	977	2391
10	121	784
11	1023	1897
12	1076	2933
13	949	2119
14	57	1732
15	1023	2093
16	2132	2709
17	1588	1864
18	839	2068
19	833	1318
20	514	2044
21	85	2021
22	1141	2697
23	437	1606
24	997	1367
25	1502	2830
26	885	1796
27	111	1633
28	545	2065
29	988	2005
30	625	1125
31	0	1315
32	1317	1594
33	0	852
34	1287	2421
35	421	1503
36	1275	2353
37	1411	2290
38	1166	2827
39	611	1405
40	841	1680
41	174	1650
42	366	1173
43	561	1426
44	2037	2519
45	1484	2038
46	1297	1751
47	622	1218
48	670	2630
49	2161	2943
50	906	1321
51	633	1124
52	377	1431
53	987	2419
54	349	1923
55	1718	2096
56	558	1756
57	1097	2463
58	897	1491
59	1394	2840
60	1585	2524
61	806	2725
62	601	2137
63	693	2499
64	41	1411
65	594	1154
66	1219	2050
67	150	1999
68	0	1302
69	1205	2956
70	944	2195
71	824	1099
72	1032	1670
73	2023	2576
74	1151	2390
75	0	1212
76	1074	1860
77	0	835
78	556	1192
79	649	2628
80	1017	1532
81	0	1803
82	1671	2047
83	205	2126
84	376	2278
85	1255	1637
86	1357	2628
87	1089	2752
88	693	1567
89	1602	2708
90	1059	2551
91	716	2510
92	517	2154
93	1210	1441
94	1046	2495
95	920	1791
96	161	1888
97	992	2445
98	1007	1448
99	1504	3000
100	1194	1599
101	103	1169
102	276	2184
103	1418	3000
104	391	2385
105	1003	2068
106	967	2364
107	319	744
108	570	1367
109	1947	2526
110	0	1186
111	238	2002
112	2111	2706
113	0	1544
114	1746	2830
115	851	2731
116	685	1850
117	697	2108
118	1402	2508
119	891	1973
120	0	1040
121	604	1850
122	0	1552
123	1430	2319
124	0	1419
125	575	2297
126	600	1532
127	1880	2204
128	0	1683
129	661	1893
130	996	2135
131	229	1238
132	247	1346
133	372	2172
134	349	2323
135	218	1633
136	1243	3000
137	1015	2547
138	1403	2835
139	220	1348
140	749	1109
141	879	2663
142	0	1293
143	216	1558
144	1392	3000
145	805	2678
146	174	1331
147	940	2595
148	466	1802
149	600	2122
150	543	2449
151	819	1417
152	682	1613
153	611	1972
154	800	2063
155	2018	2391
156	586	2401
157	1207	2571
158	61	1244
159	928	2026
160	1389	3000
161	0	1478
162	1803	2162
163	97	1852
164	1959	3000
165	917	1500
166	217	2101
167	1515	2394
168	1153	1369
169	743	1887
170	691	2219
171	399	1797
172	1351	1977
173	1394	1834
174	1439	2654
175	0	1411
176	1442	1933
177	1361	2787
178	722	1853
179	315	877
180	0	1178
181	751	1026
182	946	2788
183	415	2406
184	125	659
185	630	971
186	882	2261
187	1343	1961
188	324	1626
189	87	1393
190	0	1587
191	699	1820
192	615	1121
193	408	1181
194	743	1149
195	1408	1811
196	833	1158
197	1078	2000
198	0	1367
199	0	1580
200	702	1156
201	955	2850
DEPOT_SECTION
1
-1
EOF
