NAME : n201-0041
COMMENT : "Generated by pyvrp_manuel (VRPLTW)"
TYPE : VRPLTW
DIMENSION : 201
EDGE_WEIGHT_TYPE : EUC_2D
CAPACITY : 80
VEHICLES : 200
DISTANCE : 3000
SERVICE_TIME : 200
NODE_COORD_SECTION
1	34	944
2	424	523
3	113	470
4	202	725
5	313	835
6	128	596
7	603	551
8	117	160
9	940	624
10	255	695
11	840	653
12	342	649
13	54	768
14	220	129
15	463	194
16	284	260
17	597	394
18	901	207
19	895	539
20	457	924
21	764	140
22	753	833
23	501	805
24	672	869
25	157	36
26	497	516
27	60	99
28	859	112
29	774	851
30	356	265
31	345	887
32	793	63
33	87	719
34	114	372
35	397	921
36	127	424
37	892	852
38	13	115
39	747	304
40	856	645
41	860	278
42	571	135
43	71	331
44	964	868
45	858	879
46	29	848
47	893	373
48	83	363
49	895	249
50	277	209
51	251	363
52	553	785
53	512	70
54	877	508
55	314	115
56	580	666
57	85	111
58	771	666
59	407	442
60	308	619
61	575	631
62	646	640
63	644	298
64	990	707
65	402	512
66	25	319
67	337	720
68	1000	342
69	928	618
70	219	229
71	460	520
72	353	749
73	983	647
74	863	557
75	318	879
76	969	199
77	258	911
78	718	960
79	830	975
80	469	529
81	149	583
82	809	413
83	568	194
84	906	45
85	439	948
86	368	243
87	417	249
88	225	884
89	668	732
90	65	664
91	289	205
92	249	895
93	143	262
94	63	840
95	916	664
96	912	543
97	452	966
98	926	915
99	895	901
100	774	316
101	247	531
102	313	165
103	720	982
104	59	117
105	797	30
106	45	676
107	11	697
108	133	578
109	29	990
110	454	947
111	475	652
112	720	214
113	320	496
114	924	461
115	994	954
116	754	33
117	345	74
118	27	480
119	983	852
120	601	176
121	131	272
122	704	485
123	156	742
124	73	571
125	357	990
126	36	922
127	407	129
128	360	423
129	476	655
130	925	593
131	836	114
132	253	111
133	642	967
134	71	396
135	451	210
136	117	810
137	344	214
138	432	82
139	967	609
140	378	670
141	837	444
142	717	35
143	912	856
144	322	703
145	657	387
146	999	647
147	137	590
148	358	25
149	870	602
150	103	745
151	267	891
152	449	440
153	120	249
154	860	749
155	279	551
156	394	99
157	674	285
158	827	457
159	650	406
160	543	892
161	65	985
162	643	133
163	45	531
164	251	989
165	253	931
166	806	162
167	348	832
168	218	186
169	218	418
170	763	451
171	604	660
172	463	777
173	870	228
174	736	405
175	479	92
176	926	802
177	736	242
178	574	858
179	594	8
180	819	914
181	608	810
182	842	116
183	391	832
184	386	12
185	6	790
186	542	753
187	72	500
188	98	736
189	183	221
190	175	184
191	447	625
192	847	992
193	359	612
194	287	22
195	372	886
196	677	497
197	86	250
198	632	970
199	475	209
200	726	551
201	732	440
DEMAND_SECTION
1	0
2	8
3	6
4	3
5	5
6	9
7	9
8	3
9	9
10	6
11	7
12	1
13	6
14	7
15	6
16	5
17	7
18	2
19	1
20	9
21	6
22	1
23	3
24	7
25	4
26	9
27	9
28	6
29	5
30	2
31	5
32	8
33	2
34	8
35	9
36	7
37	8
38	6
39	3
40	7
41	8
42	2
43	9
44	5
45	1
46	4
47	9
48	6
49	9
50	1
51	9
52	4
53	6
54	8
55	3
56	7
57	3
58	9
59	4
60	1
61	7
62	5
63	6
64	8
65	9
66	4
67	7
68	9
69	7
70	5
71	5
72	5
73	4
74	5
75	5
76	8
77	4
78	3
79	8
80	7
81	5
82	3
83	9
84	9
85	7
86	9
87	9
88	3
89	9
90	3
91	5
92	3
93	3
94	9
95	2
96	7
97	1
98	1
99	1
100	3
101	4
102	4
103	4
104	1
105	5
106	3
107	4
108	9
109	7
110	5
111	8
112	4
113	5
114	7
115	9
116	3
117	1
118	2
119	7
120	3
121	3
122	9
123	1
124	6
125	3
126	3
127	8
128	8
129	6
130	8
131	3
132	5
133	2
134	7
135	2
136	7
137	8
138	8
139	8
140	5
141	9
142	4
143	4
144	6
145	6
146	7
147	7
148	7
149	9
150	6
151	3
152	1
153	9
154	5
155	2
156	3
157	3
158	7
159	1
160	7
161	4
162	3
163	7
164	7
165	9
166	6
167	8
168	5
169	8
170	8
171	2
172	9
173	5
174	9
175	2
176	2
177	6
178	8
179	3
180	3
181	7
182	9
183	3
184	5
185	6
186	2
187	9
188	3
189	9
190	3
191	6
192	7
193	6
194	4
195	7
196	7
197	8
198	2
199	3
200	9
201	7
TIME_WINDOW_SECTION
1	0	3000
2	669	1275
3	531	1887
4	771	1573
5	198	732
6	1217	1600
7	769	1266
8	622	1273
9	704	1569
10	649	1850
11	232	1955
12	0	1493
13	0	1043
14	595	1171
15	1152	1458
16	449	2232
17	1259	1655
18	1037	2103
19	895	2179
20	732	2079
21	1242	1669
22	1230	2091
23	449	809
24	1125	1874
25	880	1742
26	894	2638
27	893	2340
28	891	1582
29	1070	1429
30	1090	1544
31	603	2191
32	872	2152
33	955	1954
34	696	2670
35	552	1393
36	1183	2367
37	1105	2348
38	714	2401
39	691	2175
40	291	1512
41	455	2070
42	1061	2053
43	1639	2100
44	900	1365
45	317	1816
46	6	1807
47	1022	1690
48	1239	2100
49	617	2514
50	744	2277
51	1079	2989
52	897	1815
53	848	1879
54	637	2516
55	633	1679
56	0	1792
57	1429	2218
58	674	1816
59	411	1535
60	0	1208
61	635	1514
62	0	1717
63	420	1913
64	1303	2281
65	1214	2066
66	348	1446
67	1612	3000
68	1181	2123
69	477	1956
70	455	1644
71	1189	2662
72	972	2628
73	1157	2205
74	1460	2180
75	1036	1695
76	297	2249
77	620	2015
78	71	1932
79	1538	2096
80	1413	2047
81	1357	3000
82	797	2687
83	388	1522
84	1166	1654
85	1071	2165
86	928	2285
87	0	1735
88	1584	2367
89	739	2565
90	0	1621
91	672	1367
92	907	2353
93	1222	1887
94	0	1836
95	695	1281
96	930	1537
97	1897	2512
98	349	1571
99	276	1997
100	1058	2090
101	1	1302
102	526	1796
103	698	2078
104	437	1797
105	830	2173
106	1760	2004
107	1711	2373
108	1587	2672
109	771	2735
110	921	2327
111	1349	2202
112	1266	2232
113	307	1451
114	1052	1285
115	1500	2095
116	1156	1903
117	1335	1913
118	372	2109
119	429	1913
120	290	1969
121	92	1700
122	856	1603
123	0	1306
124	1398	2832
125	575	2391
126	0	1602
127	1014	1540
128	1004	2938
129	994	2599
130	567	2463
131	990	1616
132	1055	1988
133	1131	2925
134	1299	2023
135	1296	2063
136	1582	1949
137	695	1713
138	791	1710
139	609	1742
140	1899	2400
141	912	2506
142	319	2118
143	820	2674
144	1354	3000
145	877	2286
146	814	1569
147	0	1419
148	689	2078
149	581	2331
150	338	1430
151	1153	2823
152	1436	1736
153	0	1533
154	1333	2532
155	805	2392
156	737	2602
157	874	1891
158	973	1831
159	541	2104
160	469	2039
161	0	1393
162	151	2017
163	894	2032
164	14	951
165	1632	2356
166	1347	1988
167	198	1950
168	999	1987
169	1207	1716
170	1161	1865
171	1107	1719
172	682	2404
173	1266	1707
174	576	1222
175	539	2032
176	891	2430
177	539	1705
178	856	2212
179	1000	2307
180	784	1901
181	1842	2345
182	1135	1345
183	1430	2391
184	1313	1722
185	44	1882
186	1297	1633
187	1735	2433
188	1195	1447
189	703	1668
190	501	1432
191	848	1953
192	895	1207
193	1757	2105
194	1403	1980
195	1560	2879
196	701	2528
197	1064	1986
198	865	2185
199	590	1761
200	784	2434
201	860	1768
DEPOT_SECTION
1
-1
EOF
