NAME : n51-0032
COMMENT : "Generated by pyvrp_manuel (VRPB)"
TYPE : VRPB
DIMENSION : 51
EDGE_WEIGHT_TYPE : EUC_2D
CAPACITY : 40
VEHICLES : 50
NODE_COORD_SECTION
1	275	262
2	448	254
3	129	177
4	8	958
5	573	570
6	875	751
7	427	810
8	508	13
9	905	205
10	122	384
11	622	893
12	5	32
13	167	208
14	992	492
15	863	641
16	792	241
17	718	681
18	672	125
19	328	925
20	391	137
21	77	399
22	731	353
23	857	713
24	100	505
25	956	811
26	320	129
27	630	740
28	397	73
29	983	742
30	2	522
31	388	964
32	764	633
33	353	131
34	656	702
35	511	940
36	787	82
37	472	277
38	477	546
39	561	807
40	845	527
41	312	251
42	759	681
43	924	78
44	118	201
45	721	889
46	460	82
47	580	70
48	819	125
49	573	506
50	752	154
51	724	514
DEMAND_SECTION
1	0
2	1
3	8
4	8
5	5
6	9
7	9
8	5
9	4
10	4
11	2
12	7
13	3
14	5
15	7
16	3
17	6
18	9
19	9
20	6
21	1
22	5
23	9
24	3
25	6
26	1
27	5
28	4
29	8
30	3
31	3
32	1
33	1
34	9
35	7
36	3
37	6
38	2
39	8
40	5
41	1
42	4
43	6
44	7
45	6
46	6
47	2
48	1
49	8
50	4
51	4
BACKHAUL_SECTION
16	19	21	24	34	35	37	42	47	49	-1
DEPOT_SECTION
1
-1
EOF
