NAME : n51-0037
COMMENT : "Generated by pyvrp_manuel (VRPB)"
TYPE : VRPB
DIMENSION : 51
EDGE_WEIGHT_TYPE : EUC_2D
CAPACITY : 40
VEHICLES : 50
NODE_COORD_SECTION
1	376	713
2	818	105
3	799	250
4	189	301
5	135	649
6	836	174
7	679	129
8	775	457
9	534	105
10	683	690
11	323	284
12	891	856
13	245	678
14	287	29
15	478	75
16	264	463
17	180	791
18	352	109
19	584	623
20	366	122
21	723	331
22	295	905
23	218	785
24	505	392
25	188	984
26	549	571
27	102	854
28	495	723
29	839	619
30	793	267
31	709	704
32	752	334
33	780	937
34	256	447
35	452	752
36	440	614
37	309	657
38	796	600
39	985	945
40	145	153
41	101	397
42	763	293
43	378	268
44	641	603
45	93	249
46	424	961
47	27	36
48	711	661
49	456	103
50	253	846
51	966	593
DEMAND_SECTION
1	0
2	5
3	6
4	2
5	2
6	1
7	5
8	5
9	1
10	3
11	4
12	1
13	9
14	3
15	9
16	9
17	6
18	3
19	7
20	1
21	5
22	7
23	6
24	8
25	7
26	9
27	2
28	1
29	9
30	5
31	5
32	6
33	5
34	2
35	4
36	6
37	4
38	8
39	9
40	2
41	2
42	3
43	3
44	8
45	6
46	7
47	1
48	9
49	6
50	5
51	6
BACKHAUL_SECTION
16	19	21	24	34	35	37	42	47	49	-1
DEPOT_SECTION
1
-1
EOF
