NAME : n51-0046
COMMENT : "Generated by pyvrp_manuel (VRPB)"
TYPE : VRPB
DIMENSION : 51
EDGE_WEIGHT_TYPE : EUC_2D
CAPACITY : 40
VEHICLES : 50
NODE_COORD_SECTION
1	64	45
2	174	902
3	335	417
4	148	558
5	301	34
6	745	666
7	170	971
8	451	826
9	323	5
10	261	113
11	953	909
12	406	8
13	810	664
14	820	600
15	711	468
16	993	408
17	733	14
18	428	553
19	909	770
20	986	563
21	336	526
22	489	649
23	594	275
24	716	554
25	145	514
26	146	490
27	637	0
28	850	273
29	409	386
30	888	191
31	6	40
32	728	323
33	574	742
34	509	998
35	701	21
36	105	51
37	160	377
38	313	27
39	709	595
40	434	693
41	365	541
42	287	766
43	895	593
44	904	666
45	359	871
46	600	602
47	553	906
48	181	315
49	194	171
50	757	278
51	576	919
DEMAND_SECTION
1	0
2	4
3	8
4	6
5	6
6	5
7	5
8	4
9	6
10	6
11	4
12	4
13	4
14	7
15	3
16	7
17	8
18	5
19	7
20	5
21	9
22	1
23	9
24	9
25	3
26	7
27	4
28	7
29	3
30	5
31	3
32	6
33	1
34	6
35	5
36	9
37	6
38	2
39	8
40	1
41	7
42	3
43	3
44	7
45	1
46	3
47	6
48	2
49	9
50	1
51	7
BACKHAUL_SECTION
16	19	21	24	34	35	37	42	47	49	-1
DEPOT_SECTION
1
-1
EOF
