NAME : n101-0040
COMMENT : "Generated by pyvrp_manuel (CVRP)"
TYPE : CVRP
DIMENSION : 101
EDGE_WEIGHT_TYPE : EUC_2D
CAPACITY : 50
NODE_COORD_SECTION
1	546	187
2	124	859
3	325	164
4	719	595
5	249	265
6	937	0
7	572	510
8	101	717
9	51	485
10	394	781
11	392	37
12	462	894
13	212	921
14	778	443
15	484	914
16	508	568
17	541	538
18	66	211
19	961	798
20	526	973
21	305	714
22	238	887
23	776	672
24	470	841
25	772	759
26	314	514
27	381	208
28	621	930
29	794	360
30	786	463
31	973	5
32	635	58
33	738	859
34	883	336
35	544	631
36	329	968
37	842	747
38	296	850
39	245	93
40	343	454
41	815	706
42	680	348
43	888	977
44	69	950
45	598	674
46	695	791
47	508	371
48	328	179
49	481	219
50	798	142
51	935	58
52	916	557
53	29	650
54	178	104
55	526	358
56	623	895
57	41	997
58	223	401
59	824	291
60	248	383
61	695	478
62	955	716
63	44	140
64	539	481
65	348	664
66	710	210
67	400	679
68	681	455
69	751	679
70	31	22
71	517	671
72	144	243
73	22	595
74	862	943
75	93	886
76	300	60
77	821	920
78	474	356
79	562	735
80	731	248
81	517	638
82	572	604
83	614	633
84	771	246
85	914	372
86	93	832
87	182	6
88	458	981
89	121	608
90	112	704
91	839	419
92	55	126
93	193	313
94	261	720
95	613	100
96	564	36
97	858	465
98	968	891
99	213	887
100	73	37
101	835	243
DEMAND_SECTION
1	0
2	1
3	8
4	9
5	3
6	9
7	6
8	4
9	3
10	3
11	7
12	9
13	2
14	5
15	2
16	4
17	8
18	4
19	1
20	8
21	4
22	1
23	9
24	4
25	8
26	5
27	2
28	7
29	5
30	4
31	7
32	7
33	5
34	3
35	8
36	4
37	2
38	1
39	7
40	2
41	6
42	5
43	7
44	4
45	2
46	8
47	8
48	9
49	1
50	1
51	3
52	7
53	2
54	6
55	2
56	8
57	4
58	4
59	3
60	5
61	6
62	5
63	7
64	9
65	1
66	7
67	8
68	7
69	6
70	5
71	8
72	4
73	7
74	4
75	8
76	9
77	5
78	9
79	3
80	7
81	7
82	6
83	8
84	9
85	3
86	3
87	1
88	9
89	2
90	8
91	6
92	8
93	6
94	7
95	3
96	8
97	8
98	5
99	4
100	4
101	6
DEPOT_SECTION
1
-1
EOF
