NAME : n201-0011
COMMENT : "Generated by pyvrp_manuel (VRPBL)"
TYPE : VRPBL
DIMENSION : 201
EDGE_WEIGHT_TYPE : EUC_2D
CAPACITY : 80
VEHICLES : 200
DISTANCE : 3000
NODE_COORD_SECTION
1	682	915
2	542	278
3	617	167
4	965	938
5	731	765
6	3	222
7	19	239
8	85	868
9	770	794
10	278	881
11	428	370
12	769	831
13	141	976
14	450	633
15	2	556
16	253	187
17	291	498
18	358	180
19	858	649
20	35	605
21	623	518
22	621	458
23	719	148
24	287	875
25	190	745
26	963	43
27	281	927
28	470	599
29	571	706
30	294	565
31	841	458
32	41	673
33	372	395
34	761	588
35	198	269
36	424	376
37	394	158
38	862	759
39	599	613
40	559	874
41	613	576
42	225	667
43	32	658
44	67	293
45	764	202
46	898	224
47	974	654
48	283	805
49	57	183
50	187	566
51	549	70
52	982	500
53	233	512
54	285	638
55	681	358
56	529	798
57	175	389
58	426	169
59	541	518
60	96	603
61	977	766
62	229	958
63	156	246
64	721	898
65	977	930
66	225	614
67	186	511
68	914	746
69	38	285
70	78	736
71	437	134
72	340	664
73	546	969
74	493	657
75	349	560
76	518	929
77	710	215
78	56	24
79	318	565
80	970	451
81	695	754
82	117	86
83	689	733
84	267	578
85	10	506
86	623	505
87	421	708
88	363	872
89	69	214
90	83	48
91	871	376
92	107	604
93	121	526
94	738	394
95	757	603
96	99	598
97	822	384
98	547	564
99	543	630
100	21	879
101	718	562
102	591	97
103	357	478
104	619	226
105	553	345
106	864	71
107	552	839
108	112	486
109	731	702
110	559	702
111	151	916
112	511	823
113	611	444
114	714	975
115	993	79
116	530	141
117	791	859
118	149	471
119	846	831
120	124	836
121	411	75
122	600	733
123	800	160
124	138	164
125	783	63
126	496	353
127	718	598
128	248	587
129	960	582
130	252	517
131	41	179
132	407	188
133	923	597
134	887	386
135	430	626
136	351	330
137	10	877
138	953	5
139	335	122
140	297	881
141	767	461
142	714	649
143	773	98
144	655	26
145	171	314
146	451	28
147	512	580
148	302	662
149	937	415
150	234	57
151	135	223
152	130	303
153	775	656
154	951	996
155	320	304
156	568	102
157	772	410
158	81	123
159	155	637
160	883	896
161	362	210
162	278	158
163	371	48
164	767	29
165	189	836
166	126	620
167	875	993
168	753	366
169	786	483
170	346	502
171	612	835
172	710	739
173	575	475
174	710	620
175	22	581
176	278	235
177	693	602
178	585	263
179	731	969
180	561	706
181	61	797
182	674	725
183	709	368
184	470	984
185	866	142
186	897	998
187	566	110
188	597	399
189	859	20
190	628	494
191	539	844
192	509	97
193	208	300
194	553	693
195	407	303
196	719	14
197	849	442
198	848	878
199	553	658
200	217	858
201	793	421
DEMAND_SECTION
1	0
2	7
3	1
4	1
5	3
6	4
7	3
8	2
9	6
10	7
11	2
12	9
13	8
14	8
15	4
16	5
17	7
18	7
19	5
20	2
21	3
22	1
23	1
24	8
25	7
26	3
27	9
28	9
29	3
30	2
31	3
32	8
33	7
34	7
35	3
36	2
37	6
38	7
39	4
40	5
41	3
42	2
43	7
44	1
45	3
46	7
47	4
48	8
49	6
50	3
51	7
52	7
53	2
54	1
55	2
56	4
57	4
58	2
59	4
60	5
61	4
62	6
63	7
64	9
65	6
66	6
67	9
68	5
69	6
70	1
71	4
72	2
73	7
74	9
75	7
76	4
77	5
78	6
79	9
80	3
81	4
82	3
83	2
84	2
85	9
86	7
87	4
88	3
89	3
90	5
91	8
92	3
93	5
94	5
95	2
96	6
97	4
98	8
99	5
100	3
101	1
102	3
103	3
104	7
105	9
106	2
107	2
108	2
109	1
110	2
111	8
112	1
113	7
114	6
115	9
116	6
117	7
118	9
119	2
120	5
121	6
122	1
123	6
124	7
125	2
126	2
127	4
128	2
129	7
130	1
131	8
132	7
133	5
134	3
135	4
136	7
137	7
138	3
139	2
140	8
141	9
142	9
143	5
144	3
145	9
146	1
147	4
148	1
149	6
150	8
151	8
152	5
153	9
154	3
155	6
156	2
157	8
158	8
159	2
160	6
161	1
162	8
163	9
164	5
165	6
166	3
167	1
168	9
169	7
170	6
171	4
172	9
173	1
174	8
175	3
176	9
177	8
178	7
179	1
180	6
181	3
182	7
183	9
184	5
185	1
186	4
187	5
188	2
189	9
190	3
191	9
192	9
193	8
194	4
195	7
196	4
197	8
198	8
199	3
200	8
201	9
BACKHAUL_SECTION
9	16	21	24	29	31	49	53	58	59	64	65	71	72	85	99	104	111	112	114	115	117	128	142	144	145	150	160	164	166	173	178	179	186	189	190	197	198	199	201	-1
DEPOT_SECTION
1
-1
EOF
