NAME : n201-0038
COMMENT : "Generated by pyvrp_manuel (VRPBL)"
TYPE : VRPBL
DIMENSION : 201
EDGE_WEIGHT_TYPE : EUC_2D
CAPACITY : 80
VEHICLES : 200
DISTANCE : 3000
NODE_COORD_SECTION
1	935	941
2	760	543
3	907	324
4	905	960
5	14	693
6	710	655
7	928	961
8	373	583
9	339	82
10	474	649
11	324	726
12	59	173
13	166	495
14	821	771
15	897	958
16	97	655
17	217	129
18	966	84
19	61	106
20	815	122
21	701	114
22	629	713
23	130	442
24	157	944
25	387	133
26	401	686
27	128	872
28	580	88
29	833	659
30	765	446
31	241	237
32	682	860
33	663	249
34	995	573
35	186	776
36	772	402
37	333	195
38	807	991
39	368	734
40	797	673
41	61	827
42	402	29
43	289	403
44	831	14
45	630	103
46	852	155
47	132	329
48	327	368
49	83	233
50	396	750
51	607	874
52	284	397
53	775	326
54	31	39
55	174	596
56	52	398
57	2	340
58	318	36
59	932	630
60	264	981
61	917	542
62	444	885
63	547	552
64	448	656
65	770	938
66	170	514
67	615	691
68	804	807
69	16	671
70	505	514
71	66	876
72	671	71
73	917	892
74	51	351
75	14	477
76	457	16
77	191	463
78	996	801
79	973	533
80	90	754
81	390	577
82	992	207
83	510	43
84	333	412
85	587	901
86	983	912
87	548	888
88	316	312
89	325	202
90	365	416
91	235	617
92	662	201
93	26	450
94	494	600
95	779	223
96	372	209
97	372	86
98	986	5
99	695	538
100	510	285
101	806	578
102	407	971
103	28	418
104	26	834
105	212	554
106	47	773
107	391	625
108	999	650
109	866	754
110	472	455
111	88	100
112	736	623
113	547	914
114	0	860
115	745	106
116	607	650
117	89	727
118	331	278
119	466	688
120	765	18
121	519	35
122	619	404
123	437	85
124	776	192
125	435	59
126	857	599
127	547	873
128	561	850
129	126	445
130	232	668
131	25	358
132	533	998
133	306	197
134	197	273
135	430	873
136	481	246
137	498	53
138	494	169
139	931	921
140	210	624
141	364	332
142	941	941
143	881	22
144	608	763
145	734	159
146	719	332
147	543	375
148	557	253
149	721	347
150	347	698
151	692	740
152	662	265
153	402	752
154	4	774
155	834	634
156	823	969
157	396	226
158	179	695
159	195	542
160	429	144
161	630	235
162	586	745
163	354	364
164	423	467
165	613	831
166	29	941
167	999	226
168	769	623
169	155	523
170	378	909
171	288	402
172	907	225
173	41	917
174	561	687
175	591	290
176	634	709
177	514	747
178	127	631
179	922	462
180	966	423
181	277	522
182	820	517
183	156	803
184	659	150
185	573	547
186	604	448
187	887	107
188	467	591
189	280	464
190	18	500
191	521	413
192	12	720
193	296	974
194	974	932
195	905	891
196	504	726
197	353	492
198	144	438
199	535	420
200	38	594
201	447	295
DEMAND_SECTION
1	0
2	2
3	6
4	4
5	9
6	1
7	6
8	8
9	3
10	5
11	9
12	2
13	3
14	7
15	7
16	6
17	3
18	5
19	8
20	7
21	2
22	3
23	3
24	6
25	3
26	8
27	8
28	8
29	3
30	5
31	1
32	4
33	7
34	2
35	2
36	8
37	8
38	4
39	4
40	9
41	9
42	9
43	3
44	6
45	2
46	5
47	7
48	2
49	9
50	2
51	4
52	9
53	4
54	5
55	9
56	5
57	5
58	8
59	9
60	2
61	6
62	6
63	7
64	3
65	2
66	7
67	9
68	5
69	2
70	8
71	1
72	2
73	6
74	6
75	8
76	9
77	4
78	5
79	9
80	2
81	9
82	1
83	3
84	9
85	6
86	1
87	7
88	8
89	8
90	5
91	2
92	8
93	3
94	9
95	9
96	6
97	4
98	3
99	4
100	1
101	8
102	9
103	9
104	7
105	4
106	8
107	2
108	5
109	5
110	3
111	4
112	8
113	6
114	7
115	4
116	2
117	1
118	7
119	1
120	4
121	3
122	4
123	3
124	4
125	9
126	9
127	2
128	1
129	8
130	7
131	6
132	3
133	8
134	1
135	9
136	8
137	9
138	6
139	9
140	1
141	8
142	9
143	6
144	9
145	5
146	2
147	4
148	1
149	9
150	8
151	6
152	8
153	7
154	8
155	3
156	6
157	4
158	2
159	7
160	5
161	2
162	5
163	7
164	6
165	2
166	1
167	3
168	6
169	9
170	8
171	9
172	4
173	5
174	7
175	1
176	7
177	1
178	8
179	5
180	7
181	6
182	9
183	5
184	2
185	6
186	2
187	8
188	2
189	2
190	8
191	9
192	5
193	1
194	9
195	9
196	1
197	3
198	8
199	3
200	5
201	7
BACKHAUL_SECTION
9	16	21	24	29	31	49	53	58	59	64	65	71	72	85	99	104	111	112	114	115	117	128	142	144	145	150	160	164	166	173	178	179	186	189	190	197	198	199	201	-1
DEPOT_SECTION
1
-1
EOF
