NAME : n401-0050
COMMENT : "Generated by pyvrp_manuel (OVRP)"
TYPE : OVRP
DIMENSION : 401
EDGE_WEIGHT_TYPE : EUC_2D
CAPACITY : 100
VEHICLES : 400
OPEN_ROUTE : YES
NODE_COORD_SECTION
1	938	448
2	10	619
3	86	149
4	568	806
5	498	486
6	804	458
7	340	854
8	948	852
9	828	425
10	167	851
11	17	445
12	127	510
13	896	244
14	74	61
15	257	817
16	745	348
17	756	497
18	227	853
19	445	686
20	507	827
21	270	507
22	892	322
23	3	485
24	196	9
25	302	954
26	359	13
27	836	571
28	800	479
29	811	603
30	452	858
31	49	752
32	862	139
33	939	95
34	360	870
35	173	974
36	461	609
37	764	515
38	234	829
39	532	877
40	952	700
41	464	709
42	466	324
43	948	344
44	795	996
45	160	101
46	158	864
47	964	215
48	694	488
49	262	260
50	372	872
51	67	277
52	968	395
53	246	992
54	775	790
55	31	223
56	525	320
57	857	123
58	442	340
59	504	492
60	361	854
61	434	188
62	277	683
63	990	806
64	467	753
65	963	340
66	193	860
67	198	212
68	699	908
69	113	503
70	479	317
71	28	548
72	242	228
73	314	377
74	432	190
75	93	568
76	57	789
77	85	786
78	707	916
79	646	665
80	433	558
81	781	879
82	746	894
83	556	704
84	293	346
85	688	637
86	252	753
87	774	167
88	294	657
89	694	950
90	371	663
91	370	78
92	40	198
93	102	731
94	640	964
95	764	539
96	174	455
97	655	174
98	41	571
99	805	222
100	605	212
101	315	579
102	525	666
103	333	591
104	81	481
105	688	271
106	687	366
107	816	152
108	624	196
109	84	863
110	893	377
111	699	699
112	888	293
113	372	308
114	970	666
115	153	708
116	222	891
117	333	384
118	903	194
119	577	447
120	197	316
121	786	976
122	837	132
123	814	867
124	463	493
125	736	342
126	157	231
127	565	90
128	20	700
129	324	105
130	824	593
131	876	801
132	700	764
133	617	950
134	164	37
135	382	28
136	53	926
137	203	351
138	29	403
139	505	699
140	81	945
141	484	745
142	54	44
143	36	276
144	278	240
145	371	597
146	215	560
147	57	243
148	720	871
149	591	229
150	877	926
151	791	650
152	354	759
153	423	283
154	283	215
155	560	194
156	440	971
157	96	795
158	243	416
159	840	833
160	175	280
161	350	658
162	283	991
163	70	915
164	59	918
165	68	217
166	241	108
167	479	934
168	499	115
169	666	991
170	710	850
171	226	610
172	460	458
173	898	864
174	563	297
175	217	478
176	142	364
177	333	727
178	393	308
179	317	951
180	558	795
181	476	645
182	76	331
183	287	854
184	793	916
185	334	317
186	357	951
187	2	55
188	807	596
189	348	122
190	27	539
191	577	268
192	956	600
193	179	575
194	765	683
195	929	241
196	474	114
197	621	924
198	645	564
199	621	885
200	28	290
201	316	991
202	263	451
203	949	237
204	295	191
205	715	377
206	339	867
207	356	322
208	672	526
209	762	695
210	84	830
211	748	386
212	748	878
213	25	621
214	831	241
215	678	659
216	81	736
217	48	663
218	765	205
219	479	497
220	225	452
221	108	468
222	745	657
223	524	305
224	199	812
225	651	214
226	527	239
227	893	383
228	582	323
229	66	587
230	798	294
231	337	453
232	204	666
233	13	608
234	579	501
235	452	418
236	81	983
237	605	133
238	354	432
239	455	517
240	551	660
241	858	412
242	606	211
243	506	719
244	403	782
245	682	218
246	649	220
247	439	646
248	979	806
249	790	233
250	100	712
251	634	67
252	151	957
253	932	372
254	63	19
255	758	548
256	284	356
257	462	58
258	58	328
259	476	167
260	133	982
261	613	197
262	696	35
263	187	914
264	168	652
265	291	663
266	524	126
267	582	470
268	492	479
269	144	42
270	593	483
271	349	157
272	834	550
273	271	776
274	522	879
275	104	783
276	238	41
277	71	691
278	442	858
279	113	628
280	347	362
281	771	578
282	896	351
283	707	231
284	673	476
285	409	10
286	933	141
287	728	142
288	685	698
289	621	336
290	272	452
291	528	38
292	406	97
293	220	305
294	534	142
295	342	672
296	469	370
297	106	575
298	697	378
299	585	677
300	701	276
301	818	823
302	530	181
303	99	16
304	88	998
305	52	291
306	841	684
307	375	669
308	705	970
309	176	138
310	204	824
311	144	945
312	32	800
313	506	441
314	618	398
315	670	156
316	81	730
317	792	454
318	139	167
319	581	129
320	284	283
321	242	832
322	410	827
323	11	40
324	954	584
325	536	778
326	925	295
327	521	611
328	280	195
329	214	968
330	972	955
331	96	419
332	309	200
333	954	697
334	22	923
335	440	379
336	800	781
337	856	840
338	392	993
339	29	892
340	970	761
341	386	318
342	729	200
343	658	508
344	707	373
345	865	89
346	181	125
347	799	212
348	151	109
349	281	89
350	834	402
351	543	941
352	207	260
353	489	347
354	553	509
355	458	970
356	76	650
357	637	675
358	749	328
359	626	474
360	149	692
361	789	491
362	156	672
363	226	554
364	755	510
365	944	236
366	862	139
367	992	984
368	66	254
369	332	41
370	790	288
371	870	77
372	255	962
373	595	981
374	339	619
375	534	198
376	147	504
377	994	795
378	697	6
379	546	948
380	488	932
381	132	656
382	985	805
383	923	938
384	22	256
385	290	920
386	746	850
387	267	505
388	5	335
389	432	263
390	40	867
391	491	13
392	199	738
393	366	605
394	296	31
395	425	65
396	259	612
397	247	155
398	448	380
399	492	716
400	113	515
401	23	660
DEMAND_SECTION
1	0
2	9
3	2
4	7
5	9
6	9
7	2
8	6
9	1
10	7
11	1
12	8
13	1
14	6
15	7
16	3
17	1
18	8
19	7
20	6
21	9
22	2
23	2
24	1
25	5
26	3
27	5
28	1
29	5
30	9
31	6
32	4
33	3
34	9
35	8
36	3
37	3
38	8
39	5
40	6
41	7
42	5
43	2
44	5
45	2
46	6
47	9
48	9
49	3
50	1
51	6
52	5
53	6
54	3
55	8
56	1
57	6
58	8
59	2
60	3
61	5
62	4
63	3
64	5
65	9
66	1
67	7
68	8
69	8
70	6
71	7
72	8
73	7
74	3
75	3
76	8
77	1
78	8
79	9
80	2
81	2
82	5
83	5
84	6
85	8
86	5
87	6
88	9
89	2
90	3
91	8
92	3
93	8
94	7
95	7
96	4
97	5
98	2
99	4
100	7
101	9
102	4
103	2
104	6
105	8
106	1
107	9
108	3
109	1
110	1
111	8
112	3
113	8
114	5
115	2
116	4
117	4
118	7
119	8
120	1
121	7
122	6
123	6
124	7
125	5
126	2
127	1
128	2
129	5
130	3
131	1
132	4
133	9
134	9
135	2
136	5
137	9
138	1
139	5
140	1
141	7
142	3
143	2
144	1
145	7
146	9
147	8
148	6
149	5
150	8
151	3
152	1
153	6
154	9
155	4
156	3
157	5
158	6
159	5
160	5
161	1
162	7
163	4
164	4
165	1
166	4
167	6
168	8
169	1
170	3
171	1
172	3
173	1
174	4
175	7
176	4
177	4
178	1
179	6
180	7
181	2
182	1
183	8
184	6
185	2
186	2
187	2
188	4
189	2
190	3
191	5
192	3
193	2
194	5
195	9
196	6
197	8
198	8
199	7
200	8
201	1
202	4
203	5
204	9
205	4
206	9
207	2
208	9
209	4
210	1
211	8
212	5
213	9
214	8
215	6
216	2
217	4
218	4
219	4
220	3
221	7
222	7
223	1
224	7
225	5
226	4
227	3
228	1
229	5
230	4
231	1
232	5
233	8
234	1
235	8
236	2
237	1
238	8
239	3
240	8
241	1
242	7
243	7
244	3
245	3
246	8
247	5
248	9
249	2
250	4
251	9
252	3
253	7
254	4
255	9
256	1
257	7
258	3
259	9
260	5
261	6
262	9
263	2
264	3
265	6
266	4
267	7
268	4
269	9
270	4
271	2
272	8
273	2
274	5
275	9
276	8
277	9
278	5
279	7
280	5
281	7
282	7
283	4
284	6
285	5
286	6
287	8
288	7
289	3
290	2
291	7
292	6
293	9
294	8
295	7
296	9
297	9
298	4
299	7
300	9
301	6
302	5
303	9
304	6
305	9
306	9
307	8
308	9
309	9
310	1
311	1
312	1
313	3
314	4
315	9
316	3
317	6
318	9
319	6
320	2
321	3
322	6
323	7
324	6
325	7
326	1
327	2
328	7
329	6
330	5
331	4
332	9
333	1
334	6
335	3
336	8
337	5
338	7
339	7
340	5
341	3
342	4
343	6
344	3
345	3
346	8
347	6
348	5
349	1
350	7
351	9
352	9
353	6
354	9
355	6
356	1
357	5
358	4
359	4
360	5
361	1
362	1
363	4
364	2
365	4
366	1
367	3
368	9
369	1
370	4
371	5
372	9
373	5
374	6
375	4
376	2
377	7
378	9
379	2
380	3
381	4
382	8
383	3
384	2
385	5
386	7
387	4
388	9
389	3
390	9
391	8
392	5
393	1
394	6
395	7
396	8
397	8
398	2
399	8
400	1
401	3
DEPOT_SECTION
1
-1
EOF
