NAME : n401-0044
COMMENT : "Generated by pyvrp_manuel (OVRP)"
TYPE : OVRP
DIMENSION : 401
EDGE_WEIGHT_TYPE : EUC_2D
CAPACITY : 100
VEHICLES : 400
OPEN_ROUTE : YES
NODE_COORD_SECTION
1	777	630
2	857	371
3	738	718
4	821	841
5	416	409
6	397	501
7	436	399
8	959	727
9	628	124
10	759	159
11	283	250
12	421	725
13	463	87
14	658	850
15	512	766
16	886	247
17	70	772
18	265	662
19	79	889
20	994	397
21	744	53
22	620	126
23	920	759
24	780	263
25	175	610
26	775	661
27	419	779
28	803	376
29	686	692
30	483	288
31	178	504
32	155	749
33	188	692
34	806	428
35	966	38
36	315	899
37	872	285
38	494	734
39	928	789
40	68	196
41	766	202
42	212	160
43	259	772
44	2	567
45	567	45
46	86	662
47	14	27
48	274	573
49	507	441
50	539	383
51	57	781
52	104	861
53	512	672
54	215	122
55	473	374
56	6	530
57	205	720
58	579	484
59	791	218
60	377	309
61	409	80
62	918	320
63	122	877
64	10	191
65	381	68
66	924	904
67	946	186
68	961	718
69	499	972
70	875	452
71	169	597
72	26	493
73	91	311
74	299	211
75	776	820
76	838	950
77	203	848
78	222	1
79	639	738
80	108	167
81	694	839
82	351	478
83	102	788
84	855	830
85	486	776
86	404	484
87	586	661
88	568	353
89	215	843
90	159	503
91	372	967
92	789	674
93	604	86
94	279	878
95	513	567
96	817	254
97	354	424
98	429	715
99	366	671
100	714	87
101	304	651
102	685	354
103	154	527
104	743	164
105	882	459
106	915	835
107	87	497
108	250	1
109	557	29
110	220	783
111	882	338
112	1	443
113	827	765
114	1	15
115	131	429
116	575	238
117	895	612
118	608	699
119	379	601
120	275	150
121	354	713
122	84	676
123	26	162
124	481	136
125	459	142
126	787	695
127	739	480
128	844	181
129	914	566
130	777	723
131	135	504
132	37	588
133	215	357
134	79	478
135	779	575
136	633	137
137	925	434
138	869	450
139	242	545
140	505	95
141	239	488
142	523	299
143	309	341
144	722	325
145	61	22
146	912	246
147	530	491
148	176	252
149	706	92
150	711	714
151	439	731
152	458	484
153	87	612
154	113	837
155	94	425
156	99	97
157	414	627
158	223	991
159	824	74
160	109	625
161	315	749
162	68	258
163	574	214
164	679	711
165	912	12
166	135	812
167	462	932
168	116	189
169	445	168
170	659	407
171	339	24
172	75	932
173	556	549
174	600	826
175	651	177
176	960	583
177	370	6
178	283	273
179	440	49
180	953	407
181	501	683
182	114	839
183	435	551
184	315	864
185	219	594
186	336	478
187	198	105
188	210	491
189	185	121
190	193	930
191	843	644
192	472	362
193	951	404
194	210	816
195	340	523
196	41	724
197	872	162
198	95	2
199	692	557
200	330	362
201	112	330
202	393	71
203	390	459
204	664	887
205	838	618
206	609	353
207	682	451
208	517	2
209	831	1
210	555	132
211	961	722
212	285	500
213	728	211
214	846	997
215	312	810
216	859	85
217	287	18
218	163	49
219	473	838
220	673	477
221	961	90
222	123	895
223	163	976
224	330	61
225	129	780
226	456	272
227	485	524
228	467	779
229	397	297
230	842	877
231	398	254
232	654	752
233	458	278
234	177	1
235	401	305
236	448	143
237	275	877
238	35	241
239	868	682
240	945	535
241	807	834
242	901	476
243	134	115
244	105	790
245	10	543
246	637	773
247	596	773
248	653	966
249	672	401
250	314	70
251	406	494
252	746	277
253	76	277
254	192	805
255	47	10
256	88	768
257	25	546
258	468	904
259	110	952
260	359	750
261	320	630
262	889	228
263	87	505
264	749	658
265	334	19
266	55	811
267	844	247
268	948	46
269	948	233
270	299	57
271	868	35
272	614	254
273	172	807
274	825	365
275	943	75
276	414	422
277	578	639
278	941	911
279	437	151
280	967	364
281	920	50
282	907	818
283	454	146
284	150	480
285	800	366
286	126	302
287	85	91
288	763	492
289	364	165
290	602	726
291	309	836
292	189	420
293	308	16
294	0	990
295	351	425
296	832	25
297	662	699
298	20	999
299	687	378
300	910	39
301	868	509
302	468	41
303	533	265
304	965	31
305	365	518
306	654	883
307	745	639
308	239	84
309	93	565
310	843	697
311	585	655
312	958	508
313	577	278
314	624	483
315	181	820
316	684	972
317	241	670
318	29	731
319	827	199
320	703	309
321	924	222
322	404	911
323	424	132
324	797	284
325	298	181
326	963	124
327	981	452
328	29	541
329	421	131
330	450	480
331	370	145
332	747	75
333	619	123
334	351	51
335	539	829
336	290	670
337	218	463
338	520	171
339	964	101
340	374	142
341	888	752
342	914	892
343	884	678
344	926	572
345	785	335
346	112	50
347	815	942
348	189	565
349	604	388
350	266	338
351	766	632
352	163	705
353	990	669
354	529	107
355	651	781
356	273	308
357	452	460
358	755	849
359	381	216
360	9	745
361	126	859
362	135	377
363	899	942
364	130	3
365	878	367
366	793	938
367	218	827
368	848	342
369	828	464
370	245	641
371	673	72
372	950	315
373	865	166
374	855	960
375	954	680
376	396	914
377	915	653
378	887	981
379	872	368
380	266	139
381	881	916
382	274	739
383	602	684
384	225	916
385	670	151
386	287	941
387	388	797
388	186	272
389	731	998
390	284	765
391	599	8
392	202	47
393	991	978
394	961	450
395	317	65
396	272	112
397	302	866
398	133	917
399	62	838
400	417	973
401	11	195
DEMAND_SECTION
1	0
2	9
3	7
4	4
5	2
6	6
7	8
8	7
9	5
10	2
11	6
12	6
13	7
14	9
15	8
16	7
17	7
18	5
19	7
20	2
21	4
22	7
23	6
24	3
25	1
26	1
27	5
28	4
29	5
30	1
31	3
32	5
33	5
34	7
35	6
36	5
37	3
38	5
39	9
40	7
41	9
42	8
43	5
44	3
45	6
46	2
47	6
48	3
49	4
50	7
51	6
52	9
53	8
54	2
55	4
56	7
57	2
58	9
59	5
60	5
61	6
62	5
63	2
64	3
65	7
66	5
67	2
68	4
69	9
70	1
71	2
72	2
73	5
74	1
75	5
76	3
77	9
78	1
79	1
80	5
81	6
82	1
83	6
84	3
85	1
86	3
87	8
88	3
89	8
90	8
91	2
92	3
93	2
94	3
95	1
96	8
97	3
98	5
99	7
100	8
101	5
102	7
103	2
104	2
105	9
106	5
107	6
108	4
109	6
110	3
111	7
112	7
113	6
114	9
115	3
116	1
117	8
118	5
119	9
120	9
121	1
122	8
123	3
124	2
125	3
126	8
127	3
128	9
129	8
130	1
131	9
132	8
133	5
134	9
135	4
136	7
137	2
138	4
139	3
140	4
141	6
142	3
143	4
144	8
145	7
146	7
147	1
148	7
149	3
150	3
151	8
152	1
153	8
154	9
155	2
156	9
157	8
158	5
159	8
160	2
161	1
162	5
163	4
164	1
165	3
166	3
167	7
168	9
169	6
170	8
171	9
172	5
173	9
174	1
175	5
176	3
177	3
178	9
179	3
180	1
181	5
182	1
183	9
184	1
185	2
186	4
187	9
188	5
189	4
190	4
191	6
192	8
193	8
194	2
195	7
196	4
197	5
198	3
199	1
200	1
201	3
202	8
203	8
204	4
205	1
206	2
207	5
208	8
209	7
210	2
211	3
212	5
213	8
214	4
215	6
216	7
217	9
218	5
219	8
220	6
221	6
222	9
223	8
224	4
225	2
226	6
227	2
228	4
229	5
230	7
231	2
232	3
233	9
234	1
235	9
236	7
237	9
238	5
239	9
240	2
241	7
242	7
243	5
244	3
245	9
246	3
247	7
248	2
249	6
250	4
251	3
252	8
253	2
254	2
255	4
256	9
257	5
258	2
259	3
260	6
261	6
262	4
263	5
264	7
265	4
266	7
267	8
268	4
269	9
270	1
271	8
272	2
273	2
274	3
275	2
276	8
277	8
278	8
279	4
280	4
281	5
282	1
283	7
284	7
285	4
286	8
287	2
288	5
289	7
290	7
291	6
292	7
293	8
294	5
295	7
296	1
297	7
298	4
299	2
300	6
301	4
302	7
303	3
304	6
305	8
306	5
307	3
308	2
309	2
310	4
311	2
312	7
313	6
314	5
315	8
316	2
317	1
318	8
319	6
320	2
321	3
322	8
323	6
324	2
325	3
326	6
327	6
328	9
329	5
330	8
331	8
332	3
333	4
334	1
335	3
336	2
337	7
338	3
339	5
340	9
341	5
342	7
343	3
344	6
345	5
346	3
347	3
348	6
349	4
350	8
351	4
352	7
353	3
354	5
355	6
356	9
357	2
358	5
359	7
360	5
361	9
362	4
363	6
364	8
365	1
366	3
367	8
368	4
369	1
370	8
371	8
372	9
373	1
374	9
375	1
376	2
377	5
378	8
379	1
380	9
381	3
382	2
383	1
384	5
385	8
386	2
387	6
388	9
389	8
390	7
391	3
392	6
393	6
394	2
395	1
396	3
397	6
398	9
399	5
400	8
401	7
DEPOT_SECTION
1
-1
EOF
