NAME : n401-0009
COMMENT : "Generated by pyvrp_manuel (OVRP)"
TYPE : OVRP
DIMENSION : 401
EDGE_WEIGHT_TYPE : EUC_2D
CAPACITY : 100
VEHICLES : 400
OPEN_ROUTE : YES
NODE_COORD_SECTION
1	513	402
2	997	458
3	655	338
4	287	986
5	648	926
6	550	178
7	182	554
8	214	205
9	459	305
10	835	390
11	663	972
12	544	652
13	257	744
14	14	389
15	549	645
16	286	970
17	551	225
18	597	30
19	134	653
20	938	830
21	760	747
22	23	651
23	455	951
24	483	145
25	217	420
26	709	953
27	186	90
28	365	739
29	782	192
30	489	510
31	410	951
32	75	394
33	811	271
34	2	643
35	972	974
36	784	87
37	195	11
38	476	779
39	649	994
40	796	862
41	455	877
42	72	22
43	95	821
44	596	449
45	665	409
46	533	373
47	93	727
48	641	884
49	354	647
50	565	244
51	188	833
52	107	551
53	29	201
54	171	786
55	642	194
56	216	65
57	235	308
58	405	55
59	480	571
60	28	450
61	154	997
62	572	186
63	202	112
64	86	974
65	846	185
66	359	850
67	819	326
68	779	565
69	354	879
70	143	506
71	739	586
72	348	451
73	241	632
74	79	509
75	118	496
76	236	1
77	534	793
78	38	18
79	558	473
80	469	485
81	720	917
82	475	843
83	779	773
84	693	867
85	318	388
86	457	959
87	43	801
88	846	385
89	124	840
90	262	994
91	827	196
92	630	234
93	356	187
94	543	702
95	310	232
96	906	904
97	703	475
98	653	240
99	382	818
100	271	527
101	153	706
102	74	357
103	130	519
104	607	905
105	514	218
106	228	107
107	84	224
108	811	410
109	424	937
110	73	940
111	743	994
112	787	511
113	179	364
114	733	847
115	815	437
116	830	801
117	116	331
118	799	45
119	497	945
120	523	127
121	442	497
122	589	697
123	88	30
124	6	282
125	808	630
126	153	377
127	346	275
128	523	51
129	42	253
130	380	263
131	73	320
132	764	367
133	611	847
134	353	457
135	760	216
136	702	890
137	977	796
138	155	335
139	266	965
140	324	896
141	970	397
142	148	250
143	319	813
144	77	654
145	857	53
146	767	563
147	359	321
148	753	771
149	954	712
150	863	8
151	624	504
152	217	812
153	649	174
154	693	623
155	651	465
156	274	222
157	367	83
158	960	948
159	126	340
160	168	686
161	744	318
162	508	47
163	544	865
164	441	683
165	438	964
166	837	355
167	63	102
168	8	78
169	750	804
170	309	882
171	286	989
172	590	431
173	445	644
174	595	705
175	871	684
176	954	731
177	171	10
178	499	289
179	668	832
180	478	923
181	271	283
182	292	988
183	474	804
184	966	697
185	673	786
186	794	416
187	356	366
188	240	925
189	128	281
190	129	28
191	747	924
192	799	295
193	110	400
194	663	37
195	593	67
196	911	91
197	316	945
198	43	822
199	234	941
200	917	848
201	662	880
202	810	452
203	585	729
204	174	344
205	381	216
206	5	278
207	543	877
208	190	826
209	424	200
210	324	706
211	674	528
212	221	61
213	994	551
214	877	790
215	6	237
216	517	182
217	399	800
218	800	655
219	698	129
220	867	419
221	979	845
222	134	794
223	778	179
224	161	304
225	891	46
226	378	105
227	19	657
228	114	119
229	927	89
230	304	329
231	25	288
232	289	309
233	600	205
234	955	898
235	340	423
236	869	315
237	171	463
238	600	806
239	848	558
240	963	663
241	350	122
242	631	21
243	711	831
244	146	553
245	600	620
246	885	235
247	912	311
248	565	576
249	508	698
250	906	629
251	802	214
252	573	766
253	453	663
254	150	717
255	576	201
256	661	286
257	559	419
258	329	668
259	877	217
260	91	410
261	976	107
262	854	598
263	811	790
264	523	245
265	481	528
266	292	608
267	83	877
268	903	448
269	516	86
270	64	445
271	436	118
272	634	437
273	248	460
274	356	842
275	12	455
276	68	526
277	293	777
278	124	794
279	579	860
280	15	182
281	713	889
282	711	77
283	786	998
284	90	267
285	223	163
286	195	316
287	84	833
288	356	277
289	891	828
290	688	510
291	673	749
292	540	354
293	42	871
294	977	300
295	273	190
296	268	426
297	172	134
298	866	988
299	242	641
300	465	631
301	591	899
302	64	523
303	609	646
304	874	370
305	566	716
306	915	122
307	948	830
308	85	429
309	422	95
310	302	739
311	531	97
312	962	4
313	751	353
314	329	142
315	121	789
316	745	961
317	360	846
318	491	864
319	6	117
320	726	756
321	349	353
322	116	485
323	974	827
324	679	88
325	594	786
326	506	707
327	506	510
328	991	249
329	335	592
330	743	338
331	371	648
332	761	4
333	31	185
334	432	645
335	28	99
336	801	297
337	94	152
338	569	942
339	121	73
340	455	821
341	305	124
342	999	60
343	794	372
344	746	247
345	41	263
346	180	545
347	823	886
348	306	908
349	170	6
350	61	194
351	776	693
352	94	448
353	463	834
354	610	688
355	699	626
356	220	709
357	552	650
358	784	869
359	738	72
360	324	220
361	117	105
362	69	606
363	829	831
364	571	594
365	793	207
366	972	922
367	786	611
368	302	827
369	303	533
370	148	583
371	878	862
372	389	174
373	304	849
374	119	44
375	417	42
376	874	78
377	11	962
378	538	760
379	839	669
380	897	449
381	808	375
382	540	205
383	181	160
384	148	274
385	433	780
386	88	936
387	569	928
388	588	859
389	115	362
390	455	231
391	544	448
392	58	647
393	822	795
394	301	309
395	2	739
396	12	34
397	983	248
398	300	407
399	337	149
400	519	260
401	295	700
DEMAND_SECTION
1	0
2	6
3	7
4	7
5	5
6	9
7	2
8	9
9	5
10	6
11	3
12	5
13	8
14	5
15	9
16	9
17	8
18	1
19	4
20	5
21	6
22	8
23	5
24	1
25	1
26	2
27	3
28	4
29	3
30	7
31	6
32	7
33	2
34	8
35	5
36	4
37	8
38	3
39	4
40	2
41	1
42	1
43	3
44	6
45	9
46	5
47	2
48	7
49	5
50	4
51	4
52	5
53	6
54	6
55	6
56	1
57	4
58	2
59	2
60	9
61	2
62	3
63	7
64	8
65	7
66	8
67	9
68	8
69	2
70	7
71	5
72	5
73	6
74	8
75	7
76	5
77	1
78	6
79	8
80	7
81	9
82	9
83	9
84	2
85	9
86	4
87	6
88	9
89	8
90	8
91	9
92	7
93	5
94	5
95	4
96	7
97	5
98	8
99	9
100	4
101	1
102	8
103	6
104	2
105	7
106	5
107	9
108	4
109	9
110	2
111	2
112	5
113	2
114	3
115	3
116	6
117	7
118	3
119	4
120	5
121	4
122	1
123	6
124	5
125	4
126	3
127	4
128	3
129	1
130	5
131	2
132	6
133	4
134	3
135	2
136	7
137	1
138	5
139	1
140	7
141	8
142	7
143	1
144	4
145	5
146	2
147	1
148	7
149	6
150	6
151	4
152	4
153	2
154	9
155	7
156	6
157	3
158	5
159	3
160	8
161	6
162	8
163	7
164	7
165	2
166	8
167	2
168	5
169	4
170	7
171	4
172	7
173	2
174	6
175	6
176	9
177	9
178	2
179	6
180	1
181	3
182	9
183	5
184	8
185	1
186	2
187	2
188	9
189	6
190	7
191	2
192	5
193	9
194	2
195	5
196	2
197	5
198	1
199	9
200	2
201	3
202	3
203	5
204	8
205	2
206	4
207	6
208	5
209	9
210	4
211	9
212	8
213	4
214	3
215	8
216	9
217	4
218	1
219	2
220	4
221	3
222	5
223	8
224	7
225	2
226	8
227	3
228	5
229	1
230	1
231	7
232	8
233	6
234	5
235	8
236	8
237	9
238	2
239	5
240	6
241	7
242	1
243	3
244	6
245	7
246	2
247	4
248	5
249	7
250	3
251	8
252	4
253	7
254	6
255	1
256	8
257	7
258	6
259	1
260	5
261	5
262	9
263	6
264	9
265	5
266	2
267	6
268	3
269	2
270	9
271	5
272	5
273	3
274	6
275	3
276	8
277	6
278	8
279	1
280	3
281	4
282	9
283	7
284	5
285	2
286	5
287	6
288	5
289	5
290	3
291	1
292	3
293	8
294	5
295	6
296	9
297	7
298	7
299	5
300	2
301	7
302	5
303	5
304	9
305	5
306	9
307	3
308	4
309	3
310	3
311	7
312	5
313	9
314	1
315	7
316	6
317	9
318	1
319	8
320	9
321	5
322	2
323	8
324	6
325	1
326	2
327	6
328	1
329	9
330	1
331	8
332	9
333	2
334	7
335	2
336	8
337	6
338	7
339	4
340	1
341	7
342	8
343	8
344	3
345	6
346	9
347	3
348	9
349	3
350	5
351	8
352	6
353	3
354	7
355	1
356	6
357	2
358	5
359	1
360	8
361	5
362	8
363	2
364	9
365	5
366	3
367	8
368	4
369	3
370	8
371	8
372	2
373	2
374	5
375	6
376	3
377	7
378	3
379	5
380	2
381	8
382	5
383	6
384	5
385	9
386	4
387	7
388	8
389	3
390	4
391	7
392	2
393	9
394	4
395	2
396	9
397	2
398	6
399	9
400	7
401	2
DEPOT_SECTION
1
-1
EOF
