NAME : n401-0032
COMMENT : "Generated by pyvrp_manuel (OVRP)"
TYPE : OVRP
DIMENSION : 401
EDGE_WEIGHT_TYPE : EUC_2D
CAPACITY : 100
VEHICLES : 400
OPEN_ROUTE : YES
NODE_COORD_SECTION
1	678	629
2	528	414
3	624	312
4	473	440
5	577	848
6	610	252
7	969	301
8	318	485
9	978	523
10	692	972
11	328	362
12	325	994
13	418	856
14	97	912
15	621	528
16	657	509
17	856	691
18	228	514
19	477	35
20	651	861
21	593	470
22	384	967
23	958	346
24	654	687
25	898	477
26	463	620
27	634	575
28	566	598
29	628	714
30	894	645
31	254	39
32	703	77
33	192	535
34	191	414
35	236	413
36	80	28
37	638	733
38	175	581
39	558	257
40	979	63
41	385	825
42	616	476
43	720	78
44	157	726
45	485	158
46	991	887
47	324	979
48	651	264
49	861	401
50	690	879
51	890	42
52	628	818
53	805	277
54	567	322
55	698	318
56	227	831
57	20	565
58	973	38
59	788	814
60	939	370
61	111	670
62	544	878
63	488	66
64	71	771
65	969	236
66	152	157
67	720	250
68	973	683
69	114	766
70	841	923
71	754	93
72	409	412
73	418	319
74	794	756
75	595	852
76	112	194
77	721	589
78	770	663
79	821	462
80	547	515
81	547	525
82	390	643
83	580	474
84	808	34
85	206	303
86	299	667
87	701	47
88	906	116
89	514	714
90	990	480
91	631	625
92	135	196
93	702	647
94	359	112
95	124	423
96	340	810
97	235	727
98	570	471
99	641	582
100	869	634
101	698	475
102	714	941
103	537	598
104	579	719
105	429	969
106	555	598
107	720	245
108	465	114
109	505	945
110	589	899
111	380	158
112	621	241
113	732	221
114	741	81
115	467	172
116	419	301
117	385	128
118	918	929
119	662	801
120	582	48
121	751	290
122	919	157
123	401	761
124	968	809
125	395	157
126	349	732
127	630	288
128	264	724
129	791	269
130	365	511
131	188	775
132	290	80
133	642	752
134	670	652
135	281	764
136	980	768
137	739	206
138	996	977
139	639	510
140	580	63
141	720	150
142	891	387
143	98	566
144	70	191
145	213	56
146	209	562
147	990	462
148	513	258
149	14	120
150	818	815
151	84	191
152	468	954
153	666	845
154	743	405
155	930	84
156	566	713
157	309	720
158	927	2
159	622	77
160	1	372
161	438	995
162	631	440
163	288	432
164	276	817
165	348	621
166	594	233
167	821	33
168	459	839
169	587	785
170	887	595
171	830	467
172	564	331
173	504	545
174	538	951
175	255	542
176	1000	983
177	996	23
178	430	996
179	668	543
180	44	754
181	668	341
182	304	437
183	73	408
184	216	700
185	264	785
186	228	188
187	901	769
188	135	214
189	984	221
190	427	234
191	446	861
192	822	110
193	220	401
194	538	360
195	156	947
196	589	58
197	75	221
198	855	518
199	713	591
200	698	625
201	760	59
202	418	569
203	759	567
204	320	452
205	667	18
206	171	790
207	938	863
208	151	477
209	975	951
210	729	125
211	764	18
212	116	439
213	645	221
214	204	303
215	488	880
216	826	666
217	289	530
218	753	913
219	174	325
220	449	352
221	950	25
222	373	577
223	969	739
224	778	859
225	178	339
226	491	554
227	578	964
228	635	698
229	673	155
230	973	236
231	571	737
232	619	832
233	170	320
234	613	892
235	442	650
236	682	530
237	791	570
238	294	29
239	199	240
240	703	617
241	498	804
242	583	575
243	95	366
244	438	29
245	80	181
246	859	45
247	790	842
248	367	42
249	476	646
250	587	974
251	40	119
252	554	560
253	96	241
254	292	83
255	613	258
256	103	771
257	699	150
258	709	52
259	431	131
260	771	228
261	136	35
262	648	692
263	211	242
264	566	450
265	201	672
266	608	1000
267	694	336
268	124	20
269	436	715
270	12	102
271	217	139
272	659	284
273	208	787
274	230	79
275	219	141
276	813	865
277	66	486
278	508	366
279	344	659
280	203	625
281	592	852
282	855	887
283	428	823
284	907	920
285	751	192
286	268	388
287	785	761
288	915	570
289	390	891
290	956	310
291	331	340
292	282	783
293	379	799
294	538	767
295	136	293
296	404	849
297	333	821
298	262	597
299	142	156
300	619	902
301	749	376
302	606	76
303	76	440
304	676	321
305	223	48
306	441	101
307	784	601
308	710	759
309	647	705
310	972	512
311	335	737
312	628	663
313	539	752
314	913	566
315	132	709
316	14	665
317	750	702
318	600	259
319	168	689
320	75	380
321	54	566
322	878	171
323	910	650
324	613	809
325	945	705
326	924	390
327	542	92
328	325	462
329	886	308
330	185	998
331	579	94
332	792	597
333	609	282
334	375	37
335	473	378
336	133	311
337	763	687
338	765	52
339	362	345
340	386	455
341	784	462
342	575	606
343	422	255
344	128	847
345	774	905
346	346	790
347	35	218
348	189	83
349	469	181
350	969	331
351	626	986
352	899	810
353	641	172
354	176	969
355	448	140
356	360	710
357	301	287
358	536	299
359	649	545
360	698	0
361	832	209
362	724	131
363	188	20
364	514	584
365	190	309
366	453	504
367	714	159
368	182	938
369	441	59
370	59	124
371	490	318
372	47	586
373	998	947
374	198	710
375	449	928
376	470	795
377	738	709
378	593	253
379	230	303
380	487	357
381	837	854
382	617	575
383	677	107
384	241	688
385	38	667
386	556	498
387	987	639
388	544	447
389	400	892
390	616	185
391	424	409
392	944	76
393	283	504
394	292	866
395	137	656
396	89	965
397	406	942
398	306	189
399	667	917
400	997	739
401	416	567
DEMAND_SECTION
1	0
2	8
3	8
4	9
5	6
6	4
7	4
8	3
9	2
10	2
11	7
12	4
13	6
14	6
15	6
16	1
17	6
18	7
19	5
20	6
21	2
22	4
23	1
24	6
25	2
26	1
27	9
28	5
29	6
30	8
31	4
32	8
33	9
34	6
35	6
36	6
37	6
38	1
39	9
40	5
41	8
42	4
43	6
44	1
45	9
46	9
47	3
48	4
49	9
50	1
51	4
52	7
53	4
54	7
55	2
56	7
57	1
58	8
59	9
60	7
61	9
62	9
63	8
64	4
65	1
66	4
67	6
68	5
69	8
70	8
71	4
72	5
73	1
74	5
75	9
76	5
77	7
78	7
79	2
80	5
81	5
82	7
83	7
84	9
85	5
86	4
87	6
88	4
89	4
90	5
91	8
92	9
93	7
94	6
95	8
96	7
97	5
98	2
99	4
100	1
101	7
102	3
103	5
104	2
105	2
106	9
107	1
108	4
109	1
110	7
111	7
112	2
113	7
114	9
115	3
116	1
117	8
118	6
119	2
120	4
121	7
122	6
123	6
124	9
125	4
126	1
127	5
128	9
129	7
130	8
131	4
132	7
133	4
134	3
135	8
136	2
137	5
138	3
139	1
140	7
141	7
142	8
143	1
144	6
145	3
146	9
147	7
148	1
149	2
150	7
151	6
152	1
153	6
154	1
155	5
156	7
157	6
158	1
159	1
160	4
161	5
162	4
163	9
164	4
165	1
166	3
167	2
168	3
169	2
170	9
171	4
172	1
173	4
174	2
175	8
176	7
177	6
178	6
179	4
180	9
181	4
182	9
183	6
184	8
185	9
186	8
187	8
188	1
189	2
190	2
191	9
192	1
193	3
194	8
195	6
196	8
197	1
198	6
199	5
200	7
201	5
202	2
203	9
204	4
205	7
206	3
207	7
208	4
209	3
210	2
211	3
212	4
213	2
214	8
215	3
216	8
217	3
218	5
219	9
220	5
221	7
222	2
223	1
224	7
225	7
226	1
227	9
228	7
229	5
230	7
231	9
232	4
233	5
234	2
235	7
236	2
237	5
238	5
239	5
240	8
241	5
242	7
243	5
244	1
245	9
246	8
247	1
248	8
249	1
250	7
251	5
252	6
253	6
254	6
255	9
256	5
257	8
258	7
259	5
260	8
261	4
262	6
263	8
264	3
265	3
266	5
267	4
268	9
269	1
270	9
271	5
272	5
273	3
274	6
275	2
276	8
277	9
278	4
279	5
280	8
281	4
282	1
283	2
284	8
285	4
286	3
287	7
288	8
289	6
290	3
291	9
292	4
293	3
294	3
295	2
296	4
297	6
298	5
299	5
300	4
301	3
302	7
303	8
304	5
305	5
306	1
307	3
308	8
309	7
310	3
311	8
312	3
313	7
314	5
315	5
316	5
317	8
318	1
319	5
320	3
321	7
322	2
323	7
324	5
325	7
326	3
327	8
328	9
329	1
330	9
331	1
332	9
333	2
334	6
335	2
336	1
337	9
338	9
339	8
340	1
341	9
342	8
343	8
344	7
345	6
346	7
347	1
348	7
349	1
350	2
351	4
352	3
353	5
354	7
355	3
356	8
357	6
358	3
359	4
360	1
361	7
362	5
363	8
364	4
365	4
366	5
367	1
368	6
369	4
370	9
371	1
372	9
373	6
374	9
375	5
376	8
377	8
378	2
379	3
380	7
381	5
382	1
383	4
384	6
385	4
386	3
387	1
388	5
389	9
390	4
391	4
392	6
393	2
394	9
395	4
396	1
397	9
398	5
399	3
400	7
401	1
DEPOT_SECTION
1
-1
EOF
