NAME : n401-0007
COMMENT : "Generated by pyvrp_manuel (OVRP)"
TYPE : OVRP
DIMENSION : 401
EDGE_WEIGHT_TYPE : EUC_2D
CAPACITY : 100
VEHICLES : 400
OPEN_ROUTE : YES
NODE_COORD_SECTION
1	691	701
2	837	259
3	75	826
4	346	118
5	318	283
6	640	177
7	321	575
8	437	123
9	224	166
10	132	955
11	726	613
12	279	719
13	130	759
14	777	800
15	254	39
16	572	157
17	413	400
18	35	586
19	834	842
20	229	810
21	383	511
22	622	271
23	187	746
24	148	199
25	351	43
26	906	898
27	596	681
28	20	694
29	771	216
30	95	324
31	936	982
32	502	454
33	353	497
34	348	772
35	23	425
36	593	785
37	673	414
38	618	273
39	60	881
40	999	990
41	84	549
42	755	827
43	776	351
44	291	768
45	631	990
46	500	375
47	587	797
48	850	708
49	980	122
50	481	238
51	565	504
52	562	729
53	706	529
54	404	694
55	571	735
56	418	415
57	251	199
58	672	184
59	485	419
60	413	658
61	291	395
62	524	21
63	722	494
64	214	395
65	123	387
66	437	103
67	720	468
68	529	341
69	227	364
70	375	536
71	427	538
72	811	617
73	619	212
74	587	743
75	101	662
76	865	870
77	519	419
78	504	51
79	940	153
80	424	393
81	553	951
82	978	791
83	530	524
84	176	850
85	162	393
86	642	790
87	159	601
88	934	429
89	438	422
90	316	530
91	101	594
92	137	990
93	763	405
94	253	275
95	99	754
96	220	392
97	140	290
98	402	914
99	417	506
100	423	462
101	612	938
102	234	64
103	697	239
104	241	446
105	612	633
106	952	460
107	560	372
108	582	544
109	131	994
110	797	82
111	44	16
112	983	67
113	7	46
114	472	963
115	757	769
116	389	59
117	651	586
118	619	637
119	473	777
120	848	136
121	623	741
122	358	950
123	785	866
124	533	484
125	903	186
126	216	839
127	291	207
128	909	889
129	167	433
130	262	703
131	182	284
132	45	736
133	979	307
134	893	338
135	373	751
136	226	650
137	169	787
138	987	51
139	189	421
140	909	514
141	675	889
142	157	258
143	879	909
144	911	470
145	908	575
146	586	123
147	391	632
148	609	587
149	255	436
150	521	95
151	993	589
152	115	163
153	21	33
154	647	363
155	511	222
156	995	773
157	402	440
158	697	673
159	548	750
160	84	505
161	89	583
162	477	639
163	310	922
164	108	720
165	746	93
166	480	502
167	855	497
168	674	617
169	806	805
170	514	563
171	786	129
172	484	169
173	157	471
174	278	860
175	410	29
176	31	591
177	4	947
178	409	824
179	997	21
180	728	97
181	226	66
182	286	253
183	942	790
184	391	268
185	160	402
186	287	769
187	716	883
188	820	989
189	581	500
190	119	743
191	379	496
192	805	908
193	803	593
194	703	461
195	288	318
196	922	449
197	159	954
198	18	914
199	73	89
200	201	349
201	365	863
202	944	689
203	111	865
204	371	520
205	529	627
206	21	78
207	942	706
208	270	992
209	267	421
210	351	373
211	969	566
212	561	287
213	732	114
214	67	346
215	680	861
216	233	763
217	840	609
218	219	442
219	428	364
220	710	559
221	730	617
222	894	224
223	306	747
224	959	631
225	984	919
226	143	83
227	141	42
228	768	21
229	276	418
230	946	655
231	200	501
232	300	425
233	520	472
234	212	462
235	100	9
236	909	382
237	229	566
238	224	200
239	69	5
240	695	50
241	8	573
242	742	478
243	796	407
244	42	100
245	201	864
246	345	43
247	872	761
248	457	558
249	551	823
250	133	130
251	894	522
252	456	940
253	17	642
254	675	630
255	266	762
256	505	61
257	879	659
258	888	946
259	824	787
260	89	918
261	196	547
262	31	397
263	113	717
264	403	637
265	543	853
266	151	504
267	474	171
268	727	544
269	804	950
270	445	909
271	338	65
272	136	495
273	601	427
274	961	545
275	323	670
276	533	246
277	137	912
278	127	797
279	983	249
280	937	0
281	245	874
282	93	815
283	412	49
284	744	9
285	61	309
286	791	948
287	210	372
288	349	79
289	253	799
290	653	222
291	92	299
292	18	888
293	352	633
294	606	542
295	693	920
296	974	428
297	28	680
298	357	507
299	624	628
300	49	494
301	942	211
302	214	212
303	37	623
304	400	800
305	255	629
306	938	876
307	788	456
308	459	464
309	557	828
310	109	763
311	619	820
312	797	201
313	934	183
314	445	52
315	953	514
316	142	835
317	789	866
318	780	214
319	235	327
320	197	867
321	569	524
322	707	240
323	167	731
324	180	629
325	837	110
326	459	237
327	370	896
328	82	392
329	768	238
330	961	485
331	378	321
332	134	654
333	769	631
334	615	882
335	230	654
336	829	944
337	829	523
338	544	821
339	31	28
340	609	497
341	348	335
342	357	825
343	206	731
344	875	27
345	242	250
346	336	595
347	130	558
348	53	154
349	245	270
350	928	42
351	205	38
352	510	451
353	628	486
354	550	878
355	396	861
356	75	115
357	147	148
358	570	841
359	573	253
360	399	38
361	197	951
362	707	599
363	316	171
364	223	92
365	353	63
366	981	136
367	814	516
368	917	561
369	693	162
370	654	937
371	516	493
372	456	8
373	876	991
374	829	266
375	537	439
376	201	163
377	433	196
378	465	355
379	665	413
380	15	196
381	89	871
382	728	507
383	126	524
384	541	458
385	123	503
386	426	100
387	152	869
388	494	473
389	187	153
390	463	77
391	359	43
392	327	848
393	870	6
394	112	323
395	119	526
396	867	266
397	51	701
398	301	584
399	789	77
400	865	116
401	351	939
DEMAND_SECTION
1	0
2	9
3	8
4	7
5	7
6	4
7	2
8	7
9	4
10	2
11	8
12	9
13	3
14	8
15	3
16	2
17	2
18	4
19	8
20	8
21	4
22	2
23	9
24	3
25	6
26	2
27	2
28	5
29	8
30	5
31	5
32	9
33	9
34	3
35	8
36	1
37	9
38	2
39	8
40	2
41	5
42	3
43	5
44	5
45	1
46	7
47	7
48	1
49	5
50	5
51	8
52	8
53	8
54	3
55	3
56	7
57	8
58	2
59	3
60	6
61	7
62	9
63	2
64	1
65	4
66	4
67	4
68	7
69	8
70	3
71	1
72	9
73	8
74	2
75	6
76	6
77	8
78	9
79	4
80	3
81	6
82	3
83	8
84	6
85	6
86	5
87	1
88	2
89	5
90	7
91	1
92	8
93	5
94	1
95	2
96	4
97	4
98	5
99	3
100	8
101	8
102	7
103	1
104	3
105	3
106	5
107	6
108	6
109	8
110	1
111	3
112	4
113	5
114	9
115	7
116	1
117	3
118	1
119	6
120	5
121	8
122	6
123	4
124	6
125	2
126	3
127	8
128	2
129	5
130	7
131	8
132	4
133	6
134	9
135	1
136	4
137	8
138	7
139	6
140	3
141	5
142	4
143	4
144	8
145	7
146	8
147	6
148	1
149	2
150	4
151	1
152	3
153	2
154	9
155	5
156	1
157	8
158	2
159	4
160	1
161	6
162	4
163	5
164	9
165	2
166	2
167	4
168	7
169	4
170	7
171	3
172	8
173	3
174	2
175	1
176	9
177	1
178	7
179	6
180	5
181	9
182	4
183	1
184	5
185	6
186	3
187	7
188	2
189	8
190	5
191	7
192	7
193	2
194	8
195	2
196	1
197	4
198	7
199	8
200	4
201	2
202	5
203	9
204	5
205	8
206	1
207	7
208	2
209	9
210	1
211	7
212	2
213	2
214	1
215	5
216	6
217	5
218	5
219	4
220	8
221	2
222	7
223	6
224	5
225	2
226	3
227	5
228	5
229	7
230	7
231	1
232	2
233	5
234	6
235	9
236	7
237	2
238	3
239	1
240	9
241	2
242	1
243	9
244	6
245	9
246	8
247	6
248	6
249	5
250	6
251	5
252	4
253	7
254	9
255	7
256	4
257	9
258	4
259	1
260	8
261	3
262	8
263	9
264	6
265	8
266	7
267	7
268	1
269	6
270	8
271	6
272	4
273	2
274	6
275	2
276	8
277	5
278	2
279	4
280	5
281	8
282	4
283	3
284	5
285	7
286	2
287	8
288	9
289	4
290	9
291	7
292	8
293	4
294	3
295	1
296	4
297	6
298	5
299	3
300	7
301	3
302	9
303	2
304	4
305	1
306	5
307	2
308	1
309	3
310	6
311	5
312	5
313	8
314	8
315	8
316	7
317	9
318	7
319	6
320	7
321	8
322	7
323	3
324	9
325	8
326	4
327	3
328	1
329	3
330	5
331	9
332	5
333	2
334	8
335	4
336	7
337	1
338	6
339	8
340	5
341	4
342	5
343	6
344	2
345	9
346	7
347	6
348	4
349	2
350	8
351	4
352	9
353	5
354	9
355	3
356	5
357	9
358	3
359	8
360	8
361	6
362	8
363	9
364	2
365	1
366	3
367	3
368	2
369	7
370	6
371	4
372	4
373	7
374	4
375	1
376	6
377	5
378	6
379	7
380	3
381	2
382	7
383	8
384	7
385	8
386	7
387	8
388	6
389	1
390	7
391	4
392	6
393	6
394	4
395	7
396	7
397	4
398	7
399	6
400	8
401	2
DEPOT_SECTION
1
-1
EOF
