NAME : n401-0020
COMMENT : "Generated by pyvrp_manuel (OVRP)"
TYPE : OVRP
DIMENSION : 401
EDGE_WEIGHT_TYPE : EUC_2D
CAPACITY : 100
VEHICLES : 400
OPEN_ROUTE : YES
NODE_COORD_SECTION
1	386	367
2	603	606
3	984	550
4	83	897
5	52	931
6	220	386
7	213	395
8	159	544
9	371	240
10	944	995
11	924	178
12	415	428
13	772	613
14	279	808
15	187	498
16	324	990
17	684	550
18	202	808
19	61	466
20	970	690
21	486	516
22	705	174
23	888	11
24	778	931
25	732	125
26	517	147
27	141	287
28	741	806
29	79	804
30	352	574
31	473	253
32	367	947
33	212	240
34	783	779
35	576	326
36	60	756
37	312	385
38	662	526
39	163	670
40	279	959
41	610	103
42	673	440
43	990	432
44	482	54
45	938	548
46	271	983
47	200	553
48	949	875
49	976	748
50	978	597
51	863	10
52	64	919
53	887	463
54	270	353
55	132	940
56	799	973
57	724	418
58	689	167
59	133	720
60	497	331
61	302	336
62	937	657
63	155	565
64	539	628
65	737	850
66	694	937
67	919	916
68	452	862
69	287	631
70	228	941
71	626	675
72	799	101
73	189	761
74	201	654
75	688	792
76	127	676
77	283	584
78	461	215
79	997	594
80	928	68
81	302	56
82	212	807
83	547	861
84	931	421
85	109	677
86	520	64
87	655	855
88	621	339
89	817	569
90	28	532
91	997	270
92	662	297
93	106	828
94	979	627
95	780	328
96	189	237
97	210	937
98	392	31
99	796	508
100	328	765
101	210	736
102	533	919
103	96	237
104	490	937
105	977	548
106	310	559
107	412	447
108	724	348
109	958	595
110	475	876
111	99	699
112	142	547
113	935	744
114	926	677
115	335	158
116	691	749
117	967	139
118	473	955
119	383	300
120	712	93
121	418	539
122	153	946
123	729	983
124	87	370
125	447	483
126	352	155
127	659	144
128	160	316
129	915	900
130	102	135
131	181	372
132	509	384
133	875	885
134	495	299
135	863	547
136	168	120
137	175	307
138	607	589
139	931	656
140	624	765
141	218	787
142	602	916
143	8	436
144	170	91
145	699	616
146	505	422
147	181	884
148	493	726
149	446	307
150	448	406
151	1	120
152	622	816
153	264	358
154	161	502
155	496	341
156	191	609
157	275	434
158	67	537
159	571	980
160	606	725
161	700	209
162	505	578
163	655	951
164	82	721
165	686	619
166	8	875
167	564	226
168	984	161
169	277	708
170	739	997
171	311	589
172	959	253
173	171	467
174	110	233
175	697	53
176	910	49
177	163	988
178	348	105
179	996	840
180	683	580
181	951	170
182	250	277
183	386	1000
184	6	774
185	585	212
186	157	160
187	635	806
188	468	416
189	375	909
190	797	674
191	65	259
192	396	46
193	650	845
194	92	626
195	19	625
196	273	364
197	230	390
198	207	172
199	597	577
200	911	352
201	641	93
202	97	235
203	593	670
204	526	493
205	845	473
206	493	205
207	665	894
208	652	575
209	1	365
210	439	767
211	271	924
212	651	628
213	78	585
214	232	633
215	235	800
216	203	498
217	700	793
218	134	950
219	724	14
220	240	926
221	960	615
222	483	607
223	554	107
224	791	845
225	85	279
226	17	896
227	610	936
228	372	416
229	154	215
230	417	744
231	717	887
232	733	670
233	144	726
234	43	335
235	779	425
236	483	685
237	576	4
238	118	553
239	585	467
240	845	810
241	757	281
242	638	403
243	554	990
244	939	984
245	732	557
246	656	260
247	835	139
248	355	926
249	458	772
250	638	606
251	460	510
252	203	944
253	695	808
254	965	518
255	827	769
256	805	800
257	520	974
258	274	823
259	271	889
260	687	211
261	584	10
262	86	173
263	490	412
264	17	821
265	640	629
266	28	830
267	583	260
268	544	378
269	782	465
270	439	408
271	533	392
272	807	983
273	54	774
274	856	889
275	327	695
276	769	945
277	876	784
278	902	192
279	530	729
280	111	807
281	592	313
282	284	988
283	626	76
284	952	507
285	551	865
286	94	137
287	453	870
288	994	634
289	908	721
290	837	451
291	326	891
292	57	839
293	387	485
294	298	621
295	226	819
296	451	775
297	220	588
298	819	356
299	821	535
300	938	482
301	71	248
302	418	336
303	788	245
304	961	425
305	227	456
306	625	377
307	399	554
308	809	977
309	335	230
310	503	888
311	502	528
312	114	888
313	231	288
314	822	315
315	115	993
316	438	226
317	632	384
318	364	46
319	592	327
320	174	694
321	324	143
322	583	128
323	641	891
324	853	300
325	172	478
326	877	224
327	411	251
328	883	584
329	409	328
330	729	35
331	526	866
332	540	846
333	589	796
334	821	787
335	136	612
336	33	799
337	230	354
338	97	946
339	994	627
340	539	538
341	785	803
342	353	580
343	401	847
344	654	208
345	226	724
346	686	350
347	422	360
348	233	632
349	854	296
350	657	213
351	700	596
352	627	387
353	969	159
354	613	36
355	900	653
356	466	998
357	219	909
358	552	725
359	700	278
360	569	195
361	272	803
362	738	2
363	698	852
364	536	384
365	564	510
366	329	708
367	852	929
368	167	382
369	991	720
370	205	512
371	748	289
372	62	694
373	172	236
374	718	484
375	401	591
376	199	220
377	476	917
378	830	637
379	452	406
380	472	581
381	597	23
382	776	507
383	758	979
384	930	741
385	510	97
386	992	603
387	775	657
388	833	158
389	167	517
390	23	507
391	78	329
392	80	355
393	829	405
394	630	472
395	400	82
396	150	151
397	736	540
398	977	563
399	165	787
400	225	99
401	289	934
DEMAND_SECTION
1	0
2	3
3	3
4	9
5	8
6	9
7	7
8	5
9	4
10	8
11	8
12	1
13	8
14	5
15	7
16	2
17	6
18	4
19	8
20	4
21	9
22	5
23	9
24	1
25	7
26	4
27	3
28	9
29	3
30	9
31	7
32	2
33	5
34	4
35	7
36	9
37	8
38	5
39	2
40	7
41	2
42	2
43	1
44	2
45	2
46	3
47	4
48	6
49	8
50	9
51	4
52	4
53	7
54	6
55	1
56	1
57	4
58	4
59	8
60	7
61	3
62	8
63	1
64	4
65	1
66	6
67	5
68	6
69	1
70	2
71	7
72	4
73	7
74	9
75	6
76	9
77	3
78	2
79	8
80	6
81	9
82	8
83	9
84	9
85	7
86	8
87	4
88	2
89	9
90	6
91	6
92	8
93	1
94	5
95	1
96	7
97	8
98	6
99	4
100	8
101	7
102	9
103	8
104	5
105	7
106	7
107	9
108	4
109	6
110	9
111	4
112	4
113	9
114	7
115	5
116	5
117	5
118	3
119	8
120	9
121	4
122	7
123	6
124	4
125	3
126	3
127	7
128	4
129	3
130	4
131	7
132	6
133	9
134	6
135	4
136	1
137	9
138	1
139	5
140	1
141	6
142	8
143	9
144	9
145	2
146	6
147	5
148	7
149	6
150	5
151	7
152	8
153	7
154	9
155	2
156	2
157	1
158	6
159	6
160	6
161	3
162	3
163	5
164	1
165	8
166	8
167	9
168	1
169	1
170	4
171	3
172	2
173	1
174	9
175	6
176	6
177	3
178	1
179	4
180	5
181	9
182	8
183	3
184	9
185	4
186	5
187	3
188	8
189	5
190	8
191	6
192	4
193	1
194	7
195	8
196	9
197	9
198	9
199	2
200	6
201	5
202	3
203	2
204	1
205	6
206	4
207	9
208	4
209	2
210	1
211	8
212	5
213	6
214	9
215	1
216	4
217	7
218	8
219	4
220	4
221	7
222	1
223	2
224	2
225	6
226	2
227	8
228	2
229	9
230	4
231	2
232	4
233	3
234	7
235	3
236	5
237	6
238	4
239	1
240	5
241	9
242	9
243	3
244	8
245	3
246	4
247	7
248	1
249	7
250	1
251	1
252	5
253	5
254	2
255	7
256	5
257	4
258	2
259	1
260	4
261	4
262	6
263	5
264	5
265	7
266	6
267	9
268	1
269	3
270	4
271	4
272	7
273	2
274	5
275	1
276	1
277	3
278	9
279	6
280	8
281	8
282	3
283	1
284	4
285	3
286	5
287	8
288	1
289	7
290	3
291	7
292	3
293	2
294	5
295	8
296	2
297	2
298	6
299	5
300	9
301	4
302	4
303	1
304	4
305	9
306	3
307	3
308	3
309	7
310	2
311	2
312	2
313	9
314	7
315	9
316	5
317	1
318	4
319	3
320	8
321	7
322	9
323	1
324	2
325	1
326	4
327	7
328	6
329	5
330	8
331	7
332	3
333	2
334	6
335	9
336	6
337	6
338	1
339	1
340	8
341	2
342	9
343	6
344	7
345	8
346	4
347	5
348	4
349	8
350	3
351	6
352	6
353	9
354	5
355	5
356	1
357	7
358	3
359	2
360	4
361	6
362	9
363	4
364	5
365	8
366	8
367	6
368	3
369	6
370	4
371	5
372	1
373	2
374	8
375	8
376	4
377	6
378	1
379	3
380	3
381	8
382	1
383	1
384	3
385	5
386	2
387	4
388	9
389	3
390	9
391	3
392	2
393	7
394	6
395	2
396	9
397	5
398	4
399	6
400	6
401	1
DEPOT_SECTION
1
-1
EOF
