NAME : n1001-0010
COMMENT : "Generated by pyvrp_manuel (VRPBLTW)"
TYPE : VRPBLTW
DIMENSION : 1001
EDGE_WEIGHT_TYPE : EUC_2D
CAPACITY : 150
VEHICLES : 1000
DISTANCE : 3000
SERVICE_TIME : 200
NODE_COORD_SECTION
1	712	729
2	991	124
3	820	776
4	233	975
5	897	40
6	787	132
7	517	80
8	256	575
9	30	542
10	113	87
11	281	721
12	994	827
13	655	464
14	772	826
15	38	297
16	105	470
17	352	582
18	701	453
19	319	297
20	279	819
21	410	372
22	148	342
23	858	880
24	342	938
25	748	779
26	644	121
27	279	755
28	901	745
29	496	430
30	412	960
31	68	972
32	920	235
33	318	884
34	808	658
35	864	310
36	744	438
37	610	930
38	961	875
39	192	584
40	437	194
41	733	420
42	588	741
43	744	836
44	15	954
45	390	353
46	779	644
47	248	366
48	382	170
49	38	924
50	117	14
51	264	887
52	392	845
53	794	911
54	54	625
55	471	880
56	445	942
57	677	613
58	986	273
59	576	902
60	576	874
61	327	770
62	853	465
63	203	294
64	954	339
65	667	943
66	758	90
67	984	508
68	150	78
69	102	948
70	952	443
71	141	739
72	190	885
73	562	336
74	944	800
75	587	471
76	813	641
77	14	688
78	629	782
79	790	295
80	412	465
81	838	67
82	373	274
83	380	921
84	355	230
85	427	843
86	913	731
87	532	49
88	731	202
89	200	440
90	295	158
91	828	862
92	276	99
93	772	521
94	24	215
95	137	455
96	994	975
97	607	970
98	712	109
99	812	618
100	49	320
101	701	332
102	809	150
103	133	671
104	639	654
105	357	592
106	357	197
107	778	449
108	626	39
109	128	751
110	544	995
111	215	208
112	646	863
113	699	703
114	519	620
115	224	121
116	425	2
117	239	621
118	2	246
119	86	631
120	142	304
121	215	788
122	811	860
123	170	184
124	194	194
125	58	776
126	228	65
127	930	838
128	336	192
129	471	556
130	372	299
131	566	264
132	777	873
133	645	201
134	35	580
135	289	794
136	342	696
137	52	962
138	718	266
139	703	42
140	163	190
141	975	635
142	336	535
143	244	833
144	101	319
145	272	465
146	455	417
147	617	860
148	40	128
149	190	191
150	239	521
151	303	973
152	707	544
153	623	688
154	646	346
155	736	79
156	983	161
157	578	681
158	9	581
159	453	310
160	853	806
161	876	926
162	198	664
163	60	190
164	147	283
165	33	528
166	422	476
167	636	342
168	348	694
169	776	852
170	335	69
171	331	847
172	330	332
173	649	188
174	22	437
175	157	282
176	26	148
177	164	210
178	113	467
179	981	371
180	443	895
181	661	620
182	929	901
183	880	980
184	978	996
185	651	564
186	143	910
187	878	463
188	221	728
189	138	5
190	914	229
191	5	178
192	477	518
193	987	649
194	603	47
195	59	389
196	507	787
197	866	971
198	683	953
199	299	133
200	929	267
201	945	703
202	896	950
203	112	946
204	974	793
205	914	984
206	78	538
207	828	689
208	933	80
209	988	507
210	85	320
211	773	990
212	129	310
213	313	635
214	833	50
215	926	344
216	641	222
217	730	901
218	611	634
219	768	132
220	661	192
221	44	903
222	294	397
223	465	995
224	574	539
225	144	857
226	4	268
227	777	479
228	486	610
229	632	297
230	206	87
231	799	139
232	420	652
233	544	671
234	327	129
235	443	154
236	611	795
237	20	253
238	659	740
239	946	81
240	249	92
241	933	577
242	662	943
243	578	956
244	795	889
245	771	270
246	671	972
247	269	849
248	843	761
249	744	632
250	176	687
251	736	575
252	69	289
253	816	667
254	822	80
255	471	584
256	87	849
257	222	61
258	451	135
259	162	772
260	26	78
261	683	256
262	918	984
263	48	189
264	898	839
265	310	286
266	533	275
267	776	711
268	279	683
269	220	987
270	569	647
271	367	230
272	515	353
273	750	975
274	13	998
275	924	413
276	627	473
277	684	964
278	493	162
279	442	200
280	552	180
281	770	890
282	548	609
283	918	879
284	477	428
285	724	941
286	874	776
287	937	882
288	666	997
289	7	581
290	15	51
291	704	34
292	536	908
293	54	264
294	741	97
295	345	664
296	652	38
297	283	157
298	347	354
299	338	249
300	375	515
301	480	271
302	418	691
303	35	682
304	73	833
305	269	905
306	905	931
307	23	732
308	400	364
309	427	666
310	882	283
311	600	105
312	582	822
313	784	468
314	350	823
315	56	71
316	253	87
317	599	784
318	206	801
319	409	779
320	992	968
321	169	209
322	663	47
323	803	585
324	921	959
325	743	776
326	587	681
327	587	557
328	905	81
329	902	464
330	867	969
331	930	507
332	984	146
333	845	580
334	842	8
335	477	227
336	143	743
337	964	621
338	332	843
339	888	377
340	963	689
341	412	242
342	277	403
343	563	203
344	106	793
345	236	746
346	606	686
347	571	218
348	565	994
349	283	385
350	936	526
351	588	891
352	533	505
353	845	933
354	322	890
355	894	937
356	974	724
357	991	500
358	676	862
359	861	417
360	161	703
361	382	951
362	163	978
363	122	277
364	412	177
365	410	843
366	542	976
367	725	502
368	124	171
369	930	280
370	554	81
371	537	499
372	889	652
373	808	655
374	120	632
375	378	96
376	530	201
377	175	876
378	235	854
379	47	7
380	334	440
381	997	820
382	156	968
383	481	306
384	1000	349
385	684	180
386	717	190
387	153	615
388	829	598
389	361	920
390	533	682
391	877	353
392	687	469
393	631	243
394	457	44
395	143	222
396	719	306
397	364	183
398	232	897
399	211	805
400	295	440
401	693	100
402	946	807
403	673	703
404	528	936
405	156	860
406	865	951
407	539	310
408	877	309
409	266	311
410	762	728
411	299	929
412	537	608
413	432	430
414	424	726
415	734	344
416	716	375
417	348	937
418	865	340
419	64	769
420	990	271
421	324	994
422	696	158
423	166	29
424	141	972
425	371	132
426	614	940
427	310	248
428	185	781
429	811	122
430	18	66
431	115	511
432	3	896
433	244	104
434	985	274
435	884	659
436	608	985
437	103	755
438	362	137
439	770	783
440	289	630
441	385	568
442	893	445
443	964	568
444	903	569
445	787	240
446	778	90
447	818	744
448	392	942
449	901	999
450	868	575
451	729	62
452	161	618
453	846	906
454	10	530
455	205	850
456	131	211
457	94	624
458	87	416
459	516	921
460	10	50
461	290	843
462	713	28
463	434	133
464	38	440
465	310	70
466	263	785
467	253	918
468	665	85
469	293	76
470	522	755
471	639	99
472	216	886
473	656	833
474	376	53
475	431	27
476	344	193
477	481	962
478	476	29
479	672	971
480	592	803
481	735	110
482	873	581
483	786	777
484	109	991
485	191	71
486	388	119
487	795	440
488	94	576
489	685	325
490	394	770
491	723	674
492	919	142
493	990	821
494	3	158
495	180	919
496	249	942
497	209	574
498	172	991
499	762	273
500	206	26
501	803	453
502	267	961
503	837	271
504	381	926
505	597	379
506	807	979
507	163	861
508	0	708
509	988	529
510	588	851
511	769	812
512	17	107
513	825	52
514	438	511
515	186	225
516	68	492
517	605	946
518	288	533
519	749	609
520	703	274
521	182	628
522	291	450
523	232	794
524	85	678
525	19	739
526	895	906
527	808	773
528	897	833
529	520	350
530	212	912
531	913	165
532	75	111
533	498	955
534	906	258
535	191	589
536	181	114
537	141	870
538	464	533
539	485	387
540	248	562
541	677	628
542	640	83
543	550	718
544	474	909
545	675	772
546	441	979
547	829	629
548	50	19
549	958	983
550	329	515
551	558	987
552	501	4
553	917	447
554	885	358
555	815	865
556	290	699
557	726	428
558	398	688
559	795	467
560	134	820
561	42	166
562	163	37
563	528	345
564	739	241
565	753	738
566	514	417
567	685	715
568	401	56
569	886	837
570	538	894
571	244	503
572	890	507
573	119	834
574	218	504
575	554	88
576	901	678
577	936	241
578	888	778
579	603	202
580	983	604
581	150	807
582	355	305
583	950	734
584	346	838
585	97	598
586	827	205
587	196	805
588	310	945
589	880	509
590	151	525
591	672	909
592	201	949
593	421	102
594	922	299
595	27	206
596	233	215
597	124	197
598	912	549
599	799	297
600	19	330
601	483	147
602	167	716
603	658	681
604	82	515
605	370	962
606	806	787
607	387	26
608	654	693
609	375	93
610	959	227
611	790	461
612	575	815
613	773	59
614	890	711
615	810	72
616	401	559
617	491	289
618	461	22
619	916	319
620	22	62
621	444	312
622	11	111
623	505	382
624	853	645
625	68	295
626	189	792
627	496	898
628	158	657
629	137	770
630	794	151
631	896	316
632	244	11
633	357	392
634	67	419
635	421	158
636	770	187
637	374	711
638	327	381
639	455	548
640	858	992
641	814	504
642	63	555
643	650	501
644	525	518
645	569	700
646	363	24
647	509	636
648	865	319
649	563	444
650	212	869
651	457	984
652	580	754
653	268	687
654	47	392
655	773	229
656	359	375
657	161	600
658	642	197
659	929	658
660	67	143
661	250	942
662	852	469
663	963	959
664	498	761
665	617	984
666	350	492
667	620	483
668	516	532
669	906	36
670	408	943
671	521	316
672	57	111
673	790	589
674	869	786
675	336	287
676	920	991
677	480	665
678	334	510
679	989	972
680	342	532
681	43	617
682	137	182
683	305	88
684	201	207
685	916	592
686	299	144
687	758	784
688	281	302
689	763	770
690	738	188
691	685	169
692	768	182
693	767	178
694	520	806
695	402	447
696	170	643
697	540	629
698	286	49
699	800	245
700	806	212
701	295	517
702	57	721
703	184	76
704	925	572
705	484	668
706	733	488
707	437	222
708	759	425
709	358	617
710	29	413
711	530	525
712	723	752
713	930	497
714	358	101
715	139	581
716	492	466
717	911	926
718	899	799
719	547	653
720	578	134
721	803	238
722	805	708
723	602	342
724	172	365
725	609	513
726	611	937
727	868	198
728	97	150
729	775	641
730	960	303
731	712	914
732	973	619
733	959	693
734	653	574
735	344	191
736	394	624
737	210	376
738	661	442
739	251	828
740	875	799
741	822	268
742	674	630
743	429	926
744	429	880
745	297	88
746	372	294
747	737	966
748	332	664
749	290	863
750	255	616
751	787	212
752	475	113
753	697	942
754	961	674
755	999	57
756	266	585
757	953	61
758	99	63
759	207	779
760	118	139
761	282	354
762	106	653
763	534	582
764	580	298
765	191	678
766	47	668
767	367	888
768	190	573
769	509	445
770	62	289
771	366	350
772	634	330
773	461	339
774	398	949
775	711	40
776	469	895
777	350	754
778	316	549
779	866	333
780	418	234
781	929	674
782	713	427
783	972	246
784	912	160
785	895	614
786	727	975
787	614	545
788	234	555
789	188	55
790	365	467
791	870	60
792	882	438
793	756	606
794	809	32
795	625	163
796	260	524
797	48	687
798	340	883
799	554	721
800	68	400
801	563	691
802	877	6
803	57	336
804	80	698
805	741	710
806	944	209
807	512	739
808	42	872
809	659	88
810	218	919
811	188	242
812	130	32
813	874	940
814	894	412
815	623	938
816	990	956
817	355	568
818	265	811
819	519	273
820	753	770
821	468	792
822	201	635
823	751	941
824	115	260
825	176	360
826	347	737
827	157	766
828	485	263
829	272	510
830	140	612
831	139	652
832	64	130
833	724	17
834	378	72
835	94	281
836	6	895
837	67	467
838	480	466
839	55	800
840	857	302
841	823	254
842	863	940
843	579	362
844	322	427
845	472	932
846	605	943
847	843	47
848	804	20
849	259	293
850	754	662
851	609	18
852	856	102
853	804	9
854	859	217
855	698	489
856	787	354
857	465	1
858	348	342
859	428	367
860	730	326
861	19	406
862	354	512
863	24	30
864	864	395
865	40	849
866	52	650
867	760	896
868	155	722
869	733	464
870	943	450
871	625	566
872	545	235
873	724	67
874	31	376
875	846	660
876	814	198
877	65	463
878	590	988
879	15	122
880	466	793
881	742	756
882	148	671
883	94	208
884	922	76
885	616	464
886	332	165
887	361	131
888	580	466
889	959	375
890	854	874
891	746	300
892	289	898
893	887	941
894	25	374
895	14	701
896	61	832
897	43	235
898	87	606
899	486	885
900	613	697
901	302	63
902	45	299
903	563	289
904	867	17
905	804	764
906	352	823
907	978	301
908	605	764
909	110	229
910	106	460
911	174	14
912	715	798
913	860	844
914	903	358
915	580	199
916	448	501
917	734	364
918	296	310
919	745	997
920	985	13
921	66	481
922	544	66
923	81	473
924	896	95
925	407	645
926	353	464
927	203	888
928	698	346
929	690	257
930	366	882
931	32	466
932	611	999
933	469	554
934	92	436
935	191	21
936	378	413
937	283	930
938	342	437
939	994	248
940	887	226
941	424	19
942	470	341
943	427	958
944	343	38
945	320	622
946	756	279
947	326	238
948	497	838
949	386	165
950	549	764
951	360	263
952	759	469
953	2	855
954	953	695
955	275	456
956	649	946
957	607	880
958	473	300
959	669	988
960	275	13
961	970	275
962	611	408
963	691	843
964	954	735
965	174	745
966	406	608
967	961	715
968	916	372
969	596	428
970	174	851
971	376	323
972	439	951
973	590	667
974	882	915
975	157	528
976	887	902
977	76	924
978	900	683
979	838	82
980	656	884
981	238	353
982	36	847
983	888	646
984	677	300
985	961	167
986	426	188
987	371	951
988	146	528
989	720	491
990	738	586
991	997	933
992	162	414
993	969	960
994	430	194
995	915	32
996	733	910
997	897	775
998	717	78
999	22	393
1000	843	962
1001	424	805
DEMAND_SECTION
1	0
2	1
3	6
4	9
5	7
6	1
7	6
8	8
9	7
10	8
11	3
12	9
13	6
14	6
15	7
16	6
17	1
18	4
19	9
20	6
21	7
22	6
23	6
24	1
25	1
26	6
27	9
28	9
29	9
30	2
31	2
32	5
33	1
34	7
35	9
36	6
37	4
38	5
39	5
40	8
41	7
42	3
43	8
44	1
45	9
46	2
47	9
48	2
49	6
50	2
51	7
52	8
53	6
54	7
55	2
56	1
57	9
58	9
59	3
60	4
61	3
62	8
63	9
64	3
65	5
66	5
67	9
68	5
69	6
70	3
71	5
72	2
73	3
74	3
75	7
76	5
77	5
78	1
79	3
80	9
81	7
82	3
83	4
84	9
85	8
86	6
87	6
88	3
89	9
90	6
91	5
92	2
93	4
94	2
95	3
96	9
97	6
98	4
99	6
100	6
101	8
102	6
103	5
104	2
105	1
106	1
107	6
108	3
109	8
110	3
111	5
112	2
113	8
114	4
115	2
116	8
117	7
118	8
119	6
120	5
121	5
122	5
123	6
124	9
125	2
126	5
127	5
128	5
129	6
130	2
131	5
132	7
133	7
134	1
135	7
136	5
137	7
138	7
139	9
140	7
141	1
142	9
143	9
144	9
145	6
146	4
147	8
148	8
149	2
150	7
151	5
152	6
153	3
154	7
155	2
156	7
157	8
158	5
159	9
160	8
161	6
162	1
163	7
164	3
165	1
166	5
167	8
168	9
169	2
170	3
171	2
172	9
173	8
174	7
175	8
176	9
177	1
178	3
179	6
180	5
181	5
182	1
183	7
184	9
185	5
186	2
187	7
188	6
189	8
190	2
191	7
192	6
193	9
194	7
195	8
196	9
197	5
198	2
199	8
200	5
201	8
202	2
203	5
204	9
205	6
206	4
207	5
208	9
209	9
210	4
211	3
212	4
213	7
214	2
215	7
216	7
217	5
218	6
219	8
220	8
221	5
222	4
223	5
224	5
225	8
226	2
227	5
228	2
229	6
230	9
231	5
232	3
233	9
234	8
235	7
236	9
237	7
238	3
239	8
240	7
241	1
242	2
243	3
244	6
245	1
246	9
247	6
248	3
249	1
250	1
251	9
252	3
253	1
254	8
255	5
256	5
257	3
258	2
259	6
260	5
261	9
262	7
263	4
264	1
265	2
266	1
267	6
268	5
269	4
270	7
271	8
272	5
273	2
274	8
275	6
276	1
277	1
278	9
279	7
280	4
281	1
282	1
283	3
284	4
285	3
286	2
287	6
288	8
289	5
290	6
291	4
292	3
293	9
294	5
295	9
296	2
297	1
298	4
299	8
300	7
301	3
302	3
303	1
304	4
305	4
306	9
307	8
308	2
309	6
310	2
311	7
312	8
313	8
314	8
315	3
316	8
317	5
318	5
319	1
320	1
321	2
322	3
323	1
324	2
325	9
326	9
327	9
328	4
329	9
330	5
331	7
332	5
333	1
334	6
335	4
336	7
337	8
338	9
339	4
340	4
341	5
342	1
343	5
344	1
345	2
346	3
347	3
348	2
349	9
350	4
351	6
352	3
353	8
354	8
355	7
356	3
357	2
358	7
359	9
360	2
361	1
362	4
363	6
364	2
365	9
366	1
367	5
368	5
369	8
370	6
371	1
372	5
373	1
374	4
375	1
376	9
377	8
378	4
379	8
380	7
381	2
382	4
383	7
384	1
385	3
386	4
387	7
388	6
389	4
390	8
391	4
392	9
393	7
394	4
395	3
396	7
397	2
398	2
399	1
400	5
401	5
402	1
403	6
404	3
405	6
406	1
407	5
408	5
409	7
410	3
411	6
412	1
413	1
414	2
415	5
416	3
417	2
418	3
419	8
420	8
421	6
422	6
423	9
424	6
425	9
426	3
427	9
428	8
429	8
430	9
431	1
432	4
433	4
434	6
435	8
436	4
437	6
438	3
439	8
440	7
441	1
442	7
443	9
444	8
445	4
446	2
447	7
448	3
449	5
450	4
451	6
452	6
453	8
454	2
455	4
456	5
457	7
458	9
459	5
460	7
461	5
462	3
463	6
464	1
465	1
466	9
467	4
468	4
469	9
470	5
471	7
472	6
473	5
474	4
475	7
476	2
477	2
478	1
479	8
480	6
481	8
482	2
483	4
484	6
485	7
486	7
487	4
488	4
489	8
490	9
491	3
492	2
493	2
494	7
495	4
496	2
497	5
498	8
499	3
500	4
501	6
502	4
503	3
504	2
505	5
506	4
507	8
508	2
509	3
510	8
511	3
512	4
513	3
514	1
515	5
516	2
517	2
518	7
519	9
520	3
521	2
522	1
523	8
524	9
525	8
526	6
527	8
528	6
529	2
530	9
531	2
532	3
533	8
534	4
535	8
536	2
537	5
538	6
539	5
540	9
541	3
542	6
543	5
544	8
545	5
546	6
547	8
548	6
549	7
550	5
551	7
552	7
553	4
554	1
555	3
556	9
557	1
558	8
559	3
560	9
561	7
562	5
563	3
564	6
565	4
566	4
567	8
568	6
569	8
570	1
571	3
572	3
573	8
574	1
575	6
576	8
577	4
578	5
579	1
580	5
581	9
582	5
583	2
584	2
585	7
586	1
587	5
588	1
589	1
590	8
591	5
592	8
593	6
594	6
595	1
596	9
597	9
598	8
599	3
600	5
601	5
602	3
603	9
604	4
605	3
606	7
607	4
608	1
609	6
610	3
611	3
612	8
613	2
614	3
615	9
616	8
617	9
618	7
619	8
620	3
621	3
622	9
623	4
624	6
625	8
626	6
627	3
628	3
629	3
630	8
631	8
632	5
633	7
634	2
635	5
636	3
637	1
638	8
639	2
640	6
641	7
642	5
643	2
644	1
645	7
646	4
647	1
648	3
649	4
650	6
651	4
652	7
653	5
654	8
655	2
656	8
657	6
658	4
659	5
660	5
661	2
662	3
663	1
664	3
665	4
666	4
667	7
668	5
669	4
670	9
671	4
672	3
673	2
674	2
675	4
676	4
677	5
678	5
679	2
680	4
681	9
682	2
683	6
684	4
685	7
686	4
687	9
688	2
689	6
690	9
691	6
692	3
693	3
694	5
695	6
696	1
697	7
698	2
699	7
700	5
701	8
702	3
703	5
704	9
705	3
706	5
707	4
708	1
709	9
710	4
711	1
712	6
713	4
714	9
715	4
716	1
717	9
718	8
719	3
720	3
721	6
722	8
723	2
724	6
725	9
726	6
727	9
728	4
729	2
730	1
731	9
732	9
733	9
734	6
735	2
736	5
737	1
738	2
739	9
740	3
741	8
742	6
743	8
744	3
745	3
746	4
747	7
748	8
749	5
750	2
751	8
752	9
753	1
754	5
755	5
756	7
757	4
758	4
759	7
760	6
761	3
762	8
763	8
764	7
765	1
766	1
767	9
768	7
769	5
770	8
771	7
772	4
773	9
774	2
775	1
776	2
777	3
778	7
779	8
780	5
781	4
782	1
783	4
784	7
785	8
786	5
787	4
788	6
789	5
790	5
791	4
792	6
793	4
794	6
795	8
796	3
797	5
798	3
799	6
800	4
801	4
802	6
803	2
804	4
805	3
806	9
807	1
808	6
809	4
810	5
811	3
812	1
813	9
814	1
815	1
816	3
817	3
818	6
819	3
820	5
821	2
822	5
823	1
824	1
825	4
826	2
827	6
828	3
829	8
830	7
831	6
832	8
833	3
834	4
835	8
836	8
837	7
838	7
839	5
840	5
841	5
842	2
843	2
844	4
845	8
846	9
847	7
848	1
849	1
850	9
851	1
852	1
853	4
854	6
855	1
856	8
857	9
858	1
859	7
860	5
861	6
862	8
863	7
864	5
865	8
866	1
867	6
868	8
869	4
870	3
871	2
872	7
873	6
874	1
875	2
876	6
877	1
878	6
879	9
880	6
881	8
882	4
883	5
884	2
885	3
886	9
887	1
888	4
889	4
890	4
891	8
892	7
893	7
894	3
895	4
896	2
897	9
898	9
899	3
900	4
901	3
902	7
903	8
904	4
905	7
906	8
907	4
908	7
909	4
910	1
911	2
912	6
913	3
914	1
915	1
916	4
917	4
918	9
919	3
920	7
921	5
922	4
923	6
924	3
925	5
926	2
927	4
928	8
929	2
930	5
931	4
932	7
933	1
934	2
935	9
936	8
937	3
938	7
939	6
940	4
941	3
942	9
943	8
944	7
945	6
946	9
947	4
948	2
949	9
950	8
951	7
952	7
953	5
954	8
955	5
956	6
957	7
958	5
959	2
960	3
961	7
962	4
963	2
964	5
965	6
966	2
967	6
968	2
969	8
970	3
971	3
972	5
973	9
974	3
975	3
976	4
977	5
978	3
979	8
980	5
981	1
982	5
983	7
984	7
985	3
986	9
987	6
988	2
989	2
990	1
991	9
992	2
993	6
994	3
995	5
996	2
997	8
998	9
999	3
1000	8
1001	1
TIME_WINDOW_SECTION
1	0	3000
2	1301	2495
3	1535	2510
4	0	1549
5	1141	2157
6	425	1193
7	1018	2072
8	773	1760
9	1312	2765
10	496	2140
11	1133	2282
12	1655	2219
13	1601	2649
14	2038	3000
15	473	2203
16	1132	2284
17	1318	2009
18	1575	3000
19	833	2777
20	804	2095
21	213	1747
22	1444	1668
23	488	1810
24	716	1714
25	1083	2802
26	1151	2129
27	625	2094
28	188	1973
29	1428	1760
30	1079	2682
31	496	2265
32	289	1581
33	0	1299
34	1395	3000
35	1633	2529
36	627	869
37	1356	2480
38	58	1356
39	1593	2069
40	1235	2087
41	451	2216
42	1318	3000
43	2264	2645
44	873	2258
45	664	1386
46	1238	2689
47	1374	2346
48	233	1191
49	1415	2038
50	821	1472
51	1662	1865
52	889	1710
53	0	1209
54	1136	2321
55	491	710
56	1105	2837
57	49	987
58	877	2842
59	554	885
60	593	1781
61	1343	2381
62	24	1711
63	41	1770
64	85	1493
65	87	1070
66	33	1626
67	124	1589
68	315	1736
69	1518	2051
70	447	1957
71	507	946
72	579	1137
73	1484	1763
74	1816	2332
75	841	1216
76	906	1824
77	266	1179
78	757	2538
79	1301	2775
80	328	744
81	412	1481
82	385	961
83	343	1344
84	198	1359
85	0	1014
86	1717	3000
87	1474	2150
88	1392	1667
89	1450	1700
90	927	2849
91	684	1402
92	358	1591
93	891	2335
94	626	2092
95	707	1273
96	920	1930
97	1861	2935
98	1351	2618
99	261	1327
100	663	1783
101	1207	1425
102	844	2815
103	946	2931
104	629	2584
105	1572	2909
106	760	2619
107	1560	3000
108	678	1756
109	353	941
110	425	1486
111	134	1849
112	809	1508
113	0	1095
114	15	547
115	249	1934
116	498	2450
117	880	2664
118	1263	1927
119	488	2381
120	1351	1929
121	1817	2319
122	1158	2368
123	529	1117
124	399	2130
125	1156	2570
126	1141	1645
127	1333	1805
128	1876	2254
129	631	2310
130	400	2392
131	1175	2951
132	1718	2850
133	617	2047
134	539	2382
135	0	1159
136	0	1555
137	962	2265
138	0	1525
139	592	1615
140	1045	1636
141	1306	2182
142	0	1434
143	385	700
144	786	1425
145	1540	2022
146	1287	1946
147	456	1143
148	1033	1870
149	934	2439
150	1715	2289
151	1305	2969
152	1535	2750
153	1518	1912
154	1220	1646
155	1387	1986
156	1999	2263
157	1247	2212
158	1196	2682
159	1925	2397
160	89	1353
161	805	1032
162	0	1649
163	373	1983
164	708	2266
165	997	1789
166	2196	2593
167	1502	2952
168	547	1093
169	9	1710
170	1051	1366
171	0	1118
172	932	2599
173	1375	1687
174	559	1079
175	346	1580
176	1329	1529
177	454	1898
178	378	1932
179	1465	2503
180	1043	2472
181	1440	3000
182	718	1346
183	930	2868
184	1053	2724
185	1600	1992
186	839	2668
187	0	1346
188	902	1897
189	1054	1787
190	1517	2965
191	1360	2072
192	986	1655
193	335	1571
194	1179	2889
195	1219	1697
196	1852	3000
197	0	1677
198	1440	1732
199	0	1797
200	685	1893
201	179	884
202	1818	2155
203	139	1658
204	1514	2687
205	312	1806
206	1137	2633
207	324	1057
208	1948	2158
209	1511	2326
210	1133	1423
211	0	733
212	433	1731
213	0	1427
214	1101	2753
215	117	1758
216	488	1675
217	0	1000
218	217	500
219	1306	1854
220	1086	1899
221	853	2240
222	201	1039
223	795	2385
224	2350	2585
225	333	2320
226	135	2114
227	1299	1837
228	1743	2013
229	332	655
230	434	2177
231	1130	2817
232	1629	3000
233	670	1000
234	737	1134
235	922	2049
236	378	1370
237	1430	2367
238	232	1608
239	926	1729
240	1135	2079
241	243	1573
242	252	1341
243	948	2708
244	1762	2604
245	0	1923
246	477	1702
247	2041	2382
248	609	1019
249	0	850
250	1144	2117
251	1045	2284
252	0	1772
253	713	1730
254	493	1278
255	916	1796
256	1160	2863
257	437	1715
258	791	1387
259	1905	2254
260	820	1390
261	1824	2173
262	1620	2777
263	1060	2069
264	490	1127
265	1022	2451
266	334	897
267	908	1822
268	1493	2339
269	1149	2320
270	1083	1944
271	988	1821
272	1360	1564
273	896	2454
274	427	1702
275	583	1349
276	1165	2951
277	2194	2748
278	451	1299
279	1469	1723
280	781	2503
281	469	1074
282	1741	2668
283	0	1363
284	1365	2834
285	1654	2294
286	1126	1447
287	1907	2839
288	2141	2572
289	1176	2867
290	1110	2030
291	459	1482
292	113	1323
293	1068	2296
294	1586	2222
295	499	2108
296	831	1126
297	678	2240
298	1247	2398
299	414	1143
300	718	1112
301	714	2052
302	1334	2574
303	936	1949
304	926	1248
305	2100	2477
306	152	1565
307	62	1344
308	807	1119
309	1141	1499
310	1375	1582
311	1810	2105
312	246	867
313	1063	1313
314	322	2180
315	1391	2311
316	0	1882
317	609	2076
318	122	958
319	1419	2100
320	0	1280
321	945	1729
322	1073	3000
323	1115	1792
324	1100	1789
325	121	977
326	1726	1936
327	195	1516
328	1010	1412
329	209	780
330	96	1127
331	1547	3000
332	1426	1636
333	968	1839
334	1045	2258
335	130	1547
336	1125	2956
337	1547	3000
338	431	2186
339	1402	3000
340	1688	3000
341	1393	2645
342	1558	2693
343	600	2183
344	588	1648
345	246	1481
346	513	1965
347	221	1423
348	1736	2635
349	1568	2859
350	798	1529
351	368	1544
352	1717	2689
353	1849	2517
354	384	2383
355	684	1306
356	0	769
357	1097	2110
358	1655	2840
359	464	1499
360	25	1864
361	612	2596
362	117	2101
363	1124	2014
364	1530	2137
365	1795	2858
366	1909	2881
367	1644	2578
368	1453	1888
369	315	1447
370	304	1365
371	1654	1945
372	0	1259
373	1098	1819
374	665	1792
375	1402	1922
376	30	1591
377	652	2442
378	1036	1539
379	1397	1649
380	0	1718
381	1388	2366
382	412	1444
383	407	2342
384	512	2453
385	404	2150
386	102	1869
387	884	1305
388	715	2326
389	1536	2893
390	744	1945
391	1112	1653
392	1726	2230
393	511	1506
394	1506	1882
395	283	2033
396	979	1796
397	1344	1582
398	1607	2509
399	1412	2634
400	780	1111
401	741	1664
402	662	1062
403	384	682
404	695	2482
405	496	2338
406	1301	2290
407	0	1489
408	530	893
409	1486	1909
410	1022	2008
411	987	2200
412	0	1703
413	1024	2359
414	1071	1684
415	0	1967
416	1884	2504
417	318	1445
418	899	1554
419	432	1219
420	793	1213
421	849	1739
422	1244	1663
423	1080	1724
424	1231	1494
425	805	2024
426	2075	2391
427	275	1063
428	1792	2090
429	0	1558
430	380	2347
431	1292	1769
432	1621	1918
433	671	923
434	470	1905
435	0	1806
436	953	2095
437	1144	2182
438	898	1315
439	45	518
440	405	1009
441	67	1655
442	1521	3000
443	194	1415
444	1273	1746
445	557	1411
446	649	1934
447	1670	1883
448	520	1169
449	72	746
450	1583	3000
451	1345	2082
452	1659	1877
453	306	1233
454	193	1273
455	436	892
456	730	2267
457	274	1122
458	285	1346
459	1695	3000
460	457	2396
461	1239	2837
462	452	2159
463	853	2046
464	1076	1677
465	0	1823
466	1303	2809
467	1092	2864
468	0	1727
469	1317	2243
470	1123	3000
471	51	1831
472	612	1422
473	567	2332
474	865	1754
475	311	1440
476	1237	2211
477	886	2641
478	822	1799
479	761	2500
480	1983	3000
481	28	1510
482	842	1362
483	2225	2927
484	907	2880
485	335	2154
486	663	1053
487	1632	3000
488	615	1502
489	1632	2824
490	120	552
491	1199	2512
492	1286	1740
493	0	1628
494	193	1831
495	1332	2979
496	65	1482
497	1525	2318
498	1386	1963
499	56	1731
500	1103	1715
501	1185	1684
502	1091	3000
503	1283	2372
504	689	1701
505	1038	2058
506	602	2025
507	285	2138
508	130	1605
509	1606	2723
510	0	1045
511	131	916
512	240	2228
513	772	1387
514	827	2494
515	62	1458
516	969	2098
517	1120	1999
518	879	1992
519	1965	2325
520	424	868
521	450	655
522	532	2281
523	275	706
524	376	1110
525	0	1610
526	52	1827
527	0	1745
528	1582	2568
529	1569	2573
530	1297	1537
531	916	1318
532	764	1139
533	344	2316
534	0	1585
535	1127	1977
536	713	1102
537	0	1612
538	1406	2461
539	238	613
540	1918	2402
541	1892	2833
542	777	1241
543	2022	2261
544	953	1869
545	2097	2440
546	1256	1462
547	400	1665
548	1030	1661
549	363	1168
550	0	1274
551	1579	2727
552	1526	1971
553	305	1367
554	543	2338
555	698	1047
556	621	2508
557	451	1819
558	704	2600
559	1158	2554
560	1545	2137
561	1605	2054
562	719	2702
563	2134	2568
564	350	1981
565	0	573
566	101	707
567	0	1310
568	927	1607
569	1856	2799
570	42	501
571	54	1210
572	0	1304
573	657	1040
574	1553	2834
575	1422	1951
576	0	1273
577	387	820
578	386	680
579	1025	2629
580	1871	2230
581	591	1735
582	13	1421
583	1526	3000
584	89	1899
585	318	1305
586	0	1486
587	166	1551
588	747	1061
589	798	1469
590	564	2496
591	617	2610
592	26	1628
593	61	1555
594	642	2022
595	867	2333
596	1295	2317
597	940	2168
598	52	1364
599	1446	1760
600	1228	1870
601	1587	2348
602	0	1335
603	0	1191
604	1117	2478
605	1082	1719
606	1608	2055
607	682	1450
608	1659	3000
609	1859	2202
610	506	1651
611	861	1256
612	62	1436
613	295	1456
614	396	872
615	1104	1383
616	2077	2806
617	0	1672
618	727	1365
619	794	1753
620	0	1962
621	657	1262
622	1583	1795
623	1068	1397
624	0	938
625	890	2331
626	579	1022
627	1949	3000
628	1338	1570
629	1678	2190
630	1326	2727
631	1994	2666
632	537	1245
633	351	2270
634	608	1026
635	1448	2513
636	500	2330
637	337	1187
638	835	1566
639	1729	2682
640	892	2313
641	1187	2587
642	538	2519
643	133	603
644	0	1778
645	789	2154
646	154	2029
647	683	2554
648	0	1444
649	391	709
650	1027	2650
651	1329	1945
652	2028	2314
653	1200	2844
654	738	2223
655	432	1814
656	391	1968
657	283	973
658	1126	1970
659	1017	1287
660	398	2394
661	620	2201
662	0	1173
663	485	2409
664	589	2507
665	0	1679
666	461	1500
667	0	1108
668	532	924
669	974	1524
670	432	764
671	0	1710
672	222	1761
673	1600	3000
674	265	956
675	405	1882
676	1236	1586
677	602	1642
678	826	1569
679	1833	2406
680	1554	2957
681	209	2036
682	93	1985
683	1454	2566
684	0	1876
685	0	1028
686	24	1883
687	694	2588
688	457	1166
689	1672	2539
690	1780	2085
691	943	1762
692	1007	2184
693	1068	2558
694	961	2033
695	873	1898
696	804	1159
697	768	2282
698	525	1315
699	2011	2254
700	561	2201
701	999	2089
702	1747	2156
703	688	1055
704	622	1919
705	515	2233
706	522	2515
707	0	1273
708	236	1687
709	877	1699
710	1623	2124
711	278	1082
712	789	1261
713	324	2090
714	318	1933
715	411	1523
716	28	1170
717	1808	2656
718	595	1826
719	1352	2254
720	1081	2902
721	274	1976
722	0	1599
723	1064	1599
724	447	1623
725	846	2338
726	664	1944
727	1155	1476
728	1185	1450
729	0	1535
730	1237	1926
731	1996	2746
732	196	1936
733	402	1795
734	339	1307
735	1264	2929
736	1518	2762
737	1177	1590
738	2155	2810
739	1474	2830
740	1850	2389
741	458	1551
742	1978	2589
743	681	2549
744	0	1538
745	1153	2139
746	1197	2148
747	2269	2721
748	1197	2557
749	1747	2285
750	1895	2248
751	1933	2178
752	1061	1343
753	592	1987
754	119	1389
755	820	1178
756	2055	2607
757	497	1021
758	980	2677
759	1218	1977
760	668	2421
761	525	907
762	524	1926
763	1345	2741
764	402	2238
765	1525	2490
766	0	1685
767	1165	1845
768	1005	2585
769	1536	1849
770	296	1370
771	542	2413
772	1629	1945
773	1767	2308
774	895	2742
775	314	2286
776	1235	2647
777	511	1469
778	16	1513
779	1197	2742
780	531	2448
781	538	2134
782	1445	1838
783	652	1680
784	548	1048
785	836	1178
786	0	1337
787	1566	3000
788	1043	1939
789	456	1575
790	581	956
791	858	2385
792	120	1272
793	0	613
794	1081	2638
795	393	1477
796	1226	1966
797	1560	1761
798	1646	2574
799	583	2479
800	1520	1958
801	1622	2934
802	629	2016
803	1053	1985
804	888	2584
805	1179	1885
806	1458	1907
807	1607	3000
808	1037	2944
809	911	2335
810	1161	1990
811	1071	2625
812	746	1827
813	46	1114
814	1683	2347
815	793	2712
816	782	2484
817	796	2578
818	749	2563
819	502	1390
820	461	1838
821	0	1625
822	864	2029
823	250	1427
824	217	1467
825	0	1710
826	82	976
827	671	2520
828	155	1723
829	885	1582
830	0	1678
831	1846	2384
832	519	1700
833	817	2683
834	1098	2448
835	244	1802
836	49	1492
837	1184	2823
838	68	1973
839	583	1321
840	1705	2626
841	1733	2594
842	798	1268
843	0	1895
844	919	1511
845	849	1828
846	1425	3000
847	504	1514
848	1174	2868
849	1767	2092
850	1353	1952
851	300	1384
852	639	1392
853	1293	2002
854	1114	1453
855	1997	2822
856	856	1715
857	1186	2016
858	469	901
859	955	2618
860	461	797
861	1073	1578
862	228	1172
863	889	2089
864	602	1530
865	639	924
866	1490	2737
867	1479	2209
868	1263	1501
869	1911	3000
870	820	1688
871	2037	2667
872	1595	2305
873	692	1634
874	1121	2044
875	0	1140
876	1668	2361
877	1423	2571
878	1713	3000
879	263	1824
880	2030	2679
881	486	1934
882	1032	1285
883	1126	2432
884	1179	2529
885	125	1153
886	906	2847
887	914	1373
888	27	904
889	660	1499
890	1903	2306
891	823	2577
892	633	869
893	1694	3000
894	828	1705
895	546	2392
896	740	2730
897	226	1630
898	942	2910
899	198	1873
900	1070	2769
901	924	2817
902	1093	2588
903	919	2033
904	380	2325
905	0	1074
906	1489	3000
907	234	1667
908	2365	2651
909	1110	2046
910	0	1593
911	1345	1616
912	1734	2800
913	920	2284
914	0	1690
915	15	1314
916	1056	1974
917	316	2280
918	1236	2110
919	758	2428
920	471	2339
921	1076	1916
922	1534	2041
923	268	2264
924	896	2567
925	205	1561
926	789	1941
927	1064	2725
928	1046	1613
929	1440	2453
930	2239	2493
931	1045	2307
932	1203	2189
933	558	1354
934	922	1941
935	1125	2604
936	595	1545
937	1438	2086
938	1601	2389
939	901	2282
940	489	1993
941	764	1259
942	997	1804
943	758	2631
944	917	2845
945	1211	2374
946	395	1201
947	473	1551
948	1678	2350
949	861	1988
950	1284	1735
951	1731	2557
952	1092	2036
953	1013	1704
954	672	1729
955	1336	2326
956	979	2583
957	1625	3000
958	1614	2604
959	1451	2732
960	125	1786
961	890	2857
962	1664	2692
963	457	2135
964	1832	2741
965	353	1904
966	598	898
967	342	1014
968	1082	1905
969	975	1482
970	1691	2125
971	467	1334
972	942	2126
973	562	1122
974	396	1710
975	331	1998
976	829	1569
977	1870	2344
978	1151	1630
979	678	1481
980	1370	2412
981	960	1473
982	981	2236
983	0	1520
984	770	1422
985	281	1024
986	1301	2169
987	459	1535
988	238	995
989	2188	2796
990	867	1498
991	373	1898
992	1561	2195
993	0	954
994	445	2310
995	359	1104
996	1111	2958
997	0	1134
998	994	1527
999	907	1971
1000	238	468
1001	1903	2563
BACKHAUL_SECTION
2	10	26	35	38	47	52	60	66	71	81	86	92	95	104	107	121	126	132	145	155	160	164	172	190	196	212	213	216	221	222	226	228	231	234	236	237	239	241	249	250	258	261	269	270	271	272	273	277	289	292	294	295	301	305	314	321	323	325	326	328	339	340	349	356	364	366	368	370	372	373	381	383	385	389	391	392	393	396	397	400	406	412	415	419	421	423	424	435	441	443	446	447	450	463	472	480	484	492	494	497	515	528	529	539	547	548	552	556	564	565	571	581	585	586	591	594	603	604	606	609	610	612	614	615	617	618	620	622	635	638	645	665	669	670	675	682	685	688	689	696	712	720	724	739	741	750	755	764	774	788	789	792	796	801	804	806	807	808	821	834	842	847	854	855	860	873	875	876	877	882	883	888	894	895	896	898	899	901	906	907	913	924	927	937	944	948	949	953	958	959	961	966	967	980	984	988	992	996	998	-1
DEPOT_SECTION
1
-1
EOF
