NAME : n1001-0017
COMMENT : "Generated by pyvrp_manuel (VRPBLTW)"
TYPE : VRPBLTW
DIMENSION : 1001
EDGE_WEIGHT_TYPE : EUC_2D
CAPACITY : 150
VEHICLES : 1000
DISTANCE : 3000
SERVICE_TIME : 200
NODE_COORD_SECTION
1	25	945
2	364	511
3	723	769
4	988	95
5	456	578
6	780	629
7	752	716
8	581	885
9	335	10
10	305	64
11	588	423
12	611	617
13	954	44
14	6	658
15	873	176
16	543	186
17	403	880
18	287	611
19	579	197
20	787	85
21	767	780
22	153	365
23	574	67
24	345	676
25	401	614
26	270	249
27	559	220
28	672	694
29	836	648
30	94	753
31	584	185
32	941	996
33	434	201
34	984	638
35	288	844
36	542	717
37	532	909
38	914	665
39	401	167
40	926	121
41	472	720
42	949	109
43	914	614
44	997	265
45	646	371
46	424	741
47	655	908
48	725	132
49	661	345
50	251	390
51	711	219
52	281	119
53	519	961
54	448	742
55	789	316
56	181	469
57	58	325
58	767	427
59	172	997
60	354	929
61	84	203
62	669	207
63	841	384
64	844	840
65	104	581
66	490	898
67	308	594
68	197	326
69	998	237
70	258	256
71	740	142
72	15	598
73	998	196
74	58	353
75	234	472
76	700	327
77	368	36
78	500	843
79	157	289
80	244	683
81	97	750
82	529	328
83	414	219
84	465	837
85	256	487
86	497	746
87	230	842
88	294	459
89	623	182
90	69	961
91	110	759
92	366	582
93	437	601
94	891	920
95	93	425
96	541	771
97	263	906
98	832	576
99	441	243
100	778	687
101	45	936
102	492	74
103	269	243
104	491	914
105	594	608
106	66	332
107	127	227
108	395	680
109	886	880
110	714	49
111	306	491
112	123	470
113	268	971
114	679	612
115	87	379
116	248	913
117	755	964
118	661	809
119	706	882
120	293	554
121	969	382
122	232	850
123	174	802
124	586	720
125	823	157
126	113	504
127	611	970
128	926	58
129	146	966
130	573	793
131	936	45
132	475	770
133	671	801
134	969	203
135	615	504
136	201	950
137	821	343
138	171	706
139	939	141
140	462	629
141	630	459
142	67	801
143	555	43
144	421	130
145	108	614
146	120	705
147	351	532
148	874	962
149	403	867
150	404	731
151	148	71
152	822	234
153	690	448
154	913	66
155	453	554
156	847	326
157	38	435
158	928	760
159	839	103
160	748	660
161	201	60
162	767	891
163	787	221
164	305	371
165	68	392
166	778	826
167	315	391
168	707	710
169	26	610
170	221	934
171	432	721
172	826	265
173	680	701
174	255	753
175	969	265
176	256	306
177	753	251
178	795	38
179	539	284
180	411	184
181	361	368
182	476	6
183	447	565
184	940	915
185	673	833
186	20	960
187	927	461
188	107	307
189	843	391
190	843	41
191	962	967
192	937	835
193	523	678
194	60	797
195	39	986
196	28	536
197	607	910
198	267	406
199	115	22
200	511	94
201	113	243
202	376	764
203	559	895
204	354	175
205	168	865
206	215	382
207	2	695
208	423	786
209	946	365
210	754	292
211	570	928
212	997	79
213	686	151
214	777	559
215	497	130
216	857	614
217	792	582
218	347	167
219	98	227
220	258	129
221	311	523
222	611	633
223	715	300
224	67	44
225	667	747
226	408	466
227	801	538
228	755	293
229	764	870
230	814	129
231	689	595
232	123	218
233	525	604
234	435	920
235	245	756
236	992	2
237	923	977
238	982	976
239	467	306
240	342	174
241	897	661
242	826	411
243	779	342
244	317	919
245	979	642
246	773	445
247	617	757
248	227	697
249	884	848
250	518	808
251	304	30
252	193	842
253	188	713
254	977	325
255	744	53
256	18	959
257	320	346
258	441	541
259	7	720
260	153	435
261	879	522
262	200	164
263	762	369
264	629	481
265	251	325
266	611	18
267	47	252
268	690	440
269	406	935
270	308	573
271	329	940
272	722	410
273	235	574
274	320	57
275	760	170
276	782	158
277	770	783
278	286	166
279	914	725
280	407	413
281	850	598
282	653	778
283	754	674
284	617	919
285	164	869
286	183	648
287	936	809
288	427	690
289	581	722
290	121	617
291	371	278
292	154	507
293	4	989
294	359	514
295	921	582
296	601	207
297	841	748
298	813	582
299	75	684
300	777	500
301	759	241
302	76	495
303	598	125
304	761	492
305	462	267
306	75	32
307	106	231
308	752	644
309	901	828
310	853	866
311	773	513
312	790	514
313	858	75
314	797	87
315	752	424
316	340	924
317	515	797
318	541	852
319	366	7
320	435	650
321	737	566
322	809	255
323	103	928
324	954	134
325	221	556
326	817	985
327	300	472
328	326	271
329	950	242
330	750	81
331	892	544
332	885	304
333	298	347
334	861	980
335	205	627
336	36	465
337	149	61
338	493	183
339	912	290
340	75	436
341	559	13
342	222	570
343	193	107
344	504	736
345	146	670
346	232	924
347	813	480
348	4	605
349	85	557
350	557	342
351	930	889
352	244	674
353	862	926
354	486	557
355	987	949
356	949	909
357	507	115
358	580	147
359	138	735
360	251	256
361	888	817
362	51	137
363	712	98
364	384	99
365	415	893
366	714	586
367	112	94
368	131	544
369	161	251
370	977	334
371	213	374
372	418	980
373	440	785
374	742	201
375	732	851
376	422	160
377	521	192
378	274	13
379	783	527
380	37	5
381	2	717
382	216	248
383	42	686
384	195	264
385	59	418
386	921	238
387	450	379
388	131	529
389	485	529
390	378	268
391	637	99
392	538	532
393	102	236
394	259	531
395	277	114
396	389	363
397	661	96
398	727	60
399	339	747
400	408	64
401	202	71
402	864	418
403	151	394
404	710	235
405	329	209
406	642	853
407	905	794
408	694	505
409	477	692
410	935	701
411	864	722
412	696	408
413	404	318
414	340	947
415	706	680
416	674	272
417	689	758
418	473	607
419	199	912
420	466	111
421	11	60
422	14	965
423	33	726
424	64	961
425	914	127
426	236	571
427	346	713
428	702	576
429	616	350
430	380	529
431	692	824
432	895	867
433	354	587
434	553	243
435	578	907
436	781	563
437	220	916
438	510	531
439	367	647
440	223	943
441	486	466
442	131	231
443	203	177
444	702	896
445	251	453
446	39	795
447	148	42
448	669	192
449	88	974
450	958	912
451	49	536
452	926	320
453	283	425
454	932	126
455	722	852
456	355	255
457	857	582
458	631	759
459	264	787
460	836	913
461	94	239
462	175	655
463	615	235
464	478	444
465	21	668
466	718	247
467	447	888
468	14	886
469	897	653
470	780	353
471	869	18
472	980	199
473	800	678
474	100	275
475	276	481
476	726	603
477	175	54
478	5	869
479	597	5
480	80	525
481	170	831
482	332	809
483	804	211
484	276	332
485	587	252
486	653	206
487	533	216
488	655	763
489	601	381
490	689	751
491	693	775
492	846	694
493	172	607
494	10	644
495	730	103
496	87	265
497	891	402
498	358	326
499	953	517
500	67	749
501	845	991
502	144	826
503	267	506
504	437	547
505	308	177
506	87	975
507	93	887
508	949	26
509	516	722
510	516	509
511	785	705
512	695	878
513	972	158
514	479	373
515	933	981
516	392	261
517	793	724
518	773	990
519	256	672
520	152	316
521	835	755
522	6	380
523	951	659
524	291	826
525	782	873
526	946	74
527	684	873
528	254	963
529	684	213
530	33	86
531	677	238
532	686	191
533	979	896
534	178	934
535	51	438
536	442	581
537	399	573
538	431	10
539	20	325
540	683	104
541	31	599
542	552	825
543	762	55
544	864	343
545	499	647
546	668	490
547	466	236
548	604	578
549	156	741
550	80	348
551	312	734
552	896	494
553	610	326
554	216	137
555	562	571
556	362	877
557	90	500
558	146	544
559	844	873
560	67	896
561	645	351
562	780	943
563	167	635
564	8	860
565	474	737
566	337	31
567	503	146
568	480	609
569	253	905
570	663	897
571	72	227
572	602	123
573	146	668
574	362	860
575	623	205
576	991	401
577	319	593
578	803	132
579	547	215
580	88	812
581	157	293
582	960	962
583	442	193
584	525	273
585	58	231
586	140	732
587	810	203
588	847	605
589	174	194
590	795	304
591	679	240
592	286	102
593	277	505
594	329	754
595	346	646
596	765	726
597	408	57
598	24	686
599	826	225
600	375	95
601	276	572
602	910	111
603	96	878
604	37	142
605	555	579
606	13	207
607	293	822
608	264	120
609	240	848
610	301	935
611	355	723
612	922	656
613	275	491
614	612	977
615	198	400
616	716	582
617	893	883
618	229	957
619	209	422
620	709	367
621	916	871
622	67	972
623	425	518
624	182	651
625	178	33
626	94	628
627	430	587
628	27	486
629	987	144
630	134	515
631	375	226
632	246	712
633	990	268
634	144	954
635	410	827
636	692	51
637	758	27
638	474	897
639	409	582
640	281	276
641	552	524
642	801	643
643	713	570
644	464	834
645	728	920
646	756	684
647	423	130
648	149	182
649	688	178
650	397	491
651	880	626
652	70	533
653	975	741
654	92	324
655	666	38
656	719	431
657	953	785
658	942	682
659	710	621
660	142	916
661	693	466
662	521	95
663	669	488
664	465	410
665	8	377
666	91	376
667	577	595
668	7	500
669	24	82
670	71	739
671	986	167
672	480	40
673	566	942
674	461	371
675	919	814
676	419	105
677	970	937
678	194	565
679	932	425
680	561	76
681	241	128
682	600	263
683	758	242
684	160	141
685	356	462
686	994	969
687	477	166
688	504	204
689	79	624
690	706	552
691	23	897
692	369	559
693	632	793
694	346	581
695	176	115
696	271	670
697	920	43
698	548	873
699	34	453
700	770	480
701	881	493
702	24	319
703	783	820
704	553	388
705	702	781
706	499	792
707	274	735
708	94	976
709	332	810
710	895	218
711	584	992
712	442	596
713	107	780
714	921	228
715	815	756
716	284	985
717	461	379
718	630	724
719	515	428
720	942	141
721	936	845
722	383	919
723	467	228
724	130	625
725	790	577
726	473	478
727	51	81
728	914	192
729	357	80
730	820	559
731	888	549
732	542	423
733	787	917
734	460	114
735	992	411
736	615	878
737	975	393
738	590	646
739	830	452
740	115	210
741	923	49
742	566	297
743	284	479
744	667	454
745	865	645
746	801	85
747	712	419
748	989	230
749	421	494
750	983	339
751	38	663
752	883	149
753	651	25
754	853	946
755	543	76
756	781	48
757	817	115
758	446	130
759	557	182
760	537	738
761	873	723
762	527	809
763	131	435
764	772	266
765	706	206
766	271	656
767	2	893
768	42	88
769	394	238
770	584	459
771	175	64
772	763	23
773	565	613
774	826	632
775	367	218
776	921	423
777	941	918
778	161	488
779	992	233
780	996	192
781	436	636
782	547	283
783	899	348
784	99	580
785	465	172
786	726	248
787	872	220
788	470	295
789	311	938
790	337	532
791	486	302
792	211	2
793	704	943
794	196	991
795	19	332
796	211	577
797	495	845
798	636	248
799	995	597
800	695	102
801	852	608
802	719	987
803	319	215
804	266	909
805	859	914
806	321	349
807	306	387
808	459	595
809	814	521
810	27	251
811	552	689
812	710	504
813	149	288
814	828	134
815	57	118
816	508	854
817	489	167
818	738	86
819	454	607
820	995	195
821	28	768
822	377	676
823	146	40
824	231	881
825	900	882
826	956	792
827	730	825
828	659	140
829	157	698
830	167	100
831	202	381
832	824	214
833	258	307
834	943	903
835	406	537
836	152	355
837	449	552
838	289	670
839	701	885
840	780	154
841	482	256
842	338	258
843	846	327
844	999	170
845	423	374
846	457	413
847	841	555
848	769	691
849	613	94
850	184	881
851	615	996
852	998	472
853	370	565
854	696	227
855	481	854
856	151	873
857	301	812
858	498	436
859	356	710
860	845	426
861	66	464
862	542	362
863	283	975
864	137	312
865	782	401
866	9	249
867	200	322
868	280	8
869	303	190
870	475	673
871	522	799
872	818	839
873	467	396
874	136	412
875	868	162
876	318	577
877	676	776
878	233	180
879	241	10
880	478	704
881	583	572
882	521	200
883	693	435
884	457	499
885	213	943
886	832	679
887	344	365
888	232	276
889	840	398
890	485	567
891	826	58
892	302	756
893	169	370
894	515	790
895	373	738
896	776	986
897	128	58
898	500	365
899	850	682
900	665	184
901	443	436
902	464	497
903	46	991
904	705	976
905	38	859
906	463	656
907	615	967
908	882	523
909	117	384
910	756	308
911	838	798
912	979	949
913	968	749
914	37	863
915	890	813
916	224	388
917	494	613
918	785	451
919	49	31
920	400	933
921	797	462
922	329	556
923	171	102
924	196	108
925	875	764
926	418	387
927	317	806
928	749	273
929	795	321
930	589	222
931	734	102
932	271	173
933	50	110
934	274	914
935	647	331
936	961	416
937	470	295
938	183	591
939	900	901
940	225	396
941	757	202
942	362	606
943	126	909
944	624	58
945	18	750
946	924	308
947	86	249
948	253	269
949	521	122
950	781	105
951	250	668
952	81	853
953	492	234
954	628	286
955	166	210
956	400	194
957	121	410
958	846	540
959	46	260
960	553	133
961	392	355
962	563	611
963	453	67
964	333	782
965	409	581
966	876	125
967	698	449
968	223	351
969	233	433
970	400	23
971	863	486
972	550	540
973	764	406
974	462	547
975	899	601
976	38	283
977	898	274
978	939	201
979	94	809
980	428	74
981	341	184
982	450	963
983	398	78
984	239	755
985	400	639
986	726	487
987	395	718
988	609	895
989	138	964
990	435	823
991	926	638
992	461	859
993	153	340
994	905	853
995	96	782
996	327	154
997	522	456
998	40	291
999	735	251
1000	435	352
1001	734	764
DEMAND_SECTION
1	0
2	4
3	8
4	3
5	9
6	7
7	1
8	4
9	3
10	6
11	1
12	6
13	8
14	2
15	9
16	6
17	3
18	1
19	8
20	3
21	4
22	9
23	1
24	4
25	3
26	1
27	7
28	6
29	4
30	4
31	3
32	2
33	6
34	8
35	1
36	7
37	8
38	7
39	5
40	5
41	3
42	1
43	9
44	5
45	2
46	1
47	2
48	1
49	7
50	2
51	8
52	3
53	3
54	8
55	5
56	7
57	3
58	6
59	5
60	5
61	4
62	4
63	2
64	8
65	6
66	9
67	4
68	7
69	2
70	7
71	5
72	9
73	8
74	8
75	2
76	7
77	6
78	7
79	7
80	6
81	1
82	3
83	8
84	4
85	6
86	6
87	9
88	7
89	1
90	6
91	2
92	1
93	3
94	7
95	4
96	1
97	4
98	2
99	9
100	4
101	5
102	5
103	7
104	2
105	4
106	9
107	4
108	9
109	3
110	3
111	6
112	4
113	1
114	6
115	8
116	1
117	4
118	5
119	8
120	7
121	2
122	9
123	4
124	9
125	9
126	5
127	5
128	9
129	3
130	7
131	4
132	9
133	2
134	6
135	9
136	9
137	1
138	5
139	1
140	1
141	1
142	4
143	3
144	1
145	9
146	2
147	9
148	6
149	6
150	7
151	1
152	5
153	5
154	5
155	7
156	7
157	3
158	9
159	1
160	7
161	7
162	3
163	2
164	5
165	9
166	7
167	2
168	2
169	1
170	6
171	8
172	4
173	1
174	1
175	9
176	3
177	2
178	2
179	2
180	7
181	8
182	3
183	1
184	9
185	3
186	7
187	5
188	6
189	5
190	2
191	2
192	2
193	8
194	4
195	5
196	3
197	9
198	6
199	2
200	7
201	2
202	9
203	3
204	4
205	1
206	9
207	1
208	2
209	8
210	4
211	7
212	9
213	3
214	7
215	6
216	7
217	4
218	8
219	7
220	2
221	1
222	1
223	9
224	1
225	5
226	1
227	4
228	1
229	3
230	2
231	8
232	5
233	5
234	9
235	4
236	5
237	4
238	1
239	6
240	7
241	1
242	3
243	4
244	4
245	3
246	2
247	8
248	2
249	1
250	3
251	8
252	7
253	8
254	6
255	9
256	8
257	9
258	1
259	7
260	3
261	2
262	8
263	5
264	4
265	6
266	9
267	6
268	1
269	3
270	5
271	5
272	6
273	7
274	1
275	7
276	5
277	6
278	5
279	6
280	2
281	2
282	8
283	1
284	5
285	8
286	5
287	2
288	6
289	5
290	4
291	1
292	2
293	1
294	1
295	1
296	3
297	1
298	2
299	3
300	7
301	7
302	4
303	9
304	9
305	7
306	8
307	5
308	5
309	9
310	5
311	4
312	9
313	5
314	8
315	4
316	8
317	5
318	7
319	5
320	9
321	4
322	8
323	5
324	1
325	3
326	1
327	1
328	5
329	7
330	7
331	1
332	6
333	8
334	4
335	1
336	4
337	9
338	2
339	6
340	6
341	4
342	3
343	4
344	6
345	2
346	9
347	5
348	4
349	6
350	9
351	2
352	8
353	2
354	4
355	5
356	4
357	9
358	1
359	6
360	8
361	7
362	9
363	7
364	8
365	7
366	7
367	2
368	1
369	5
370	3
371	7
372	7
373	7
374	2
375	1
376	7
377	1
378	9
379	7
380	3
381	3
382	3
383	1
384	2
385	5
386	2
387	7
388	1
389	2
390	3
391	8
392	2
393	4
394	9
395	5
396	2
397	7
398	4
399	2
400	6
401	3
402	2
403	8
404	2
405	9
406	3
407	2
408	4
409	2
410	3
411	3
412	4
413	4
414	1
415	3
416	6
417	6
418	2
419	9
420	1
421	8
422	7
423	3
424	8
425	7
426	8
427	1
428	4
429	6
430	4
431	1
432	1
433	3
434	2
435	7
436	2
437	9
438	5
439	9
440	1
441	3
442	7
443	8
444	8
445	2
446	6
447	7
448	7
449	9
450	2
451	7
452	2
453	9
454	2
455	4
456	9
457	8
458	2
459	6
460	5
461	9
462	7
463	1
464	8
465	9
466	3
467	3
468	7
469	3
470	1
471	4
472	4
473	5
474	9
475	8
476	8
477	4
478	9
479	2
480	5
481	9
482	6
483	5
484	4
485	9
486	6
487	8
488	9
489	6
490	9
491	6
492	3
493	9
494	9
495	7
496	7
497	7
498	5
499	5
500	3
501	8
502	4
503	9
504	5
505	7
506	8
507	2
508	7
509	1
510	5
511	1
512	2
513	9
514	2
515	1
516	4
517	6
518	9
519	2
520	2
521	4
522	8
523	5
524	2
525	2
526	6
527	3
528	5
529	9
530	2
531	2
532	9
533	2
534	4
535	3
536	8
537	6
538	8
539	1
540	8
541	7
542	5
543	4
544	6
545	2
546	5
547	6
548	3
549	9
550	6
551	2
552	7
553	4
554	4
555	1
556	3
557	8
558	3
559	5
560	8
561	1
562	5
563	3
564	2
565	2
566	9
567	2
568	3
569	5
570	2
571	5
572	1
573	7
574	3
575	7
576	8
577	9
578	2
579	9
580	8
581	3
582	4
583	6
584	2
585	9
586	7
587	7
588	9
589	8
590	3
591	9
592	3
593	1
594	9
595	7
596	2
597	6
598	1
599	5
600	7
601	3
602	5
603	8
604	8
605	3
606	3
607	5
608	4
609	4
610	9
611	9
612	5
613	7
614	5
615	9
616	9
617	8
618	2
619	6
620	7
621	6
622	5
623	6
624	4
625	9
626	7
627	6
628	3
629	9
630	3
631	7
632	8
633	4
634	6
635	9
636	4
637	6
638	4
639	4
640	9
641	9
642	6
643	3
644	2
645	8
646	3
647	4
648	3
649	1
650	4
651	8
652	4
653	9
654	2
655	1
656	3
657	6
658	6
659	3
660	2
661	4
662	2
663	1
664	3
665	3
666	1
667	9
668	7
669	7
670	6
671	6
672	4
673	7
674	6
675	4
676	3
677	1
678	5
679	4
680	5
681	4
682	4
683	9
684	1
685	9
686	8
687	9
688	1
689	5
690	8
691	9
692	5
693	6
694	1
695	7
696	5
697	4
698	2
699	6
700	1
701	5
702	3
703	4
704	5
705	9
706	9
707	2
708	2
709	4
710	9
711	8
712	9
713	8
714	4
715	5
716	3
717	9
718	3
719	2
720	6
721	9
722	3
723	6
724	5
725	6
726	6
727	6
728	4
729	4
730	7
731	2
732	2
733	7
734	7
735	2
736	9
737	3
738	4
739	4
740	9
741	8
742	2
743	9
744	2
745	9
746	6
747	8
748	2
749	5
750	3
751	9
752	7
753	5
754	6
755	9
756	6
757	1
758	8
759	8
760	7
761	9
762	5
763	7
764	7
765	5
766	4
767	2
768	2
769	9
770	4
771	1
772	1
773	4
774	5
775	9
776	5
777	9
778	3
779	6
780	2
781	3
782	3
783	3
784	3
785	3
786	5
787	8
788	6
789	4
790	7
791	1
792	4
793	1
794	1
795	4
796	3
797	8
798	7
799	1
800	6
801	5
802	5
803	8
804	3
805	5
806	5
807	5
808	6
809	3
810	5
811	4
812	7
813	3
814	1
815	8
816	4
817	9
818	4
819	7
820	1
821	3
822	2
823	5
824	9
825	6
826	3
827	1
828	2
829	7
830	9
831	3
832	5
833	9
834	4
835	1
836	9
837	7
838	6
839	2
840	4
841	7
842	9
843	8
844	6
845	5
846	2
847	9
848	2
849	3
850	7
851	2
852	7
853	7
854	5
855	2
856	2
857	1
858	1
859	1
860	2
861	1
862	4
863	1
864	8
865	3
866	7
867	1
868	1
869	6
870	2
871	8
872	7
873	8
874	8
875	9
876	1
877	7
878	4
879	4
880	6
881	5
882	2
883	4
884	3
885	2
886	8
887	4
888	1
889	3
890	6
891	4
892	9
893	5
894	6
895	2
896	6
897	1
898	9
899	9
900	9
901	6
902	9
903	3
904	3
905	2
906	9
907	4
908	2
909	5
910	1
911	1
912	6
913	3
914	9
915	7
916	3
917	9
918	8
919	3
920	4
921	7
922	5
923	4
924	2
925	5
926	5
927	2
928	9
929	8
930	4
931	8
932	9
933	5
934	1
935	4
936	2
937	9
938	7
939	5
940	4
941	6
942	2
943	4
944	5
945	1
946	7
947	6
948	9
949	2
950	3
951	4
952	5
953	7
954	1
955	5
956	1
957	2
958	4
959	5
960	4
961	5
962	3
963	4
964	2
965	2
966	5
967	6
968	3
969	3
970	8
971	8
972	2
973	3
974	5
975	3
976	1
977	6
978	8
979	1
980	6
981	3
982	7
983	9
984	3
985	7
986	1
987	7
988	2
989	8
990	3
991	3
992	7
993	5
994	9
995	9
996	5
997	8
998	7
999	6
1000	5
1001	2
TIME_WINDOW_SECTION
1	0	3000
2	0	1576
3	1617	2427
4	706	2191
5	1473	1772
6	378	2048
7	631	1284
8	1183	1553
9	1679	1947
10	1194	2297
11	176	1435
12	740	1414
13	663	1994
14	1723	2700
15	769	2232
16	467	1393
17	654	2533
18	468	1323
19	1353	1953
20	863	1733
21	121	2062
22	1621	2506
23	673	2524
24	1650	2535
25	570	1970
26	595	1042
27	298	2033
28	1824	2346
29	1090	2362
30	1789	2477
31	912	2732
32	519	1712
33	1082	2663
34	955	1607
35	0	1465
36	214	1841
37	537	2381
38	634	1495
39	577	2107
40	559	2089
41	189	1151
42	978	1555
43	608	2058
44	506	1972
45	1116	2564
46	0	1356
47	1348	2919
48	918	1233
49	305	1989
50	1693	2159
51	670	1946
52	504	1525
53	857	2549
54	1880	2731
55	1265	1723
56	1521	2925
57	506	1559
58	837	2379
59	674	2666
60	1067	1734
61	1205	2308
62	988	2570
63	1356	1643
64	403	2242
65	791	1036
66	249	1661
67	611	2293
68	1113	1907
69	969	2104
70	903	2163
71	1155	1560
72	978	2874
73	542	2504
74	1369	1675
75	833	2260
76	844	2161
77	1494	1995
78	665	1932
79	557	939
80	161	1381
81	1469	2906
82	724	990
83	690	1948
84	572	865
85	1321	1889
86	1727	2052
87	1537	1773
88	527	1958
89	606	1566
90	1696	2807
91	0	1446
92	1432	2821
93	334	1520
94	1018	2328
95	322	2297
96	1293	2285
97	30	835
98	863	2778
99	642	1305
100	953	1871
101	1331	2446
102	743	1881
103	144	1387
104	1603	2330
105	513	1529
106	424	1473
107	731	2528
108	998	1433
109	747	1621
110	1199	1635
111	478	2297
112	660	1681
113	1216	1714
114	783	2403
115	1677	2174
116	456	1415
117	1670	1989
118	1257	2341
119	1384	1826
120	1271	3000
121	293	2022
122	0	1794
123	1146	2493
124	380	1840
125	408	2303
126	1996	2301
127	812	1894
128	984	1864
129	971	1817
130	127	1025
131	1285	1559
132	266	714
133	1062	1378
134	1232	1915
135	1272	2742
136	1252	2853
137	722	2471
138	1441	2490
139	498	1954
140	295	1596
141	495	1059
142	11	1862
143	1233	1652
144	196	1822
145	1246	2003
146	1539	2298
147	899	1748
148	978	2573
149	1191	2867
150	724	1723
151	710	1702
152	833	1551
153	1274	1677
154	946	1945
155	0	1498
156	582	1731
157	1305	1877
158	1708	1994
159	584	2136
160	266	1402
161	570	2226
162	940	2752
163	769	1668
164	1336	2970
165	945	2272
166	1263	2768
167	750	983
168	560	1113
169	236	1333
170	0	1211
171	1220	2250
172	693	2599
173	833	1666
174	334	2024
175	1256	1500
176	1019	1932
177	258	1869
178	943	1475
179	922	1470
180	1047	1270
181	698	2044
182	584	2035
183	1067	2037
184	339	1871
185	500	1683
186	105	613
187	1271	1679
188	1489	1698
189	681	2150
190	1239	1552
191	991	2682
192	1273	1922
193	968	2677
194	30	380
195	1719	2291
196	1079	1904
197	137	1702
198	1150	2439
199	1093	2621
200	981	2369
201	982	1348
202	1336	3000
203	657	900
204	930	1961
205	593	1827
206	1595	2780
207	949	1232
208	1253	1719
209	1100	2168
210	941	1716
211	1028	2256
212	1146	1691
213	765	2738
214	823	2056
215	743	2507
216	764	1064
217	967	1768
218	1186	2347
219	336	2035
220	1726	1939
221	1430	2192
222	379	1980
223	803	1656
224	1206	2226
225	72	1780
226	344	2236
227	619	1729
228	758	1491
229	750	2598
230	216	2165
231	153	1867
232	462	2373
233	451	1434
234	365	1037
235	1813	3000
236	1081	1694
237	1054	2175
238	1007	2030
239	912	1133
240	636	2368
241	1010	1585
242	1063	2307
243	1272	1713
244	1621	2351
245	1347	1802
246	783	2205
247	395	2125
248	516	865
249	1278	2035
250	850	1225
251	1078	1677
252	1463	3000
253	2217	2506
254	1376	1773
255	1333	1550
256	464	748
257	369	1974
258	1539	2108
259	0	1704
260	1111	1551
261	283	2044
262	512	1579
263	1573	1839
264	861	2160
265	590	1439
266	620	1893
267	597	1507
268	519	2111
269	0	1289
270	176	2004
271	948	2013
272	1195	2365
273	407	920
274	1005	1983
275	975	2102
276	789	2326
277	552	1552
278	524	1285
279	1531	2218
280	450	1093
281	703	2232
282	290	2205
283	683	908
284	1507	2198
285	0	1400
286	959	1699
287	1507	2219
288	1288	2527
289	1136	1504
290	198	752
291	983	2912
292	746	1196
293	1135	2958
294	1413	2321
295	607	2426
296	501	2080
297	334	1875
298	986	2086
299	603	2151
300	1018	1565
301	918	1618
302	372	2118
303	410	2070
304	602	1739
305	1218	1483
306	935	1737
307	1005	2947
308	361	1631
309	315	1983
310	606	1099
311	1611	2091
312	1267	2273
313	705	2095
314	553	1955
315	769	1046
316	518	2143
317	1411	2893
318	1494	2990
319	887	2241
320	1548	2409
321	1462	2268
322	1194	1404
323	319	1678
324	1009	1952
325	622	2268
326	1832	2046
327	479	1444
328	833	2505
329	661	2534
330	1237	1648
331	942	1689
332	496	2188
333	0	1536
334	879	2792
335	107	895
336	1466	2012
337	799	1575
338	103	1817
339	376	2220
340	1532	1959
341	357	1934
342	452	997
343	1517	1782
344	1333	2232
345	0	1534
346	459	2345
347	912	1818
348	1079	1474
349	0	1084
350	816	2218
351	929	2572
352	1534	2720
353	1233	1869
354	527	1850
355	220	1970
356	908	2294
357	1101	1562
358	903	2049
359	1843	2612
360	1629	2515
361	194	1777
362	280	1441
363	1035	1636
364	1004	1384
365	312	1623
366	1780	2247
367	805	1757
368	1070	2950
369	1561	2319
370	819	1601
371	817	2444
372	1208	2643
373	468	1978
374	813	1565
375	340	1769
376	1018	2356
377	357	1848
378	52	1949
379	1060	1765
380	670	2198
381	0	891
382	365	1444
383	2097	2838
384	921	2236
385	69	1940
386	876	2425
387	609	1001
388	565	2563
389	1102	2839
390	1223	1917
391	941	2361
392	710	2549
393	1243	2200
394	389	1062
395	370	2002
396	297	2108
397	760	1461
398	558	2546
399	174	708
400	1123	2434
401	359	2253
402	854	1385
403	263	1274
404	1086	1956
405	465	2135
406	963	2699
407	1365	2113
408	1576	2336
409	1769	2029
410	663	1350
411	544	2527
412	0	1817
413	1024	2133
414	1737	1968
415	5	1716
416	392	2025
417	0	1723
418	538	1467
419	0	546
420	821	1730
421	1232	2183
422	1806	3000
423	0	815
424	1022	2455
425	1085	1853
426	699	1626
427	2	1842
428	1345	2476
429	1095	1396
430	1287	1846
431	1053	1928
432	439	1748
433	799	1831
434	1140	1615
435	654	2311
436	389	1672
437	43	1386
438	1539	2021
439	0	1451
440	211	887
441	1263	2722
442	569	1398
443	0	1777
444	818	2550
445	1485	1720
446	212	2163
447	605	2568
448	1345	2232
449	1525	2916
450	1571	1967
451	0	1432
452	1256	1923
453	413	2094
454	879	1832
455	1420	2396
456	656	1636
457	1374	2061
458	1622	2439
459	1101	2300
460	954	2476
461	770	1297
462	647	1195
463	1416	1972
464	1360	1613
465	1256	2172
466	588	2243
467	109	1077
468	1578	3000
469	776	2106
470	859	1264
471	1193	1687
472	989	2016
473	1489	2072
474	1392	2764
475	554	1688
476	1438	2454
477	648	1369
478	0	1149
479	941	1397
480	1184	1581
481	643	1536
482	1702	2736
483	272	2077
484	0	1562
485	762	1357
486	123	2111
487	1318	2081
488	66	1894
489	966	1623
490	1276	1892
491	1157	2004
492	616	1395
493	0	1407
494	1777	3000
495	1263	1591
496	587	1798
497	1188	1789
498	97	1803
499	272	1832
500	2067	2426
501	949	1898
502	0	662
503	550	1416
504	182	1559
505	1019	1770
506	501	2168
507	1212	2696
508	819	1895
509	1162	1565
510	908	2312
511	797	2782
512	1049	2092
513	615	2521
514	1343	1736
515	315	2076
516	1025	2091
517	931	2489
518	493	1817
519	979	2598
520	663	2325
521	1097	1806
522	1884	2578
523	1083	1670
524	765	1524
525	135	1641
526	435	2156
527	1546	2593
528	313	549
529	1071	1316
530	1281	2056
531	428	1947
532	1108	1906
533	795	1137
534	430	1983
535	951	2489
536	1510	2210
537	839	1603
538	1151	1624
539	482	1907
540	1263	1606
541	250	2237
542	181	1318
543	1129	1983
544	307	2183
545	1896	2525
546	803	2761
547	264	1831
548	690	1066
549	0	938
550	561	1604
551	1296	2002
552	575	2016
553	1001	2138
554	1147	1965
555	1019	2349
556	913	2388
557	1345	2636
558	0	1829
559	618	2174
560	0	1403
561	466	1612
562	769	1595
563	1589	2649
564	619	1962
565	27	1948
566	482	2046
567	524	1817
568	547	1949
569	8	1584
570	183	1968
571	643	999
572	461	1731
573	0	970
574	1287	2558
575	1594	1823
576	550	2163
577	600	1503
578	777	2170
579	1535	2192
580	0	1218
581	670	2600
582	1250	2024
583	537	2308
584	768	1872
585	900	1311
586	1551	3000
587	1036	1486
588	897	1906
589	176	1424
590	786	2600
591	1445	1646
592	1534	1748
593	1701	2682
594	936	1332
595	1671	2613
596	226	1383
597	1405	1940
598	825	2788
599	740	2203
600	365	1560
601	0	1541
602	974	1815
603	2390	2905
604	445	1220
605	1142	1668
606	1700	2191
607	0	1671
608	718	1719
609	0	847
610	818	2305
611	1850	2222
612	887	2320
613	456	1313
614	604	1710
615	565	1163
616	1306	2412
617	1119	2665
618	1479	1826
619	679	1741
620	1204	2303
621	831	2091
622	547	1112
623	1449	2888
624	1456	2020
625	557	2037
626	646	2507
627	0	1848
628	6	1631
629	883	1870
630	0	1697
631	1382	2226
632	1901	2179
633	528	1935
634	1021	1589
635	0	1157
636	891	1679
637	490	2300
638	2187	2465
639	910	2137
640	110	1388
641	687	1952
642	601	1804
643	476	1374
644	0	1342
645	1179	2446
646	0	1899
647	1071	2713
648	1045	2677
649	837	2364
650	1109	1523
651	932	2314
652	264	2098
653	1111	1913
654	1311	2577
655	1031	1594
656	730	1468
657	1081	2204
658	541	2396
659	1632	2106
660	0	1035
661	365	1325
662	300	1890
663	731	2365
664	1048	2140
665	720	1633
666	1863	2455
667	1263	2656
668	1598	2966
669	649	1206
670	940	2887
671	922	2098
672	701	2461
673	1250	2888
674	713	1557
675	516	2409
676	370	2136
677	1285	1827
678	1715	2765
679	318	1875
680	1275	1523
681	1328	2527
682	1239	2475
683	813	1326
684	465	2261
685	1518	2627
686	371	1877
687	1354	1851
688	289	1964
689	655	2074
690	542	1273
691	730	2559
692	163	1321
693	194	1662
694	1246	2633
695	739	2497
696	724	1745
697	665	2017
698	1089	1831
699	802	2394
700	572	1543
701	297	1806
702	133	1260
703	949	1338
704	1639	2297
705	304	1676
706	625	2064
707	1273	2730
708	1073	1705
709	2009	2830
710	454	2372
711	1100	1861
712	1537	2780
713	1446	2980
714	734	2168
715	1188	2067
716	926	2705
717	1250	2308
718	172	1517
719	904	1264
720	258	2226
721	919	1670
722	789	1943
723	722	2572
724	1805	2567
725	927	2821
726	1158	1479
727	0	1893
728	713	1628
729	1107	1362
730	927	2141
731	1253	1657
732	827	1603
733	925	1651
734	1180	2071
735	701	1873
736	1398	1732
737	608	2290
738	1169	2256
739	762	2300
740	965	2685
741	1014	1608
742	936	1727
743	572	2014
744	868	1221
745	206	1818
746	299	2031
747	553	1607
748	733	2116
749	1227	2130
750	1322	1829
751	952	2791
752	930	2106
753	755	2286
754	387	1386
755	481	1761
756	708	2256
757	865	1440
758	881	1263
759	197	1841
760	898	1778
761	1618	2209
762	1288	3000
763	649	1243
764	405	2356
765	782	2631
766	993	2087
767	300	1368
768	969	1418
769	979	1910
770	931	2310
771	1164	1405
772	1455	1710
773	1086	1553
774	937	1598
775	797	1790
776	192	2123
777	716	2678
778	0	1590
779	1117	1748
780	884	1972
781	923	2247
782	159	1734
783	804	2204
784	149	1180
785	395	1789
786	1682	1912
787	627	2043
788	877	2299
789	364	2071
790	713	1848
791	879	2143
792	749	2046
793	1090	2409
794	0	1119
795	1489	1731
796	1363	1728
797	0	1174
798	1359	1704
799	1094	1697
800	345	2073
801	10	1798
802	583	1153
803	513	1156
804	425	2424
805	636	2464
806	1611	2004
807	1430	1802
808	643	992
809	617	2293
810	681	932
811	1085	2821
812	1012	1228
813	1145	1720
814	1028	2020
815	1546	2362
816	956	2895
817	985	2184
818	825	2295
819	1202	1458
820	1240	1503
821	2216	2518
822	1632	2068
823	782	2052
824	1378	2619
825	1303	1549
826	528	1650
827	333	2103
828	1013	1631
829	1002	1305
830	1361	2352
831	1004	1209
832	989	1616
833	1426	2324
834	842	1879
835	491	1238
836	1593	2283
837	1822	2352
838	1807	2974
839	1421	1770
840	1295	1977
841	976	1900
842	31	1994
843	917	1364
844	676	2322
845	608	1785
846	1591	2096
847	973	2584
848	654	1368
849	1428	1919
850	0	1298
851	1682	2304
852	766	1696
853	1362	2621
854	1116	2185
855	1668	1989
856	1685	3000
857	1239	2501
858	7	1764
859	5	1742
860	805	2615
861	1660	2781
862	902	1529
863	1161	3000
864	1396	2896
865	1100	2023
866	1265	2182
867	980	1396
868	728	2000
869	846	2205
870	1700	2457
871	1624	2784
872	439	1998
873	1533	2264
874	1315	3000
875	1077	1293
876	132	1418
877	1685	2021
878	312	2262
879	883	1476
880	1204	2262
881	980	2082
882	672	1697
883	972	2104
884	905	2287
885	1083	1983
886	1126	2752
887	634	1370
888	681	2385
889	701	1316
890	1719	2366
891	887	2131
892	145	1126
893	1142	2022
894	487	2051
895	1298	1809
896	699	989
897	1569	1866
898	904	1752
899	595	1369
900	636	2173
901	1084	2467
902	0	1535
903	807	2040
904	1210	1618
905	0	1495
906	208	1922
907	927	1496
908	1277	1512
909	1632	2662
910	1114	1804
911	957	2129
912	1134	2450
913	918	1955
914	88	1054
915	456	1716
916	1084	2851
917	1072	2935
918	1057	2347
919	1491	1966
920	902	1831
921	398	1957
922	2106	2313
923	1469	2381
924	283	1547
925	925	1776
926	478	1035
927	1092	1483
928	1219	1689
929	145	1904
930	119	1872
931	1145	1377
932	599	1778
933	1717	2096
934	1613	1925
935	360	1721
936	779	2544
937	975	1396
938	1112	2162
939	351	1415
940	907	1974
941	1408	1757
942	999	2994
943	1019	2330
944	792	2375
945	1878	2101
946	388	2293
947	1115	2442
948	736	2359
949	949	1777
950	758	1910
951	1528	3000
952	1609	2920
953	330	1531
954	932	1967
955	439	1616
956	232	2195
957	278	899
958	688	1369
959	1482	2068
960	884	2436
961	256	1335
962	211	2205
963	649	1854
964	1905	2675
965	1480	3000
966	864	2222
967	390	2252
968	596	2327
969	590	863
970	1312	1582
971	741	1510
972	1807	2337
973	1269	1981
974	722	976
975	1044	1683
976	1719	2077
977	431	2149
978	689	2293
979	711	1183
980	1245	1750
981	971	2411
982	76	2010
983	362	1903
984	1119	3000
985	1538	3000
986	148	1777
987	503	2202
988	814	1284
989	503	1746
990	1627	2268
991	806	1358
992	81	1582
993	16	1263
994	1434	1774
995	0	1299
996	428	2012
997	1643	2392
998	903	2244
999	1141	1622
1000	784	1830
1001	974	2858
BACKHAUL_SECTION
2	10	26	35	38	47	52	60	66	71	81	86	92	95	104	107	121	126	132	145	155	160	164	172	190	196	212	213	216	221	222	226	228	231	234	236	237	239	241	249	250	258	261	269	270	271	272	273	277	289	292	294	295	301	305	314	321	323	325	326	328	339	340	349	356	364	366	368	370	372	373	381	383	385	389	391	392	393	396	397	400	406	412	415	419	421	423	424	435	441	443	446	447	450	463	472	480	484	492	494	497	515	528	529	539	547	548	552	556	564	565	571	581	585	586	591	594	603	604	606	609	610	612	614	615	617	618	620	622	635	638	645	665	669	670	675	682	685	688	689	696	712	720	724	739	741	750	755	764	774	788	789	792	796	801	804	806	807	808	821	834	842	847	854	855	860	873	875	876	877	882	883	888	894	895	896	898	899	901	906	907	913	924	927	937	944	948	949	953	958	959	961	966	967	980	984	988	992	996	998	-1
DEPOT_SECTION
1
-1
EOF
