NAME : n1001-0013
COMMENT : "Generated by pyvrp_manuel (VRPBLTW)"
TYPE : VRPBLTW
DIMENSION : 1001
EDGE_WEIGHT_TYPE : EUC_2D
CAPACITY : 150
VEHICLES : 1000
DISTANCE : 3000
SERVICE_TIME : 200
NODE_COORD_SECTION
1	657	383
2	501	89
3	37	659
4	868	149
5	271	310
6	133	985
7	274	375
8	955	798
9	672	537
10	735	407
11	751	483
12	414	339
13	618	298
14	303	619
15	430	786
16	756	595
17	835	291
18	542	903
19	560	170
20	985	849
21	403	934
22	984	666
23	351	968
24	292	391
25	270	451
26	92	350
27	843	166
28	452	987
29	681	900
30	654	247
31	655	273
32	483	254
33	797	99
34	873	458
35	350	329
36	320	678
37	441	641
38	326	567
39	992	841
40	601	846
41	547	642
42	596	80
43	159	464
44	594	342
45	438	479
46	276	939
47	39	439
48	123	760
49	709	325
50	82	138
51	501	12
52	755	846
53	267	877
54	399	824
55	504	714
56	627	742
57	807	873
58	830	925
59	475	197
60	477	682
61	928	80
62	319	315
63	534	631
64	415	497
65	600	521
66	795	686
67	963	49
68	306	749
69	920	565
70	424	799
71	411	453
72	138	313
73	779	130
74	848	231
75	137	470
76	16	798
77	904	891
78	815	877
79	409	897
80	816	465
81	599	648
82	257	629
83	796	616
84	723	101
85	186	616
86	394	796
87	331	162
88	123	50
89	516	19
90	188	414
91	909	624
92	347	709
93	386	735
94	420	722
95	576	269
96	555	124
97	281	885
98	288	936
99	11	430
100	87	945
101	712	7
102	904	602
103	921	45
104	72	1
105	531	824
106	11	176
107	334	167
108	31	539
109	576	931
110	217	939
111	481	920
112	440	368
113	58	947
114	835	55
115	152	43
116	782	680
117	845	746
118	306	273
119	303	468
120	417	184
121	467	278
122	194	954
123	878	325
124	535	230
125	721	194
126	183	793
127	769	560
128	711	943
129	341	825
130	358	971
131	5	321
132	750	88
133	85	606
134	837	470
135	226	62
136	403	395
137	645	583
138	747	403
139	777	134
140	694	570
141	164	763
142	380	473
143	549	686
144	332	68
145	465	714
146	117	2
147	498	307
148	463	26
149	900	601
150	190	943
151	547	804
152	307	551
153	665	899
154	560	862
155	846	330
156	292	282
157	569	873
158	184	957
159	612	164
160	726	206
161	853	10
162	729	331
163	412	720
164	619	10
165	944	423
166	746	681
167	246	404
168	572	789
169	385	7
170	286	365
171	308	67
172	414	5
173	425	395
174	388	443
175	784	765
176	769	912
177	807	853
178	48	558
179	249	215
180	717	524
181	732	362
182	450	93
183	837	177
184	532	76
185	670	300
186	947	602
187	942	683
188	785	160
189	996	262
190	821	124
191	17	950
192	765	777
193	568	21
194	255	721
195	117	103
196	649	305
197	266	342
198	33	4
199	256	81
200	301	361
201	869	738
202	956	276
203	816	877
204	286	678
205	121	410
206	716	921
207	154	163
208	620	122
209	916	107
210	822	191
211	630	857
212	536	782
213	706	35
214	960	749
215	441	888
216	106	988
217	182	552
218	279	964
219	549	722
220	791	950
221	238	844
222	9	569
223	384	905
224	940	477
225	450	30
226	912	221
227	900	120
228	581	373
229	268	568
230	923	665
231	614	688
232	971	59
233	678	973
234	338	264
235	607	473
236	152	966
237	57	554
238	316	809
239	458	229
240	244	86
241	76	866
242	586	935
243	578	144
244	258	400
245	432	872
246	95	238
247	44	782
248	800	321
249	880	305
250	335	89
251	261	525
252	127	925
253	59	893
254	306	984
255	714	868
256	502	999
257	920	708
258	64	708
259	998	757
260	727	703
261	647	429
262	5	411
263	765	332
264	729	61
265	82	361
266	204	499
267	458	665
268	546	291
269	234	592
270	792	474
271	515	503
272	207	133
273	151	61
274	816	170
275	452	867
276	248	71
277	221	918
278	801	311
279	680	713
280	225	253
281	785	378
282	722	405
283	667	865
284	298	315
285	107	933
286	215	347
287	293	963
288	49	870
289	620	832
290	290	912
291	625	173
292	378	238
293	265	659
294	800	386
295	154	469
296	782	323
297	891	497
298	239	683
299	373	181
300	204	690
301	586	53
302	237	975
303	441	91
304	123	564
305	121	215
306	407	240
307	311	918
308	876	506
309	876	942
310	872	969
311	942	848
312	548	251
313	863	760
314	958	904
315	789	607
316	436	211
317	149	643
318	818	501
319	475	792
320	300	149
321	144	529
322	396	565
323	134	821
324	339	348
325	382	702
326	247	887
327	21	514
328	635	921
329	640	106
330	530	589
331	252	501
332	105	666
333	597	550
334	501	993
335	350	885
336	794	10
337	665	356
338	213	901
339	425	157
340	208	124
341	104	562
342	22	962
343	235	938
344	858	34
345	25	882
346	229	861
347	50	422
348	248	997
349	621	750
350	236	778
351	614	194
352	223	868
353	254	984
354	399	157
355	178	857
356	593	89
357	714	165
358	793	407
359	722	87
360	960	640
361	301	360
362	100	255
363	831	17
364	173	397
365	832	546
366	74	379
367	935	816
368	49	813
369	617	410
370	813	724
371	732	324
372	794	369
373	553	531
374	947	25
375	554	425
376	898	523
377	974	41
378	800	556
379	326	707
380	351	1
381	88	414
382	271	896
383	97	109
384	517	630
385	338	478
386	980	771
387	893	877
388	893	762
389	930	246
390	214	120
391	225	321
392	933	986
393	633	561
394	415	567
395	907	722
396	558	38
397	463	744
398	443	837
399	843	51
400	700	671
401	462	235
402	79	915
403	337	740
404	387	167
405	31	339
406	760	372
407	971	456
408	209	748
409	489	803
410	749	217
411	29	838
412	444	692
413	664	743
414	417	891
415	672	328
416	720	34
417	396	28
418	182	164
419	323	759
420	579	813
421	847	699
422	44	888
423	888	997
424	805	479
425	956	18
426	939	611
427	786	58
428	397	934
429	540	553
430	885	101
431	562	27
432	304	330
433	713	652
434	188	522
435	518	967
436	123	196
437	261	11
438	634	959
439	891	557
440	499	18
441	615	482
442	87	815
443	308	135
444	812	386
445	931	726
446	317	669
447	57	69
448	537	934
449	581	813
450	652	15
451	630	784
452	622	357
453	434	231
454	727	363
455	484	918
456	921	613
457	609	693
458	493	517
459	394	806
460	527	9
461	850	663
462	386	256
463	112	839
464	275	926
465	739	988
466	790	965
467	739	974
468	84	652
469	310	742
470	750	801
471	761	634
472	783	157
473	802	382
474	163	160
475	649	977
476	941	612
477	679	73
478	656	714
479	197	894
480	631	26
481	915	23
482	919	153
483	243	864
484	398	294
485	990	926
486	943	978
487	180	985
488	891	114
489	734	278
490	898	179
491	998	928
492	265	945
493	58	295
494	943	619
495	252	231
496	731	67
497	907	169
498	277	622
499	384	675
500	195	663
501	272	565
502	255	979
503	866	186
504	475	612
505	323	529
506	780	65
507	134	447
508	474	555
509	245	264
510	191	264
511	763	974
512	844	527
513	14	662
514	947	600
515	329	476
516	474	363
517	853	258
518	837	61
519	954	397
520	340	671
521	100	504
522	790	972
523	723	383
524	950	950
525	659	495
526	593	981
527	664	309
528	576	76
529	403	654
530	887	365
531	854	867
532	944	697
533	239	641
534	982	920
535	360	377
536	653	755
537	737	855
538	710	371
539	48	47
540	763	282
541	743	124
542	727	818
543	961	875
544	406	489
545	942	378
546	833	352
547	649	756
548	884	739
549	565	157
550	159	207
551	137	404
552	164	371
553	719	971
554	356	385
555	826	957
556	960	968
557	23	121
558	823	801
559	449	513
560	399	273
561	869	840
562	794	821
563	214	483
564	489	866
565	646	864
566	992	452
567	465	60
568	438	362
569	536	56
570	566	257
571	413	619
572	501	949
573	987	457
574	77	980
575	475	871
576	570	276
577	100	346
578	883	782
579	360	21
580	953	895
581	783	528
582	401	275
583	198	836
584	360	51
585	74	675
586	632	836
587	772	394
588	411	941
589	495	470
590	931	272
591	454	636
592	886	387
593	174	284
594	302	589
595	355	922
596	454	167
597	449	765
598	467	426
599	676	842
600	109	191
601	241	822
602	758	711
603	889	963
604	641	355
605	30	967
606	740	946
607	67	208
608	752	684
609	848	360
610	183	987
611	326	775
612	854	699
613	479	301
614	694	587
615	972	510
616	821	575
617	339	705
618	546	510
619	21	252
620	851	905
621	883	451
622	360	484
623	414	230
624	835	308
625	439	710
626	768	374
627	953	668
628	514	2
629	226	821
630	20	954
631	760	212
632	837	890
633	770	984
634	796	186
635	320	965
636	380	785
637	577	459
638	909	227
639	677	472
640	786	710
641	694	181
642	261	949
643	36	552
644	648	619
645	847	74
646	194	567
647	312	510
648	833	226
649	804	827
650	29	376
651	824	862
652	93	996
653	105	784
654	315	927
655	328	215
656	485	520
657	915	887
658	991	397
659	780	686
660	883	382
661	114	944
662	140	113
663	113	309
664	446	235
665	729	862
666	663	212
667	108	494
668	128	453
669	330	998
670	826	250
671	938	112
672	185	117
673	935	228
674	483	576
675	292	221
676	922	183
677	906	636
678	458	160
679	43	538
680	426	9
681	57	481
682	285	341
683	929	413
684	959	624
685	660	51
686	20	435
687	277	210
688	166	197
689	386	476
690	797	389
691	720	336
692	922	376
693	32	254
694	804	207
695	184	667
696	603	207
697	569	267
698	62	157
699	484	937
700	847	302
701	746	428
702	641	188
703	790	92
704	387	731
705	654	876
706	672	145
707	795	987
708	872	418
709	556	386
710	712	325
711	417	614
712	955	189
713	855	70
714	481	443
715	867	17
716	409	295
717	927	865
718	163	797
719	841	980
720	165	464
721	118	72
722	121	440
723	857	805
724	497	94
725	143	643
726	294	448
727	508	669
728	796	919
729	67	440
730	883	328
731	51	842
732	637	802
733	642	869
734	812	814
735	869	785
736	245	578
737	867	317
738	889	337
739	171	329
740	809	49
741	880	422
742	101	4
743	311	61
744	574	875
745	397	679
746	346	85
747	180	704
748	542	422
749	709	996
750	341	377
751	850	122
752	750	988
753	990	509
754	148	631
755	569	183
756	896	701
757	107	525
758	549	719
759	711	42
760	1000	756
761	170	231
762	278	751
763	31	223
764	957	236
765	955	793
766	632	438
767	33	2
768	320	438
769	817	750
770	521	702
771	29	251
772	781	782
773	875	799
774	264	670
775	93	338
776	402	839
777	259	633
778	814	589
779	917	687
780	470	518
781	559	760
782	341	638
783	836	785
784	795	767
785	928	535
786	46	958
787	819	801
788	552	587
789	671	808
790	910	824
791	962	746
792	633	337
793	910	423
794	49	653
795	419	742
796	13	226
797	39	833
798	302	813
799	196	473
800	63	611
801	531	202
802	390	967
803	841	496
804	916	68
805	944	901
806	398	976
807	388	952
808	420	772
809	563	463
810	15	749
811	805	717
812	501	782
813	819	188
814	546	402
815	131	108
816	211	946
817	548	805
818	661	543
819	704	820
820	682	634
821	583	807
822	219	622
823	712	679
824	390	224
825	621	67
826	462	323
827	786	296
828	771	481
829	627	683
830	783	238
831	463	286
832	692	573
833	515	148
834	238	777
835	346	441
836	708	871
837	76	234
838	747	421
839	971	858
840	128	792
841	442	529
842	135	250
843	61	492
844	148	587
845	450	105
846	267	266
847	814	84
848	920	997
849	377	468
850	401	183
851	534	70
852	409	393
853	930	951
854	270	669
855	792	215
856	383	474
857	25	566
858	460	239
859	113	982
860	817	304
861	80	283
862	720	149
863	625	930
864	154	304
865	667	684
866	602	475
867	76	48
868	295	290
869	786	412
870	774	635
871	839	987
872	393	556
873	299	913
874	855	866
875	829	752
876	28	493
877	862	936
878	382	142
879	128	235
880	328	102
881	219	553
882	39	545
883	660	520
884	460	370
885	312	199
886	588	765
887	431	826
888	401	811
889	807	798
890	108	38
891	993	91
892	698	84
893	85	744
894	960	951
895	199	216
896	348	398
897	316	377
898	601	168
899	458	405
900	216	850
901	702	875
902	834	37
903	427	650
904	449	73
905	945	189
906	0	520
907	507	766
908	295	331
909	685	432
910	35	592
911	506	91
912	204	721
913	878	155
914	360	115
915	922	310
916	198	10
917	163	866
918	680	53
919	47	438
920	604	249
921	720	763
922	815	380
923	87	563
924	800	943
925	312	371
926	119	384
927	906	647
928	893	388
929	176	222
930	10	763
931	83	328
932	263	894
933	178	843
934	758	878
935	433	559
936	309	621
937	365	932
938	516	65
939	679	979
940	306	13
941	38	426
942	46	120
943	197	967
944	931	831
945	379	802
946	553	114
947	675	321
948	440	803
949	291	458
950	187	674
951	691	156
952	517	100
953	801	96
954	300	254
955	46	266
956	879	741
957	333	259
958	80	335
959	77	44
960	479	759
961	989	944
962	880	344
963	702	373
964	81	716
965	119	922
966	408	811
967	800	604
968	269	595
969	383	628
970	951	50
971	102	557
972	360	451
973	757	677
974	594	514
975	451	479
976	620	357
977	740	425
978	284	216
979	88	172
980	836	492
981	199	21
982	123	863
983	761	393
984	83	87
985	426	395
986	602	968
987	658	20
988	628	987
989	927	586
990	821	431
991	775	383
992	469	367
993	302	611
994	932	539
995	927	244
996	303	211
997	781	244
998	27	414
999	247	776
1000	227	909
1001	627	400
DEMAND_SECTION
1	0
2	6
3	6
4	3
5	1
6	7
7	1
8	5
9	3
10	1
11	8
12	8
13	8
14	7
15	9
16	7
17	7
18	8
19	4
20	6
21	3
22	7
23	3
24	1
25	2
26	6
27	1
28	9
29	7
30	3
31	8
32	3
33	1
34	5
35	5
36	9
37	2
38	4
39	8
40	9
41	7
42	1
43	4
44	4
45	8
46	6
47	4
48	1
49	1
50	6
51	8
52	6
53	6
54	8
55	6
56	7
57	4
58	8
59	8
60	7
61	5
62	7
63	8
64	9
65	5
66	9
67	3
68	9
69	3
70	2
71	1
72	4
73	4
74	7
75	1
76	7
77	9
78	2
79	9
80	2
81	4
82	5
83	9
84	2
85	8
86	5
87	3
88	1
89	8
90	5
91	7
92	6
93	1
94	8
95	4
96	8
97	4
98	2
99	1
100	5
101	7
102	2
103	7
104	1
105	8
106	3
107	9
108	3
109	8
110	9
111	7
112	3
113	9
114	4
115	3
116	1
117	9
118	2
119	9
120	5
121	7
122	1
123	9
124	2
125	6
126	3
127	1
128	2
129	4
130	3
131	5
132	5
133	5
134	1
135	4
136	2
137	9
138	1
139	8
140	1
141	1
142	3
143	8
144	3
145	4
146	9
147	4
148	9
149	1
150	8
151	9
152	7
153	5
154	2
155	1
156	7
157	7
158	7
159	8
160	2
161	8
162	4
163	3
164	5
165	2
166	4
167	6
168	8
169	5
170	3
171	7
172	1
173	1
174	7
175	2
176	9
177	2
178	7
179	7
180	2
181	5
182	7
183	1
184	4
185	4
186	1
187	6
188	4
189	1
190	2
191	1
192	4
193	2
194	1
195	1
196	3
197	1
198	3
199	4
200	4
201	4
202	7
203	7
204	7
205	5
206	1
207	7
208	5
209	2
210	9
211	9
212	9
213	4
214	3
215	3
216	1
217	4
218	7
219	8
220	2
221	8
222	2
223	9
224	3
225	3
226	4
227	3
228	4
229	1
230	1
231	6
232	1
233	6
234	2
235	6
236	3
237	1
238	9
239	2
240	4
241	5
242	8
243	1
244	4
245	5
246	7
247	1
248	1
249	7
250	1
251	3
252	3
253	5
254	1
255	2
256	6
257	6
258	7
259	6
260	3
261	7
262	4
263	2
264	4
265	3
266	5
267	2
268	4
269	2
270	8
271	8
272	7
273	2
274	6
275	7
276	8
277	1
278	8
279	2
280	6
281	9
282	5
283	2
284	5
285	8
286	8
287	9
288	1
289	3
290	9
291	7
292	5
293	4
294	7
295	8
296	3
297	5
298	1
299	4
300	6
301	5
302	6
303	3
304	8
305	6
306	8
307	8
308	1
309	8
310	9
311	8
312	8
313	9
314	2
315	2
316	7
317	3
318	7
319	5
320	8
321	8
322	1
323	6
324	3
325	7
326	6
327	4
328	2
329	1
330	8
331	6
332	9
333	9
334	5
335	8
336	7
337	2
338	1
339	9
340	2
341	7
342	3
343	9
344	1
345	4
346	6
347	5
348	6
349	2
350	1
351	3
352	9
353	2
354	5
355	1
356	5
357	1
358	6
359	3
360	8
361	8
362	6
363	7
364	8
365	2
366	2
367	2
368	7
369	1
370	7
371	7
372	5
373	8
374	3
375	5
376	2
377	8
378	1
379	3
380	4
381	7
382	2
383	5
384	6
385	5
386	7
387	8
388	3
389	9
390	4
391	6
392	1
393	8
394	7
395	5
396	2
397	3
398	9
399	2
400	2
401	7
402	7
403	9
404	1
405	5
406	7
407	5
408	2
409	2
410	1
411	2
412	7
413	6
414	2
415	6
416	2
417	5
418	6
419	4
420	6
421	1
422	3
423	1
424	9
425	2
426	7
427	8
428	8
429	7
430	5
431	8
432	8
433	1
434	6
435	2
436	3
437	8
438	9
439	4
440	4
441	4
442	8
443	3
444	6
445	5
446	4
447	6
448	9
449	9
450	4
451	2
452	2
453	7
454	8
455	2
456	8
457	7
458	2
459	9
460	8
461	5
462	3
463	9
464	3
465	8
466	1
467	6
468	2
469	6
470	9
471	1
472	2
473	1
474	9
475	2
476	3
477	7
478	2
479	3
480	1
481	2
482	9
483	4
484	2
485	2
486	3
487	8
488	1
489	5
490	1
491	6
492	8
493	5
494	8
495	3
496	5
497	9
498	5
499	3
500	1
501	3
502	7
503	3
504	4
505	9
506	6
507	4
508	2
509	6
510	1
511	5
512	8
513	4
514	1
515	6
516	6
517	7
518	5
519	5
520	6
521	2
522	4
523	8
524	2
525	4
526	3
527	1
528	1
529	5
530	3
531	6
532	6
533	5
534	4
535	2
536	9
537	8
538	8
539	6
540	4
541	1
542	6
543	3
544	6
545	3
546	8
547	4
548	2
549	9
550	2
551	9
552	1
553	8
554	5
555	3
556	7
557	9
558	6
559	9
560	9
561	9
562	3
563	9
564	6
565	4
566	8
567	5
568	6
569	5
570	4
571	2
572	6
573	8
574	7
575	6
576	3
577	3
578	7
579	6
580	2
581	3
582	2
583	7
584	6
585	9
586	5
587	3
588	8
589	4
590	2
591	8
592	1
593	7
594	3
595	2
596	6
597	6
598	4
599	7
600	8
601	2
602	7
603	9
604	3
605	1
606	1
607	6
608	8
609	2
610	9
611	1
612	9
613	3
614	7
615	2
616	1
617	1
618	3
619	4
620	9
621	9
622	3
623	9
624	2
625	3
626	5
627	1
628	2
629	2
630	5
631	1
632	4
633	9
634	5
635	2
636	3
637	5
638	2
639	3
640	4
641	9
642	3
643	4
644	1
645	7
646	1
647	7
648	1
649	1
650	2
651	7
652	3
653	5
654	7
655	4
656	3
657	4
658	5
659	6
660	6
661	2
662	6
663	6
664	4
665	2
666	5
667	7
668	3
669	4
670	3
671	5
672	2
673	8
674	2
675	3
676	9
677	8
678	4
679	2
680	7
681	1
682	7
683	6
684	7
685	9
686	4
687	4
688	6
689	8
690	4
691	5
692	7
693	1
694	9
695	8
696	9
697	9
698	6
699	3
700	8
701	9
702	5
703	6
704	8
705	1
706	3
707	5
708	6
709	7
710	8
711	2
712	9
713	9
714	5
715	9
716	2
717	8
718	4
719	7
720	6
721	4
722	1
723	9
724	4
725	2
726	9
727	8
728	2
729	3
730	6
731	4
732	4
733	5
734	2
735	6
736	7
737	6
738	5
739	8
740	2
741	1
742	2
743	6
744	9
745	2
746	9
747	3
748	6
749	9
750	3
751	5
752	2
753	5
754	9
755	8
756	5
757	9
758	6
759	6
760	7
761	8
762	4
763	7
764	5
765	2
766	3
767	6
768	8
769	7
770	4
771	9
772	9
773	2
774	8
775	6
776	7
777	3
778	7
779	6
780	4
781	5
782	3
783	7
784	7
785	5
786	5
787	7
788	4
789	9
790	6
791	7
792	8
793	4
794	3
795	7
796	3
797	7
798	3
799	6
800	7
801	3
802	6
803	9
804	5
805	2
806	6
807	1
808	7
809	7
810	3
811	9
812	6
813	5
814	2
815	4
816	5
817	1
818	5
819	6
820	8
821	7
822	9
823	3
824	8
825	2
826	6
827	3
828	3
829	8
830	9
831	9
832	3
833	2
834	3
835	3
836	5
837	8
838	6
839	1
840	7
841	1
842	1
843	2
844	1
845	6
846	3
847	3
848	2
849	7
850	7
851	7
852	3
853	6
854	7
855	9
856	8
857	5
858	6
859	6
860	8
861	1
862	6
863	7
864	6
865	3
866	4
867	1
868	5
869	6
870	3
871	5
872	7
873	6
874	1
875	7
876	3
877	7
878	2
879	3
880	4
881	1
882	5
883	8
884	2
885	1
886	3
887	9
888	3
889	1
890	6
891	6
892	7
893	8
894	2
895	2
896	4
897	6
898	4
899	8
900	7
901	4
902	1
903	7
904	8
905	2
906	4
907	1
908	2
909	8
910	3
911	9
912	6
913	7
914	7
915	9
916	5
917	2
918	5
919	9
920	3
921	9
922	7
923	6
924	6
925	7
926	9
927	5
928	3
929	4
930	1
931	4
932	1
933	1
934	4
935	9
936	8
937	5
938	1
939	1
940	6
941	8
942	4
943	8
944	9
945	4
946	4
947	7
948	3
949	8
950	7
951	4
952	7
953	6
954	6
955	4
956	8
957	6
958	5
959	9
960	1
961	8
962	6
963	5
964	6
965	6
966	9
967	9
968	8
969	1
970	1
971	8
972	6
973	8
974	5
975	2
976	5
977	6
978	9
979	9
980	2
981	1
982	3
983	8
984	2
985	6
986	6
987	6
988	9
989	9
990	6
991	2
992	2
993	5
994	6
995	5
996	3
997	8
998	1
999	6
1000	3
1001	4
TIME_WINDOW_SECTION
1	0	3000
2	0	1427
3	805	1864
4	848	1564
5	627	2166
6	399	2132
7	1189	2274
8	653	1150
9	961	2356
10	1303	2471
11	1236	2088
12	0	1324
13	1781	3000
14	318	1451
15	160	881
16	95	1001
17	869	1126
18	635	1437
19	1055	1661
20	1213	2526
21	365	1976
22	592	2177
23	621	1732
24	646	2498
25	1154	1579
26	633	1622
27	2067	2352
28	924	2539
29	1050	1866
30	1672	2740
31	676	1499
32	323	632
33	0	1357
34	348	1235
35	941	2244
36	103	817
37	207	1722
38	211	1904
39	1879	2082
40	299	880
41	1049	1826
42	1536	2602
43	1003	1485
44	856	2257
45	1189	2531
46	587	2425
47	69	1760
48	1218	2268
49	2423	2860
50	588	2070
51	712	1432
52	851	1499
53	1173	2404
54	481	1208
55	61	1114
56	628	2417
57	1386	1717
58	0	1656
59	1108	1792
60	1647	1998
61	192	1325
62	1287	2836
63	1839	2378
64	1508	3000
65	881	2023
66	0	1345
67	0	1377
68	291	2282
69	1385	2920
70	1158	2954
71	0	1433
72	0	1612
73	0	1623
74	386	2242
75	263	2186
76	369	2342
77	1982	2360
78	1357	1933
79	506	1864
80	0	547
81	674	1870
82	882	2106
83	1990	3000
84	1332	2681
85	396	2145
86	1576	2712
87	394	1378
88	323	1949
89	1359	2524
90	1578	2754
91	971	2150
92	836	2374
93	0	1439
94	444	1668
95	881	2668
96	104	1043
97	58	1905
98	603	1330
99	813	2101
100	559	2028
101	573	1803
102	1429	2436
103	0	1431
104	1318	1687
105	323	1997
106	178	2022
107	1898	2143
108	1423	2830
109	170	1346
110	1302	1727
111	170	1801
112	181	856
113	449	2187
114	1391	3000
115	667	977
116	489	1421
117	0	1356
118	427	705
119	1435	3000
120	1679	3000
121	765	2293
122	1334	2315
123	0	1093
124	219	950
125	1977	3000
126	1473	2127
127	1265	2629
128	869	1930
129	95	2028
130	812	1534
131	932	2554
132	942	2715
133	931	2592
134	368	1047
135	853	1692
136	1863	2442
137	1204	2234
138	2104	2735
139	1117	1526
140	705	1369
141	0	1664
142	363	2296
143	704	1239
144	491	750
145	448	770
146	899	2630
147	661	1030
148	0	1012
149	1279	1724
150	387	1784
151	1233	1839
152	1776	2006
153	1100	2054
154	1332	1696
155	1330	3000
156	749	1948
157	1574	2276
158	310	1898
159	1267	2076
160	0	1578
161	1492	2793
162	576	897
163	906	1898
164	869	2722
165	261	871
166	273	488
167	687	1174
168	1343	3000
169	505	1754
170	352	844
171	819	1316
172	1834	2862
173	1247	2337
174	0	1236
175	857	2384
176	1639	2723
177	1089	2139
178	779	2397
179	1361	1882
180	1404	2089
181	1768	2493
182	172	1384
183	236	999
184	1245	3000
185	212	539
186	592	1130
187	1524	1977
188	610	1886
189	1916	2581
190	2144	2710
191	0	1794
192	175	1515
193	846	1283
194	0	1414
195	1226	2347
196	1080	2556
197	569	2126
198	798	2489
199	0	1652
200	217	575
201	616	1540
202	1449	1759
203	0	1662
204	1642	2005
205	795	1532
206	1005	2370
207	828	1465
208	1057	1937
209	1375	2900
210	69	891
211	1503	2368
212	945	2635
213	984	2068
214	80	1628
215	737	2011
216	1269	2200
217	823	1455
218	196	1684
219	2300	2579
220	1745	2233
221	1222	2366
222	1393	2454
223	1075	2400
224	1090	2247
225	866	2538
226	1195	1476
227	1337	1748
228	0	1202
229	383	2014
230	0	1778
231	0	1052
232	579	2460
233	1091	2783
234	52	1224
235	1818	2712
236	464	1588
237	1092	2416
238	0	1432
239	1509	1877
240	1668	2358
241	692	1313
242	610	1572
243	0	1216
244	573	2489
245	135	1509
246	590	1483
247	874	2441
248	415	1686
249	0	1481
250	208	1819
251	918	1772
252	296	2273
253	1601	1920
254	864	1285
255	1659	2828
256	897	1280
257	882	2558
258	1415	2141
259	1140	2433
260	0	1786
261	1136	1947
262	1361	2571
263	205	993
264	1731	1940
265	501	935
266	2067	2430
267	2027	2480
268	1799	2599
269	1235	2960
270	1004	2862
271	817	1056
272	384	676
273	505	1905
274	1398	2003
275	281	1457
276	545	1011
277	906	1151
278	762	2266
279	0	1439
280	0	1392
281	1414	3000
282	1786	2155
283	596	2312
284	993	2967
285	613	2013
286	1124	1468
287	85	1930
288	899	2714
289	1306	3000
290	0	1737
291	1984	2679
292	1494	2365
293	650	1193
294	114	1687
295	565	1531
296	0	957
297	752	2690
298	1388	2637
299	1263	1659
300	1303	2742
301	136	736
302	1108	1754
303	1767	2730
304	143	1690
305	1175	2634
306	1176	2179
307	598	932
308	271	1304
309	766	1612
310	235	1351
311	1469	2909
312	0	1872
313	504	1173
314	135	1867
315	0	1516
316	1738	2617
317	282	2258
318	599	1533
319	1827	2792
320	0	1421
321	412	1393
322	2001	2856
323	1004	2310
324	0	1894
325	590	791
326	1095	2629
327	808	1579
328	1275	2217
329	678	1712
330	1159	1390
331	0	1747
332	925	2032
333	1914	2531
334	0	1371
335	897	1720
336	1660	2551
337	1918	2482
338	965	1715
339	0	1379
340	826	1062
341	1736	2169
342	1252	1935
343	1314	2579
344	1102	2385
345	1350	2234
346	821	2466
347	738	2166
348	484	1420
349	826	1187
350	690	2049
351	108	767
352	527	1194
353	850	1246
354	0	1279
355	246	1743
356	1275	2168
357	1159	2076
358	90	1315
359	2231	2468
360	1544	3000
361	868	1886
362	379	1829
363	1672	2093
364	529	1854
365	1260	2613
366	1069	2708
367	75	1504
368	809	1398
369	123	1629
370	1234	2759
371	2011	2354
372	121	1510
373	0	462
374	527	2409
375	672	1110
376	590	1029
377	375	751
378	1940	2877
379	675	1542
380	771	1234
381	1099	2525
382	1269	2035
383	1153	2842
384	0	1594
385	0	1071
386	1470	2098
387	652	2331
388	147	960
389	1883	2617
390	1216	1553
391	1083	2017
392	397	1393
393	352	1997
394	0	1682
395	1109	2956
396	140	957
397	1123	1452
398	275	797
399	0	833
400	1356	2149
401	51	1693
402	295	1660
403	1543	2849
404	1115	1755
405	1351	2663
406	335	2103
407	1239	3000
408	1394	1757
409	935	1215
410	1878	3000
411	834	1708
412	301	1286
413	689	939
414	1755	2338
415	1554	2922
416	1471	3000
417	1278	2109
418	361	1327
419	741	2721
420	1406	3000
421	806	1272
422	744	2139
423	1202	2884
424	1104	2821
425	1972	2573
426	1369	3000
427	113	1751
428	1068	2529
429	2157	2466
430	432	1919
431	278	1024
432	1296	2278
433	0	1584
434	906	1928
435	1101	2918
436	1303	1638
437	280	1619
438	123	1296
439	1240	2769
440	0	1385
441	2015	2737
442	1236	1611
443	1420	3000
444	1655	3000
445	0	1808
446	856	1464
447	1268	2208
448	822	1609
449	648	1487
450	896	1152
451	1115	2944
452	2234	2844
453	194	616
454	2117	3000
455	1058	2407
456	825	2658
457	1954	2508
458	600	2045
459	778	1118
460	192	1764
461	369	1864
462	0	1210
463	1646	2216
464	1525	2619
465	348	2264
466	1279	1855
467	239	2026
468	602	2240
469	1094	1808
470	739	1493
471	677	1298
472	1750	2966
473	0	1440
474	921	1457
475	1247	1518
476	912	2658
477	72	1424
478	914	1256
479	878	2114
480	976	1454
481	66	1930
482	803	2672
483	35	1890
484	12	1447
485	264	1383
486	115	1474
487	1197	2673
488	1363	3000
489	973	2844
490	1117	1589
491	472	1055
492	191	1907
493	1039	1254
494	0	1027
495	498	1589
496	1337	1928
497	1366	3000
498	928	2698
499	976	2039
500	207	1392
501	495	1553
502	1191	1617
503	0	889
504	813	2337
505	1625	2429
506	586	1653
507	186	1135
508	102	413
509	1278	2061
510	746	1376
511	1962	2380
512	730	1335
513	719	1035
514	0	1166
515	1684	2911
516	280	708
517	242	1609
518	702	1330
519	1859	2736
520	1777	2754
521	865	1144
522	1154	1526
523	1376	1977
524	1460	2058
525	1219	2787
526	774	1573
527	624	1902
528	375	620
529	968	1489
530	979	2473
531	615	2121
532	1548	1873
533	298	701
534	174	1861
535	0	1705
536	0	1348
537	1371	2455
538	1796	2035
539	583	1491
540	1129	1731
541	183	1920
542	0	1424
543	354	1200
544	139	525
545	1658	2956
546	1587	2527
547	1252	2931
548	953	2888
549	1868	3000
550	2156	2375
551	70	1195
552	1503	2437
553	1037	2141
554	1884	2603
555	1312	2461
556	365	1397
557	1124	2431
558	265	674
559	177	715
560	1176	2949
561	37	1298
562	872	1878
563	1700	2351
564	331	2178
565	1500	2377
566	598	1667
567	678	1363
568	1824	2701
569	759	1327
570	0	1070
571	649	2193
572	443	1711
573	333	2076
574	1492	2174
575	956	1329
576	1684	3000
577	545	1762
578	899	2050
579	901	2278
580	428	1464
581	0	1397
582	652	1499
583	0	1712
584	48	888
585	106	1336
586	1237	2587
587	1837	2911
588	285	1306
589	1098	2910
590	1507	3000
591	1202	1881
592	0	1180
593	279	953
594	47	1820
595	1654	2690
596	942	2018
597	643	1936
598	227	1518
599	1001	2031
600	0	1552
601	0	1738
602	129	1055
603	1484	2783
604	1282	2910
605	602	1349
606	164	1744
607	691	1812
608	1513	2928
609	18	1586
610	764	2397
611	797	1796
612	671	1805
613	865	2482
614	1036	3000
615	834	1308
616	1808	2769
617	260	2047
618	1660	2680
619	1280	2167
620	0	1365
621	1278	3000
622	536	997
623	39	1832
624	867	2452
625	1182	2288
626	0	1067
627	1681	3000
628	1348	2484
629	572	1075
630	694	2011
631	1520	2756
632	1820	2517
633	213	1027
634	1199	1437
635	887	2597
636	1695	2111
637	1680	2212
638	1532	1756
639	1600	2017
640	520	2215
641	391	2220
642	1570	2519
643	1791	2335
644	685	2398
645	1059	1622
646	1560	1992
647	2005	2744
648	2165	2572
649	1443	1846
650	1397	1637
651	269	2151
652	581	2356
653	0	1609
654	384	1466
655	521	1563
656	46	404
657	347	2342
658	748	1227
659	0	1431
660	2159	2689
661	1554	2123
662	1153	2117
663	612	2574
664	2339	2600
665	804	1847
666	2112	2460
667	528	1989
668	773	1076
669	1257	1576
670	1594	3000
671	744	2649
672	889	2687
673	1627	2100
674	2253	2639
675	1363	1924
676	1975	2454
677	1304	2962
678	2112	2714
679	746	1667
680	315	1727
681	807	1442
682	1219	1850
683	278	1524
684	172	789
685	1282	2714
686	1052	2922
687	644	1719
688	1309	3000
689	938	1362
690	0	1094
691	0	951
692	2029	2826
693	668	2494
694	1790	2470
695	355	1004
696	209	1368
697	529	1344
698	374	1590
699	870	1554
700	1730	2521
701	0	1499
702	1404	3000
703	1061	2295
704	1267	1545
705	0	1334
706	1187	2412
707	1394	2917
708	1322	2888
709	1657	3000
710	762	1546
711	1717	2001
712	431	1763
713	171	622
714	905	2298
715	1171	2836
716	1995	2221
717	1422	1675
718	1368	2267
719	774	1699
720	753	2216
721	783	2191
722	1651	2785
723	1372	2697
724	1142	2697
725	353	1356
726	1075	1368
727	1900	2665
728	238	989
729	660	1344
730	106	1529
731	1364	1872
732	600	2110
733	1055	2281
734	1318	1866
735	520	1859
736	309	1852
737	1238	2938
738	854	1584
739	1419	3000
740	1321	1622
741	1477	3000
742	525	1315
743	516	2346
744	1605	2426
745	763	1170
746	675	1390
747	227	1022
748	2312	2944
749	0	1751
750	1233	2677
751	1415	2022
752	637	2296
753	866	2310
754	1390	1796
755	402	2024
756	70	962
757	890	2856
758	209	1182
759	0	1502
760	0	1377
761	1351	3000
762	1185	3000
763	256	2033
764	865	2127
765	99	1620
766	778	2212
767	831	2755
768	632	962
769	1111	2399
770	1358	3000
771	1564	2353
772	1309	1547
773	972	2530
774	1059	2265
775	788	1658
776	1635	2589
777	1887	2334
778	1933	2579
779	1427	2926
780	0	1582
781	69	1558
782	299	1729
783	52	1961
784	1430	2150
785	856	1239
786	1461	1944
787	1767	2097
788	1445	2954
789	1068	2603
790	960	1551
791	1390	2393
792	785	2479
793	173	2159
794	1138	1855
795	449	1595
796	1021	1270
797	1187	2224
798	1632	2694
799	2015	2467
800	1605	2127
801	1095	2474
802	1352	2539
803	1384	2373
804	1134	1785
805	923	1647
806	1123	1888
807	519	1678
808	1714	1984
809	2287	2998
810	1102	1851
811	2078	2298
812	1366	1869
813	229	524
814	1362	1927
815	742	1726
816	1254	2133
817	1443	3000
818	1117	2558
819	1425	3000
820	1830	2197
821	616	1327
822	638	1384
823	735	1025
824	370	979
825	563	1385
826	0	820
827	175	773
828	0	537
829	0	1459
830	0	699
831	1001	2704
832	2067	2389
833	1504	2145
834	405	1195
835	2132	2475
836	646	2644
837	0	1634
838	0	1343
839	1536	2191
840	20	1547
841	911	2436
842	702	2279
843	1214	3000
844	1196	1505
845	278	1695
846	776	2573
847	172	587
848	377	2053
849	1608	2021
850	840	1177
851	33	1770
852	9	1327
853	485	1380
854	632	989
855	359	2351
856	1039	1260
857	822	2447
858	535	822
859	999	2267
860	1551	2763
861	545	1476
862	413	2319
863	419	1228
864	220	1482
865	903	1227
866	0	1331
867	1147	2816
868	1578	3000
869	1241	2221
870	848	1373
871	1415	2662
872	0	1395
873	128	1261
874	533	1252
875	1619	2563
876	55	1231
877	1993	2361
878	1386	3000
879	976	1767
880	1055	2415
881	132	1366
882	1351	2565
883	0	746
884	393	2146
885	1474	2428
886	987	2127
887	1907	2290
888	1089	1988
889	765	1382
890	1294	1573
891	1641	1917
892	326	1413
893	770	2016
894	657	1870
895	657	1379
896	136	677
897	1908	2950
898	1328	2997
899	1837	2514
900	513	1484
901	1504	2033
902	595	1188
903	1920	2549
904	1047	1326
905	1597	2448
906	1760	2402
907	308	1805
908	1543	2500
909	0	1321
910	702	2048
911	77	888
912	1057	2632
913	1447	2061
914	1577	2362
915	895	1806
916	846	2764
917	1083	2963
918	0	1100
919	790	2163
920	1644	2911
921	1438	2786
922	684	2005
923	840	1851
924	300	1794
925	221	1105
926	498	1877
927	572	2484
928	2338	2674
929	1887	2403
930	514	1343
931	498	2196
932	1162	2817
933	645	2184
934	0	1675
935	1566	2405
936	1527	2994
937	1500	2078
938	0	1056
939	465	1338
940	439	1244
941	1284	1945
942	1419	2016
943	1620	1829
944	499	1898
945	1308	1550
946	557	1806
947	470	1337
948	0	1391
949	1637	2009
950	1147	2969
951	1424	2248
952	0	1160
953	398	609
954	1007	2130
955	1700	2239
956	756	2483
957	70	765
958	757	2192
959	511	953
960	758	1599
961	843	1600
962	259	1608
963	1402	2796
964	830	2428
965	0	1714
966	1864	2712
967	904	1331
968	56	1451
969	0	1510
970	722	1981
971	559	1985
972	977	2789
973	1489	3000
974	0	1637
975	85	498
976	1788	3000
977	1342	2972
978	373	1191
979	513	2487
980	1342	1625
981	1549	2463
982	509	1871
983	1674	3000
984	922	2414
985	804	1728
986	468	966
987	127	1428
988	915	1784
989	1370	2586
990	0	747
991	169	664
992	1051	1728
993	1077	2895
994	0	1217
995	1206	1411
996	3	994
997	0	1192
998	833	2102
999	570	926
1000	402	1315
1001	306	775
BACKHAUL_SECTION
2	10	26	35	38	47	52	60	66	71	81	86	92	95	104	107	121	126	132	145	155	160	164	172	190	196	212	213	216	221	222	226	228	231	234	236	237	239	241	249	250	258	261	269	270	271	272	273	277	289	292	294	295	301	305	314	321	323	325	326	328	339	340	349	356	364	366	368	370	372	373	381	383	385	389	391	392	393	396	397	400	406	412	415	419	421	423	424	435	441	443	446	447	450	463	472	480	484	492	494	497	515	528	529	539	547	548	552	556	564	565	571	581	585	586	591	594	603	604	606	609	610	612	614	615	617	618	620	622	635	638	645	665	669	670	675	682	685	688	689	696	712	720	724	739	741	750	755	764	774	788	789	792	796	801	804	806	807	808	821	834	842	847	854	855	860	873	875	876	877	882	883	888	894	895	896	898	899	901	906	907	913	924	927	937	944	948	949	953	958	959	961	966	967	980	984	988	992	996	998	-1
DEPOT_SECTION
1
-1
EOF
