NAME : n1001-0040
COMMENT : "Generated by pyvrp_manuel (VRPBLTW)"
TYPE : VRPBLTW
DIMENSION : 1001
EDGE_WEIGHT_TYPE : EUC_2D
CAPACITY : 150
VEHICLES : 1000
DISTANCE : 3000
SERVICE_TIME : 200
NODE_COORD_SECTION
1	149	431
2	465	997
3	554	307
4	597	108
5	732	920
6	893	433
7	501	389
8	183	997
9	114	683
10	926	430
11	120	807
12	844	185
13	760	266
14	805	270
15	989	610
16	13	294
17	292	14
18	78	374
19	337	288
20	673	816
21	584	206
22	993	602
23	845	356
24	325	169
25	551	693
26	788	647
27	177	739
28	660	683
29	980	486
30	950	838
31	283	425
32	999	282
33	993	821
34	22	404
35	236	338
36	420	884
37	91	568
38	178	182
39	702	157
40	739	281
41	314	30
42	299	984
43	696	759
44	104	594
45	276	472
46	42	319
47	605	683
48	598	732
49	531	450
50	906	292
51	301	720
52	613	308
53	688	630
54	805	334
55	39	486
56	59	168
57	716	257
58	749	604
59	728	634
60	311	981
61	247	943
62	636	354
63	470	100
64	532	161
65	533	85
66	624	299
67	442	327
68	589	818
69	377	619
70	399	985
71	421	168
72	952	728
73	399	949
74	6	290
75	304	65
76	699	3
77	473	981
78	718	914
79	752	400
80	633	488
81	644	543
82	349	162
83	220	386
84	380	513
85	964	780
86	43	252
87	178	726
88	215	995
89	337	14
90	963	405
91	993	37
92	763	281
93	818	804
94	281	663
95	376	159
96	739	996
97	662	480
98	185	196
99	289	304
100	340	454
101	267	490
102	117	495
103	149	342
104	615	484
105	582	19
106	676	809
107	81	674
108	263	880
109	443	689
110	113	71
111	721	114
112	968	89
113	680	171
114	406	779
115	167	865
116	358	350
117	984	739
118	125	799
119	401	894
120	345	509
121	432	125
122	199	821
123	360	641
124	870	61
125	911	655
126	985	562
127	94	994
128	259	150
129	908	75
130	172	384
131	172	391
132	873	232
133	201	916
134	137	669
135	952	333
136	686	578
137	590	14
138	652	745
139	56	35
140	28	565
141	968	156
142	735	62
143	385	220
144	107	210
145	492	869
146	297	607
147	321	325
148	189	306
149	181	465
150	195	575
151	770	325
152	605	859
153	483	990
154	576	413
155	707	457
156	936	869
157	983	238
158	401	345
159	427	415
160	591	288
161	31	758
162	623	399
163	575	613
164	680	771
165	646	257
166	585	552
167	181	942
168	63	505
169	88	260
170	184	494
171	675	585
172	779	292
173	746	484
174	446	433
175	348	141
176	5	900
177	782	751
178	201	733
179	659	47
180	835	583
181	943	301
182	176	739
183	739	454
184	627	824
185	827	46
186	694	475
187	370	82
188	407	820
189	103	532
190	844	984
191	724	422
192	780	671
193	531	234
194	917	461
195	107	763
196	337	814
197	614	316
198	151	683
199	418	936
200	532	142
201	315	832
202	646	990
203	621	869
204	742	60
205	228	526
206	122	654
207	199	633
208	336	545
209	756	109
210	217	519
211	415	655
212	898	808
213	151	397
214	17	442
215	253	498
216	449	899
217	876	52
218	826	205
219	816	925
220	102	742
221	543	708
222	778	751
223	415	989
224	47	423
225	360	861
226	178	901
227	236	233
228	972	787
229	786	971
230	679	634
231	326	948
232	346	999
233	609	448
234	216	695
235	645	208
236	975	352
237	218	772
238	268	477
239	272	330
240	304	266
241	274	245
242	95	239
243	630	899
244	394	950
245	67	20
246	842	811
247	470	538
248	989	671
249	455	50
250	401	698
251	668	1
252	985	807
253	331	91
254	388	345
255	196	41
256	961	657
257	21	913
258	90	876
259	801	451
260	261	393
261	230	680
262	650	9
263	954	997
264	555	496
265	137	793
266	149	113
267	461	227
268	277	70
269	963	169
270	445	610
271	66	898
272	639	893
273	695	89
274	59	792
275	76	612
276	11	36
277	858	922
278	49	365
279	667	536
280	392	792
281	333	806
282	687	529
283	746	100
284	690	884
285	76	756
286	406	526
287	395	710
288	945	13
289	764	631
290	380	491
291	373	70
292	624	586
293	264	538
294	822	388
295	798	813
296	334	815
297	52	374
298	378	959
299	806	21
300	378	732
301	894	170
302	127	467
303	677	468
304	174	776
305	305	500
306	175	403
307	418	878
308	988	66
309	600	724
310	333	663
311	795	713
312	129	417
313	449	992
314	353	514
315	782	199
316	694	586
317	167	711
318	669	130
319	67	736
320	455	865
321	785	950
322	343	39
323	495	612
324	685	724
325	135	230
326	290	91
327	613	577
328	124	33
329	238	846
330	777	286
331	324	213
332	347	914
333	424	125
334	375	843
335	539	130
336	838	701
337	993	45
338	519	230
339	5	398
340	708	493
341	395	483
342	298	962
343	658	671
344	446	575
345	372	380
346	530	629
347	679	44
348	324	746
349	153	79
350	543	348
351	792	754
352	749	185
353	118	10
354	116	901
355	228	223
356	728	136
357	475	776
358	195	832
359	533	916
360	935	407
361	231	771
362	936	256
363	788	865
364	687	639
365	389	951
366	110	20
367	881	869
368	784	982
369	346	505
370	955	487
371	583	467
372	22	952
373	401	721
374	323	736
375	407	550
376	355	372
377	397	838
378	897	747
379	691	522
380	524	63
381	366	622
382	647	946
383	929	841
384	45	343
385	777	369
386	750	562
387	431	217
388	398	729
389	158	75
390	808	734
391	127	72
392	159	256
393	404	536
394	257	883
395	453	828
396	578	716
397	879	735
398	701	580
399	540	305
400	142	319
401	876	734
402	252	339
403	782	539
404	390	536
405	835	436
406	428	759
407	520	260
408	678	462
409	261	58
410	109	701
411	869	321
412	652	408
413	809	422
414	759	547
415	225	556
416	471	408
417	415	532
418	519	589
419	137	44
420	131	913
421	351	825
422	126	944
423	150	478
424	734	947
425	57	684
426	944	339
427	597	69
428	481	129
429	961	545
430	986	489
431	266	410
432	73	117
433	71	570
434	230	492
435	976	198
436	327	160
437	163	801
438	781	781
439	988	127
440	986	509
441	505	542
442	650	637
443	817	401
444	40	197
445	9	477
446	676	512
447	626	38
448	462	306
449	712	890
450	506	168
451	787	397
452	529	213
453	353	685
454	556	641
455	360	351
456	822	127
457	136	701
458	795	236
459	756	924
460	486	555
461	549	330
462	414	606
463	615	805
464	695	133
465	261	560
466	641	679
467	697	831
468	578	120
469	97	258
470	821	120
471	105	724
472	726	321
473	151	532
474	115	345
475	812	493
476	7	544
477	35	60
478	518	2
479	811	528
480	743	939
481	953	326
482	658	723
483	546	195
484	160	62
485	551	938
486	952	170
487	737	859
488	47	91
489	393	891
490	740	211
491	963	439
492	808	208
493	353	851
494	952	337
495	136	502
496	477	403
497	913	189
498	362	657
499	940	975
500	625	636
501	916	428
502	550	481
503	491	924
504	810	990
505	473	744
506	781	7
507	854	417
508	306	73
509	359	688
510	451	642
511	768	1
512	789	58
513	58	106
514	163	588
515	397	143
516	236	737
517	936	695
518	736	962
519	948	50
520	126	750
521	147	405
522	61	271
523	860	493
524	755	470
525	116	362
526	431	8
527	616	266
528	724	390
529	973	277
530	422	859
531	432	897
532	468	575
533	72	716
534	959	652
535	132	64
536	365	132
537	627	825
538	393	611
539	303	414
540	847	765
541	238	338
542	110	63
543	895	264
544	984	78
545	383	410
546	93	845
547	770	683
548	832	302
549	834	632
550	552	585
551	772	857
552	610	612
553	564	503
554	635	25
555	833	149
556	257	215
557	645	843
558	556	656
559	624	929
560	582	608
561	119	748
562	485	671
563	136	236
564	558	522
565	148	284
566	401	119
567	256	391
568	219	660
569	11	94
570	501	279
571	828	189
572	540	180
573	735	640
574	314	958
575	810	625
576	891	254
577	169	380
578	634	999
579	240	78
580	704	640
581	100	760
582	252	955
583	566	672
584	42	625
585	455	315
586	680	590
587	612	302
588	764	42
589	890	588
590	809	98
591	447	109
592	62	387
593	808	846
594	597	776
595	429	569
596	661	446
597	174	364
598	38	594
599	48	397
600	891	659
601	235	751
602	889	470
603	82	43
604	931	290
605	672	513
606	742	675
607	934	911
608	567	91
609	838	448
610	520	357
611	129	275
612	743	376
613	738	914
614	31	340
615	312	361
616	201	338
617	985	903
618	480	690
619	159	981
620	112	204
621	19	862
622	913	14
623	577	566
624	678	793
625	128	549
626	463	256
627	975	175
628	123	840
629	274	255
630	545	829
631	184	15
632	487	899
633	4	407
634	382	784
635	611	872
636	576	617
637	933	255
638	191	821
639	831	231
640	497	12
641	663	911
642	411	416
643	138	884
644	916	864
645	867	115
646	790	761
647	400	659
648	52	778
649	866	101
650	220	20
651	598	34
652	923	772
653	837	172
654	310	307
655	871	919
656	937	40
657	506	340
658	513	735
659	620	485
660	717	495
661	107	155
662	237	471
663	845	371
664	948	949
665	639	309
666	533	240
667	838	702
668	250	493
669	684	963
670	879	967
671	838	783
672	689	859
673	577	972
674	512	222
675	876	862
676	857	193
677	404	469
678	33	55
679	258	57
680	702	98
681	343	651
682	534	868
683	371	308
684	979	562
685	352	748
686	689	919
687	516	108
688	623	143
689	806	606
690	19	898
691	135	865
692	306	918
693	2	472
694	617	258
695	234	777
696	19	859
697	818	535
698	262	773
699	165	781
700	740	881
701	49	817
702	481	908
703	583	735
704	169	748
705	265	396
706	495	525
707	262	247
708	41	831
709	766	359
710	93	846
711	878	497
712	13	984
713	559	34
714	688	511
715	122	190
716	971	429
717	817	556
718	687	2
719	664	994
720	413	114
721	701	702
722	401	274
723	694	409
724	638	739
725	317	390
726	318	583
727	551	896
728	810	362
729	305	811
730	949	84
731	760	438
732	583	642
733	819	169
734	222	501
735	99	868
736	16	886
737	212	558
738	72	717
739	447	312
740	650	986
741	839	43
742	220	458
743	979	835
744	356	313
745	171	373
746	873	357
747	610	228
748	759	306
749	544	15
750	967	440
751	439	183
752	403	142
753	448	23
754	467	305
755	279	0
756	59	973
757	538	191
758	141	353
759	368	268
760	789	517
761	344	606
762	485	476
763	801	411
764	900	269
765	385	420
766	674	940
767	273	872
768	253	149
769	157	261
770	320	251
771	76	457
772	122	737
773	486	755
774	812	574
775	971	843
776	783	219
777	863	290
778	691	795
779	675	73
780	807	97
781	142	711
782	897	501
783	773	211
784	163	568
785	343	677
786	999	713
787	188	467
788	166	810
789	143	163
790	148	464
791	77	814
792	122	974
793	40	65
794	983	780
795	59	774
796	384	872
797	1	127
798	405	711
799	789	373
800	445	964
801	863	349
802	262	371
803	984	132
804	23	462
805	929	945
806	337	913
807	92	160
808	37	642
809	477	253
810	116	203
811	545	312
812	562	542
813	327	80
814	367	29
815	144	755
816	801	956
817	557	660
818	646	595
819	159	86
820	322	247
821	256	217
822	922	944
823	615	548
824	186	214
825	178	973
826	758	393
827	524	380
828	593	677
829	199	218
830	252	473
831	416	17
832	65	700
833	388	13
834	223	283
835	994	193
836	69	525
837	459	688
838	124	120
839	23	441
840	143	981
841	95	287
842	748	795
843	103	250
844	73	390
845	775	441
846	969	509
847	186	995
848	89	831
849	857	990
850	125	23
851	386	313
852	101	998
853	542	496
854	550	365
855	287	888
856	829	403
857	577	139
858	573	522
859	313	598
860	68	541
861	667	339
862	535	571
863	730	698
864	177	597
865	469	703
866	90	426
867	165	553
868	551	841
869	46	223
870	257	773
871	323	380
872	788	938
873	834	216
874	292	734
875	714	279
876	436	111
877	496	391
878	365	422
879	495	716
880	197	616
881	636	362
882	25	717
883	912	936
884	728	395
885	139	527
886	146	124
887	509	800
888	900	567
889	347	641
890	193	126
891	851	74
892	375	496
893	364	477
894	422	383
895	565	782
896	400	580
897	938	474
898	135	732
899	866	360
900	191	549
901	449	750
902	1	267
903	419	87
904	568	139
905	436	349
906	246	515
907	372	280
908	593	277
909	147	592
910	775	958
911	910	967
912	299	181
913	747	559
914	835	475
915	248	188
916	422	247
917	958	399
918	737	83
919	950	293
920	317	611
921	405	314
922	958	787
923	214	455
924	959	928
925	857	435
926	793	105
927	585	56
928	988	990
929	998	26
930	479	12
931	498	323
932	25	235
933	690	789
934	187	274
935	426	181
936	21	405
937	147	291
938	669	530
939	197	877
940	923	665
941	781	525
942	462	42
943	18	91
944	262	68
945	729	617
946	295	553
947	436	389
948	368	318
949	365	205
950	319	589
951	789	276
952	926	610
953	702	590
954	287	43
955	35	152
956	707	405
957	10	308
958	171	608
959	985	938
960	58	779
961	171	935
962	635	513
963	829	574
964	603	852
965	59	270
966	400	88
967	887	542
968	815	873
969	48	144
970	469	530
971	717	583
972	796	599
973	147	72
974	165	777
975	247	230
976	567	535
977	243	591
978	228	938
979	143	761
980	207	292
981	303	164
982	986	925
983	672	795
984	575	372
985	19	766
986	670	550
987	957	291
988	350	22
989	481	102
990	164	981
991	484	726
992	143	522
993	691	397
994	231	638
995	109	974
996	837	974
997	338	186
998	471	839
999	830	132
1000	807	511
1001	441	10
DEMAND_SECTION
1	0
2	7
3	7
4	6
5	3
6	4
7	2
8	6
9	8
10	6
11	3
12	4
13	8
14	2
15	3
16	4
17	5
18	2
19	4
20	6
21	8
22	4
23	4
24	7
25	8
26	7
27	6
28	3
29	3
30	3
31	1
32	8
33	9
34	9
35	2
36	7
37	4
38	8
39	5
40	1
41	7
42	7
43	9
44	3
45	4
46	9
47	6
48	8
49	2
50	6
51	4
52	1
53	7
54	2
55	1
56	5
57	3
58	2
59	2
60	7
61	3
62	1
63	7
64	9
65	9
66	6
67	8
68	9
69	5
70	3
71	4
72	1
73	2
74	7
75	2
76	6
77	3
78	5
79	3
80	6
81	4
82	2
83	5
84	2
85	8
86	9
87	2
88	8
89	4
90	4
91	8
92	6
93	6
94	9
95	6
96	6
97	5
98	4
99	1
100	1
101	2
102	2
103	6
104	4
105	4
106	7
107	6
108	6
109	9
110	1
111	8
112	2
113	2
114	1
115	9
116	2
117	2
118	5
119	1
120	4
121	2
122	5
123	9
124	8
125	4
126	9
127	2
128	9
129	5
130	3
131	4
132	6
133	1
134	4
135	1
136	7
137	4
138	6
139	1
140	4
141	7
142	1
143	4
144	3
145	3
146	2
147	9
148	6
149	7
150	2
151	2
152	2
153	1
154	5
155	6
156	6
157	2
158	4
159	8
160	9
161	9
162	5
163	5
164	5
165	1
166	5
167	2
168	6
169	7
170	2
171	3
172	3
173	9
174	2
175	7
176	2
177	6
178	4
179	5
180	9
181	9
182	8
183	6
184	2
185	8
186	8
187	6
188	8
189	8
190	5
191	4
192	9
193	8
194	1
195	3
196	4
197	3
198	3
199	8
200	3
201	9
202	5
203	1
204	6
205	3
206	8
207	1
208	3
209	3
210	8
211	6
212	4
213	8
214	4
215	7
216	5
217	3
218	9
219	8
220	7
221	6
222	6
223	6
224	5
225	1
226	4
227	1
228	3
229	9
230	7
231	1
232	9
233	4
234	9
235	3
236	4
237	2
238	9
239	6
240	9
241	7
242	2
243	9
244	7
245	8
246	4
247	7
248	1
249	9
250	5
251	6
252	4
253	9
254	8
255	5
256	3
257	5
258	9
259	5
260	6
261	7
262	5
263	5
264	6
265	9
266	3
267	3
268	9
269	9
270	4
271	9
272	4
273	8
274	9
275	3
276	1
277	9
278	9
279	7
280	8
281	8
282	4
283	8
284	5
285	1
286	6
287	6
288	1
289	1
290	7
291	4
292	1
293	5
294	1
295	7
296	3
297	5
298	6
299	1
300	4
301	8
302	9
303	4
304	9
305	6
306	1
307	2
308	9
309	4
310	9
311	1
312	8
313	2
314	2
315	9
316	4
317	1
318	6
319	9
320	9
321	9
322	6
323	3
324	1
325	5
326	7
327	4
328	8
329	2
330	7
331	8
332	1
333	7
334	9
335	5
336	7
337	6
338	4
339	7
340	9
341	6
342	3
343	2
344	2
345	8
346	6
347	8
348	4
349	1
350	7
351	6
352	3
353	2
354	8
355	9
356	2
357	5
358	2
359	5
360	2
361	5
362	1
363	2
364	4
365	5
366	1
367	7
368	2
369	4
370	3
371	6
372	3
373	8
374	1
375	3
376	2
377	3
378	5
379	1
380	8
381	8
382	4
383	6
384	3
385	4
386	4
387	5
388	5
389	4
390	5
391	7
392	9
393	9
394	8
395	7
396	2
397	7
398	5
399	9
400	8
401	3
402	6
403	7
404	1
405	2
406	1
407	9
408	3
409	4
410	7
411	6
412	8
413	9
414	2
415	1
416	7
417	6
418	4
419	7
420	1
421	1
422	9
423	7
424	1
425	8
426	1
427	9
428	1
429	1
430	9
431	3
432	3
433	3
434	2
435	4
436	7
437	7
438	9
439	4
440	9
441	1
442	9
443	3
444	4
445	5
446	6
447	7
448	2
449	4
450	9
451	1
452	9
453	3
454	4
455	8
456	5
457	7
458	3
459	5
460	1
461	2
462	5
463	3
464	5
465	7
466	7
467	2
468	1
469	5
470	7
471	3
472	7
473	2
474	4
475	7
476	3
477	4
478	8
479	9
480	9
481	4
482	5
483	5
484	6
485	3
486	4
487	7
488	3
489	1
490	5
491	7
492	1
493	3
494	6
495	8
496	9
497	1
498	2
499	1
500	3
501	3
502	9
503	5
504	1
505	6
506	8
507	1
508	5
509	1
510	2
511	9
512	7
513	4
514	7
515	7
516	2
517	3
518	2
519	1
520	8
521	5
522	1
523	6
524	8
525	6
526	7
527	9
528	3
529	3
530	9
531	5
532	3
533	4
534	5
535	6
536	8
537	9
538	4
539	5
540	9
541	1
542	3
543	7
544	7
545	9
546	9
547	1
548	5
549	6
550	3
551	4
552	9
553	4
554	3
555	1
556	8
557	6
558	9
559	4
560	1
561	3
562	4
563	8
564	2
565	9
566	1
567	7
568	2
569	6
570	5
571	4
572	9
573	6
574	1
575	1
576	6
577	2
578	1
579	5
580	4
581	4
582	6
583	8
584	5
585	6
586	5
587	7
588	8
589	6
590	6
591	7
592	9
593	9
594	1
595	8
596	6
597	8
598	9
599	5
600	7
601	1
602	7
603	5
604	6
605	3
606	6
607	4
608	1
609	7
610	9
611	7
612	8
613	2
614	4
615	2
616	5
617	2
618	7
619	2
620	4
621	9
622	6
623	5
624	3
625	4
626	9
627	8
628	8
629	8
630	5
631	6
632	4
633	9
634	4
635	9
636	2
637	9
638	6
639	5
640	7
641	7
642	1
643	8
644	8
645	4
646	7
647	5
648	2
649	4
650	3
651	2
652	4
653	9
654	7
655	6
656	8
657	4
658	1
659	7
660	7
661	6
662	4
663	2
664	5
665	6
666	3
667	1
668	9
669	2
670	4
671	1
672	8
673	1
674	5
675	3
676	9
677	5
678	9
679	9
680	5
681	2
682	1
683	3
684	6
685	9
686	3
687	4
688	3
689	9
690	4
691	7
692	3
693	2
694	4
695	3
696	3
697	6
698	3
699	8
700	6
701	9
702	8
703	6
704	9
705	9
706	6
707	3
708	9
709	1
710	2
711	9
712	9
713	9
714	3
715	5
716	5
717	5
718	8
719	4
720	4
721	7
722	4
723	2
724	2
725	4
726	4
727	8
728	1
729	7
730	5
731	9
732	6
733	3
734	8
735	8
736	6
737	8
738	5
739	3
740	4
741	1
742	9
743	2
744	5
745	7
746	7
747	1
748	5
749	1
750	7
751	6
752	6
753	6
754	6
755	7
756	7
757	1
758	4
759	8
760	8
761	5
762	5
763	6
764	6
765	5
766	3
767	1
768	7
769	1
770	9
771	4
772	3
773	5
774	1
775	4
776	8
777	7
778	2
779	7
780	8
781	7
782	8
783	5
784	4
785	4
786	4
787	1
788	8
789	2
790	8
791	3
792	8
793	7
794	2
795	2
796	1
797	7
798	9
799	4
800	9
801	4
802	8
803	8
804	6
805	8
806	4
807	5
808	6
809	6
810	4
811	2
812	8
813	2
814	5
815	3
816	3
817	9
818	8
819	6
820	6
821	7
822	4
823	7
824	1
825	2
826	5
827	6
828	3
829	3
830	4
831	7
832	6
833	3
834	1
835	5
836	1
837	6
838	5
839	4
840	6
841	2
842	2
843	9
844	2
845	7
846	7
847	2
848	9
849	9
850	9
851	7
852	8
853	4
854	2
855	7
856	5
857	1
858	7
859	4
860	8
861	9
862	3
863	3
864	7
865	8
866	1
867	2
868	4
869	3
870	7
871	2
872	6
873	1
874	5
875	8
876	8
877	9
878	1
879	6
880	1
881	4
882	8
883	8
884	4
885	4
886	9
887	5
888	9
889	3
890	9
891	9
892	6
893	6
894	3
895	4
896	4
897	3
898	9
899	5
900	3
901	8
902	7
903	9
904	4
905	5
906	8
907	8
908	7
909	4
910	3
911	3
912	7
913	3
914	5
915	8
916	5
917	1
918	3
919	2
920	3
921	5
922	4
923	1
924	4
925	8
926	6
927	9
928	2
929	6
930	7
931	8
932	2
933	5
934	5
935	6
936	6
937	6
938	8
939	1
940	4
941	2
942	3
943	7
944	4
945	8
946	6
947	3
948	1
949	4
950	6
951	4
952	6
953	7
954	9
955	1
956	4
957	4
958	5
959	7
960	4
961	9
962	3
963	2
964	2
965	8
966	2
967	9
968	2
969	4
970	6
971	2
972	1
973	2
974	1
975	9
976	8
977	2
978	9
979	9
980	4
981	9
982	2
983	8
984	6
985	4
986	3
987	2
988	1
989	2
990	9
991	3
992	4
993	5
994	9
995	3
996	6
997	3
998	1
999	5
1000	3
1001	4
TIME_WINDOW_SECTION
1	0	3000
2	1717	2575
3	0	1456
4	0	1659
5	1451	2556
6	532	1259
7	2136	2491
8	553	1450
9	130	997
10	439	1360
11	1739	2913
12	1285	1632
13	73	1292
14	900	1581
15	1509	1936
16	434	957
17	206	1242
18	2018	2409
19	22	1523
20	1367	1941
21	64	1357
22	1339	2151
23	1034	1526
24	276	1047
25	1309	1574
26	1836	2247
27	1439	3000
28	909	2426
29	791	2686
30	821	2227
31	1496	3000
32	206	1894
33	764	1757
34	402	1328
35	302	1511
36	827	1212
37	0	1257
38	1521	2103
39	274	1080
40	877	2337
41	218	1827
42	1537	2596
43	969	1744
44	1324	2387
45	2143	2473
46	1128	1422
47	82	1022
48	657	2578
49	562	1083
50	730	2056
51	1508	1974
52	0	1654
53	1957	2189
54	172	1454
55	2315	2795
56	1064	2338
57	785	1799
58	1158	1583
59	214	1453
60	0	1703
61	619	2228
62	366	1934
63	1261	2154
64	298	1320
65	1471	2153
66	1414	2943
67	449	1700
68	1407	1794
69	264	1060
70	0	1286
71	0	1240
72	647	2178
73	880	2476
74	0	929
75	0	1270
76	603	1864
77	6	1557
78	468	1207
79	237	1772
80	2125	2343
81	457	2414
82	978	1268
83	1218	2304
84	1289	3000
85	1534	2162
86	714	1248
87	2355	2625
88	1717	2720
89	1183	2919
90	890	2030
91	239	1626
92	370	1071
93	81	1937
94	1823	2131
95	1035	2064
96	431	1222
97	0	1656
98	1974	2818
99	1881	3000
100	944	1542
101	1385	2208
102	1543	2761
103	0	1284
104	248	878
105	567	2208
106	732	2158
107	315	1760
108	621	1019
109	337	1170
110	1328	2573
111	942	1633
112	563	1610
113	1586	1998
114	13	1257
115	235	1763
116	1857	3000
117	353	1682
118	1499	3000
119	58	1019
120	209	1275
121	797	1618
122	1626	2458
123	0	787
124	1316	1800
125	1495	1741
126	1016	1753
127	814	2044
128	410	821
129	976	2907
130	1343	2559
131	249	1549
132	1274	2613
133	714	1460
134	1946	2740
135	720	1620
136	1298	1778
137	317	1431
138	1313	1771
139	820	2022
140	0	1158
141	1107	2479
142	773	1506
143	118	1002
144	0	1033
145	1416	2673
146	1341	3000
147	2	597
148	1351	1871
149	1995	2742
150	98	1035
151	0	1548
152	483	980
153	1148	2523
154	978	1392
155	469	795
156	1535	2243
157	295	1458
158	429	947
159	1761	2143
160	713	2168
161	782	2554
162	1078	2788
163	2057	2483
164	1361	2692
165	1817	2582
166	971	2194
167	417	1113
168	617	1049
169	847	2295
170	2079	2581
171	920	2489
172	1165	1825
173	1589	2671
174	1188	3000
175	972	2211
176	1637	2607
177	1256	2629
178	806	1250
179	1366	2499
180	1060	2926
181	1483	2112
182	1108	1327
183	1490	2729
184	1369	1628
185	1646	2270
186	1966	2413
187	1306	2433
188	0	1701
189	1855	2925
190	823	1457
191	303	1555
192	314	1350
193	1225	1755
194	305	1804
195	2100	2368
196	1161	2282
197	0	1459
198	423	766
199	9	1191
200	484	1846
201	702	948
202	969	1421
203	1369	2182
204	1095	2127
205	660	2075
206	262	772
207	762	2246
208	0	1213
209	694	2630
210	1107	2294
211	1066	2741
212	822	1088
213	1468	3000
214	338	1756
215	375	1378
216	1179	2665
217	586	1511
218	646	856
219	836	2260
220	206	2085
221	1024	1806
222	317	1658
223	1329	2340
224	1322	3000
225	895	2131
226	682	1364
227	376	897
228	1452	2226
229	1599	2193
230	1848	2077
231	1525	2690
232	543	2463
233	1431	2803
234	404	1313
235	452	2315
236	478	2268
237	878	1554
238	24	1445
239	768	2606
240	1176	2504
241	1472	2856
242	206	947
243	0	1552
244	1019	2328
245	442	1894
246	1280	2677
247	596	2363
248	496	1977
249	275	774
250	482	1919
251	1155	1679
252	1336	2098
253	45	1080
254	0	1193
255	1101	2968
256	846	1750
257	132	1323
258	1389	1608
259	1062	2578
260	1251	1898
261	0	1418
262	1219	1795
263	984	1284
264	1648	2618
265	669	2374
266	1444	2808
267	832	2472
268	399	1430
269	1624	1969
270	0	1299
271	459	1807
272	1649	2540
273	1078	2458
274	1165	1641
275	1743	3000
276	433	2333
277	1037	1274
278	1497	2447
279	0	1673
280	753	1395
281	914	1736
282	1382	2574
283	401	1962
284	818	1658
285	2225	2564
286	0	1677
287	1363	2885
288	939	1923
289	434	1917
290	730	2587
291	1905	2570
292	649	1564
293	1813	3000
294	843	1257
295	625	1749
296	920	2270
297	1440	1938
298	1668	2651
299	722	1425
300	265	1398
301	1421	2486
302	0	530
303	998	1829
304	446	2229
305	478	2307
306	475	1713
307	1660	1945
308	931	2117
309	701	1372
310	614	980
311	856	2157
312	0	668
313	398	2241
314	1369	2440
315	1690	2102
316	0	1687
317	538	1537
318	898	1812
319	1086	2748
320	738	1121
321	1137	2068
322	555	851
323	0	1687
324	1134	2773
325	1089	1938
326	943	1620
327	1435	2187
328	347	726
329	1073	2194
330	0	1778
331	544	2384
332	902	2080
333	752	1320
334	198	1923
335	339	761
336	810	2346
337	512	1897
338	0	1314
339	1232	1521
340	0	1330
341	1462	2883
342	1109	2792
343	1767	2264
344	913	1248
345	297	684
346	162	1958
347	109	1975
348	0	1201
349	0	1198
350	1557	2684
351	73	1734
352	676	2126
353	1092	2370
354	295	1396
355	1625	2601
356	883	1274
357	1881	2652
358	371	1497
359	1337	2308
360	185	1458
361	2009	2659
362	1689	2223
363	681	2150
364	0	1380
365	103	1662
366	749	2296
367	625	1265
368	1183	2550
369	1041	2673
370	1118	2140
371	586	1399
372	1736	2296
373	1060	2622
374	793	2197
375	493	1552
376	117	993
377	1676	2614
378	1595	2200
379	361	2014
380	998	2116
381	2281	2605
382	254	1447
383	1326	1941
384	1946	2992
385	1661	1875
386	264	1723
387	1634	2063
388	0	1296
389	499	1699
390	762	2196
391	0	1460
392	301	881
393	317	800
394	471	1564
395	457	2088
396	918	2810
397	790	2143
398	599	1295
399	780	2607
400	406	1936
401	815	1700
402	941	1858
403	874	2124
404	1597	2129
405	29	1460
406	1578	2156
407	772	1241
408	2065	2435
409	790	1921
410	1137	2630
411	1007	1326
412	1591	2458
413	537	1723
414	0	1758
415	2247	2974
416	0	1593
417	19	1175
418	1256	1947
419	1279	1873
420	1481	2507
421	164	1365
422	1728	2576
423	46	971
424	1644	2266
425	1887	2584
426	1711	2275
427	1931	2409
428	601	2505
429	1073	2236
430	1310	2521
431	1059	2531
432	690	2432
433	610	2307
434	948	2590
435	1241	1950
436	519	2264
437	1693	2704
438	553	1622
439	1068	1564
440	1151	1524
441	0	1544
442	0	1242
443	0	1948
444	688	2137
445	385	1842
446	336	1689
447	950	2321
448	392	1003
449	496	1609
450	589	860
451	454	1353
452	1790	2065
453	1560	2434
454	1619	2850
455	946	2623
456	1261	1928
457	389	2232
458	1401	2319
459	485	1202
460	1069	2972
461	1168	2884
462	1359	1699
463	219	2157
464	1712	2355
465	0	989
466	1048	2291
467	1927	2148
468	958	1344
469	1209	2468
470	257	2238
471	2110	2418
472	435	1683
473	743	1808
474	911	2900
475	357	1282
476	870	1417
477	1222	2157
478	275	1693
479	0	1542
480	366	1670
481	483	2110
482	29	1683
483	379	2216
484	283	1480
485	707	1798
486	1349	2352
487	1649	2280
488	1896	2199
489	878	1514
490	360	2360
491	965	1920
492	691	2167
493	0	1575
494	567	2050
495	0	762
496	1282	2741
497	715	2199
498	162	977
499	1339	2029
500	1330	1625
501	282	1900
502	986	2680
503	1353	2414
504	517	1473
505	0	991
506	1267	1886
507	1604	2329
508	1336	3000
509	387	1872
510	978	1853
511	695	1747
512	931	2914
513	461	1061
514	870	1114
515	257	2248
516	1972	2472
517	496	1941
518	841	1576
519	359	1935
520	744	2016
521	68	1816
522	1114	2799
523	383	1605
524	1732	2619
525	379	781
526	1093	2184
527	159	1298
528	982	1488
529	906	1426
530	394	1247
531	1153	3000
532	1090	3000
533	1307	1727
534	804	2747
535	1625	2864
536	167	714
537	1274	2546
538	1986	2971
539	1341	2522
540	1445	1932
541	1588	2500
542	0	1724
543	507	1631
544	1218	1445
545	1344	3000
546	15	1994
547	1101	2700
548	205	2113
549	836	2049
550	1570	1893
551	898	2754
552	358	1770
553	1199	2069
554	537	818
555	873	1114
556	624	2238
557	540	812
558	400	1108
559	0	1720
560	1620	2414
561	1365	2731
562	468	1068
563	979	1231
564	757	2660
565	468	1668
566	2133	2416
567	477	2069
568	1222	3000
569	1196	2657
570	753	968
571	190	1976
572	1044	1556
573	1335	2577
574	850	2834
575	404	1487
576	846	1361
577	1026	2780
578	1356	2484
579	1546	3000
580	400	877
581	663	1298
582	1919	2204
583	346	1465
584	168	2041
585	223	786
586	307	1268
587	318	1002
588	936	1143
589	446	2413
590	658	2168
591	0	1534
592	79	1627
593	162	1758
594	343	2249
595	224	1803
596	862	2096
597	229	2005
598	1629	3000
599	826	1270
600	728	2467
601	1846	2292
602	626	2219
603	0	1255
604	753	2338
605	1554	2025
606	1568	2483
607	1266	1868
608	578	1690
609	31	1680
610	1262	1782
611	538	1873
612	429	1102
613	910	1579
614	1710	3000
615	174	1016
616	0	1407
617	651	2330
618	0	1225
619	162	1763
620	347	559
621	0	1382
622	88	1786
623	943	1251
624	848	1532
625	813	1522
626	998	1204
627	141	1722
628	314	2107
629	805	1014
630	1725	2496
631	369	604
632	654	1349
633	984	2071
634	1439	2978
635	742	1501
636	86	1446
637	198	1446
638	2110	2371
639	970	2678
640	1067	1299
641	243	2140
642	682	2557
643	189	1920
644	1281	1857
645	156	2081
646	555	1007
647	1064	2561
648	876	1336
649	792	1867
650	882	1559
651	1139	3000
652	430	1393
653	1399	2439
654	726	1603
655	463	1724
656	897	2723
657	1395	3000
658	1003	2685
659	803	2701
660	1159	1390
661	885	1975
662	1028	2345
663	461	1160
664	129	1778
665	1515	1807
666	1044	1764
667	1489	1960
668	0	1658
669	1291	1539
670	1422	1730
671	1871	2148
672	1235	2791
673	476	1663
674	19	1581
675	557	2112
676	1789	2258
677	597	2206
678	850	2428
679	1235	2174
680	537	1270
681	1831	2853
682	1162	2267
683	1593	3000
684	1129	2472
685	436	898
686	211	1277
687	275	1183
688	764	2575
689	452	1497
690	160	1641
691	667	2162
692	1316	3000
693	1726	3000
694	1380	2200
695	281	997
696	957	2690
697	1383	1983
698	0	1225
699	1203	2945
700	739	2372
701	722	2049
702	1688	1889
703	1362	1725
704	1754	2025
705	1787	2551
706	1089	2054
707	165	837
708	281	1851
709	886	1717
710	1287	2964
711	593	1019
712	1345	2666
713	1732	2619
714	0	1246
715	287	776
716	692	1810
717	1483	1736
718	1768	2295
719	1383	2624
720	0	1725
721	790	1456
722	0	1078
723	0	1393
724	667	1235
725	551	1023
726	436	826
727	1064	1832
728	365	2316
729	1185	1972
730	1138	2508
731	1312	1934
732	1188	2043
733	1382	2732
734	0	1200
735	0	1149
736	496	1635
737	965	1961
738	1375	3000
739	315	1517
740	1379	2613
741	497	1663
742	36	2027
743	732	2006
744	1730	3000
745	2027	2286
746	1226	1662
747	309	1040
748	906	1131
749	916	1475
750	556	2255
751	1171	1468
752	1417	2576
753	1323	2996
754	1191	3000
755	696	1694
756	1304	2616
757	1441	2385
758	0	392
759	0	993
760	1242	2898
761	1174	1424
762	1521	3000
763	184	1955
764	875	1613
765	1055	1741
766	299	1170
767	585	2412
768	1314	2262
769	0	1474
770	721	1538
771	0	542
772	0	1246
773	273	1450
774	1686	1934
775	1354	2032
776	492	2264
777	1186	2038
778	854	1096
779	1136	3000
780	25	1462
781	5	882
782	954	1713
783	0	1758
784	1073	2461
785	212	636
786	366	1660
787	1994	2205
788	0	1174
789	1886	2757
790	0	1158
791	156	1533
792	1300	2851
793	1178	3000
794	403	1450
795	588	2217
796	312	1496
797	185	1277
798	1395	2264
799	1516	1738
800	0	1743
801	1057	1651
802	912	2094
803	223	1867
804	0	884
805	515	2108
806	370	1125
807	386	1526
808	0	1189
809	325	1700
810	593	922
811	0	1221
812	0	1380
813	147	1699
814	740	1349
815	0	1503
816	961	1997
817	1431	2749
818	341	2126
819	463	2252
820	886	2104
821	0	1846
822	487	1958
823	1189	1452
824	1176	2675
825	689	1462
826	1221	2045
827	1832	2686
828	129	1770
829	867	2745
830	1205	1853
831	1266	2557
832	1676	2838
833	294	2128
834	1605	2728
835	438	2223
836	576	1067
837	1331	1996
838	1346	1810
839	951	1914
840	179	2160
841	2149	2458
842	710	2294
843	1871	3000
844	1429	2492
845	619	1834
846	89	1605
847	773	1000
848	1987	2301
849	1159	1775
850	123	1717
851	477	1122
852	592	1457
853	452	889
854	440	2239
855	361	2040
856	1247	2563
857	297	1148
858	1291	2722
859	433	2334
860	587	1307
861	275	1786
862	1102	2185
863	715	2300
864	1265	3000
865	353	1100
866	0	1100
867	1235	1619
868	1160	2853
869	0	1622
870	1731	3000
871	1980	2418
872	534	1249
873	626	889
874	1021	1609
875	0	1627
876	298	1723
877	0	1571
878	236	870
879	950	1780
880	124	1851
881	63	1423
882	1340	2459
883	545	1510
884	1797	2038
885	0	1117
886	290	1567
887	938	1690
888	628	2581
889	452	1525
890	1924	2928
891	1334	2403
892	0	1321
893	510	2275
894	0	1762
895	260	1172
896	1707	2682
897	276	1505
898	1155	2142
899	1051	1678
900	0	799
901	0	979
902	0	1147
903	979	2589
904	37	1353
905	0	1474
906	1216	1622
907	1188	3000
908	570	872
909	981	2952
910	991	1545
911	1093	1748
912	226	879
913	1295	2001
914	1341	2052
915	1278	1625
916	75	1694
917	1204	1609
918	637	1692
919	1330	2383
920	0	1063
921	1385	1931
922	939	2709
923	762	2406
924	1436	2016
925	664	2455
926	150	1970
927	1950	2479
928	842	1832
929	359	2320
930	1138	2538
931	669	2211
932	490	692
933	1706	2114
934	316	2055
935	691	2026
936	70	397
937	1552	2467
938	517	1701
939	0	1396
940	369	1324
941	1124	2121
942	856	2222
943	1239	3000
944	1531	3000
945	1371	3000
946	0	571
947	334	953
948	1708	2680
949	2117	2704
950	96	2049
951	43	1618
952	777	2354
953	1773	2520
954	0	1611
955	2289	2628
956	225	1321
957	768	1506
958	1382	2218
959	545	1663
960	617	823
961	530	1604
962	1845	2198
963	876	2658
964	1453	2262
965	273	1878
966	0	1132
967	988	1378
968	1410	2365
969	1662	2309
970	1338	2408
971	1521	1877
972	1128	1499
973	1789	2073
974	1870	2152
975	720	1979
976	1129	1370
977	0	1363
978	0	1220
979	592	2043
980	271	505
981	483	971
982	739	1762
983	1685	2348
984	678	2379
985	396	1907
986	0	1358
987	570	1512
988	648	1356
989	753	1704
990	663	1070
991	225	1189
992	0	1639
993	269	1934
994	898	1335
995	415	2202
996	387	2268
997	482	1509
998	575	2148
999	1125	2407
1000	548	1581
1001	0	1594
BACKHAUL_SECTION
2	10	26	35	38	47	52	60	66	71	81	86	92	95	104	107	121	126	132	145	155	160	164	172	190	196	212	213	216	221	222	226	228	231	234	236	237	239	241	249	250	258	261	269	270	271	272	273	277	289	292	294	295	301	305	314	321	323	325	326	328	339	340	349	356	364	366	368	370	372	373	381	383	385	389	391	392	393	396	397	400	406	412	415	419	421	423	424	435	441	443	446	447	450	463	472	480	484	492	494	497	515	528	529	539	547	548	552	556	564	565	571	581	585	586	591	594	603	604	606	609	610	612	614	615	617	618	620	622	635	638	645	665	669	670	675	682	685	688	689	696	712	720	724	739	741	750	755	764	774	788	789	792	796	801	804	806	807	808	821	834	842	847	854	855	860	873	875	876	877	882	883	888	894	895	896	898	899	901	906	907	913	924	927	937	944	948	949	953	958	959	961	966	967	980	984	988	992	996	998	-1
DEPOT_SECTION
1
-1
EOF
