NAME : n1001-0017
COMMENT : "Generated by pyvrp_manuel (OVRPB)"
TYPE : OVRPB
DIMENSION : 1001
EDGE_WEIGHT_TYPE : EUC_2D
CAPACITY : 150
VEHICLES : 1000
OPEN_ROUTE : YES
NODE_COORD_SECTION
1	842	871
2	45	828
3	792	182
4	924	934
5	324	740
6	460	548
7	161	324
8	937	495
9	495	27
10	532	629
11	620	369
12	724	70
13	606	300
14	765	308
15	251	589
16	46	508
17	502	440
18	485	909
19	918	652
20	418	835
21	484	827
22	862	447
23	603	837
24	30	456
25	130	965
26	415	716
27	122	932
28	377	777
29	211	548
30	554	167
31	193	445
32	805	10
33	803	245
34	8	841
35	408	560
36	164	829
37	851	565
38	358	38
39	280	916
40	8	824
41	727	750
42	697	350
43	730	447
44	47	749
45	607	899
46	340	501
47	753	138
48	982	909
49	243	138
50	100	370
51	784	106
52	791	36
53	261	967
54	872	184
55	962	909
56	946	790
57	869	243
58	409	195
59	174	50
60	78	274
61	888	101
62	193	134
63	304	448
64	459	818
65	365	175
66	886	435
67	403	492
68	143	650
69	29	825
70	157	548
71	434	244
72	64	695
73	206	172
74	805	56
75	656	142
76	817	654
77	466	939
78	258	265
79	864	699
80	729	2
81	420	928
82	734	850
83	882	753
84	765	925
85	662	181
86	697	310
87	120	77
88	12	702
89	292	774
90	547	479
91	765	514
92	696	229
93	489	922
94	742	426
95	680	422
96	937	820
97	262	890
98	190	244
99	131	829
100	374	599
101	943	370
102	650	947
103	320	691
104	703	141
105	360	698
106	5	835
107	719	357
108	512	929
109	928	792
110	433	889
111	919	616
112	887	224
113	816	497
114	552	453
115	580	25
116	766	75
117	944	455
118	542	50
119	198	141
120	42	228
121	721	438
122	903	697
123	866	22
124	158	253
125	2	271
126	775	843
127	852	19
128	463	309
129	554	719
130	499	285
131	760	421
132	539	649
133	925	921
134	999	383
135	967	480
136	151	266
137	209	320
138	881	701
139	489	178
140	130	565
141	651	332
142	924	317
143	655	833
144	336	543
145	785	900
146	519	741
147	884	918
148	351	882
149	414	999
150	210	467
151	70	543
152	333	863
153	456	791
154	388	299
155	482	965
156	331	497
157	312	594
158	25	451
159	910	449
160	693	208
161	829	976
162	55	509
163	598	953
164	920	462
165	176	7
166	487	24
167	245	617
168	582	376
169	175	238
170	59	458
171	152	629
172	755	553
173	193	507
174	243	67
175	191	495
176	814	315
177	920	128
178	344	207
179	346	390
180	253	372
181	698	792
182	434	119
183	278	845
184	624	101
185	861	229
186	564	474
187	662	461
188	1000	161
189	163	301
190	506	326
191	85	705
192	235	606
193	828	303
194	938	746
195	571	487
196	400	612
197	175	643
198	134	13
199	908	941
200	746	45
201	626	308
202	676	908
203	438	155
204	390	927
205	371	668
206	544	257
207	237	782
208	506	721
209	146	704
210	104	977
211	850	334
212	386	945
213	245	339
214	646	247
215	971	978
216	7	954
217	718	454
218	144	334
219	569	919
220	713	80
221	270	628
222	310	887
223	663	828
224	955	813
225	474	355
226	467	918
227	552	997
228	939	878
229	302	5
230	54	23
231	835	454
232	31	260
233	572	64
234	331	441
235	46	842
236	897	302
237	402	728
238	375	907
239	860	981
240	636	254
241	393	284
242	915	880
243	324	463
244	172	165
245	871	377
246	254	678
247	366	250
248	432	767
249	519	438
250	633	32
251	427	529
252	136	113
253	400	195
254	384	546
255	702	728
256	393	570
257	321	800
258	878	315
259	576	987
260	31	52
261	826	813
262	617	284
263	791	464
264	543	356
265	96	356
266	250	645
267	801	665
268	788	449
269	905	525
270	898	845
271	788	675
272	434	141
273	96	916
274	926	988
275	884	155
276	742	721
277	687	172
278	532	684
279	483	441
280	360	110
281	570	25
282	949	212
283	412	359
284	536	650
285	270	986
286	891	501
287	364	729
288	782	549
289	35	665
290	407	380
291	465	253
292	412	662
293	124	319
294	576	573
295	697	733
296	859	705
297	824	471
298	33	483
299	569	691
300	376	85
301	745	197
302	992	779
303	898	336
304	167	798
305	611	409
306	440	793
307	372	866
308	121	841
309	531	433
310	785	837
311	867	546
312	571	108
313	190	66
314	379	163
315	517	159
316	427	29
317	961	322
318	424	904
319	781	890
320	509	463
321	744	425
322	709	305
323	139	412
324	869	979
325	647	188
326	457	678
327	696	171
328	69	427
329	134	227
330	458	71
331	187	498
332	55	446
333	859	404
334	541	969
335	471	941
336	873	21
337	443	218
338	654	808
339	881	155
340	146	17
341	31	107
342	588	724
343	572	204
344	903	814
345	478	997
346	652	197
347	579	495
348	977	259
349	257	197
350	692	762
351	525	115
352	991	302
353	915	457
354	102	54
355	335	991
356	163	123
357	121	689
358	279	523
359	947	347
360	470	865
361	538	733
362	515	846
363	91	723
364	415	125
365	109	415
366	36	84
367	885	982
368	996	325
369	692	245
370	474	244
371	560	604
372	839	327
373	875	984
374	213	789
375	300	724
376	0	748
377	29	232
378	901	84
379	6	217
380	34	874
381	50	391
382	280	667
383	453	445
384	347	90
385	846	146
386	401	717
387	613	501
388	576	282
389	746	763
390	154	479
391	237	652
392	334	654
393	101	713
394	970	131
395	227	591
396	944	228
397	231	197
398	196	327
399	531	869
400	935	187
401	8	134
402	95	426
403	141	685
404	567	788
405	851	565
406	531	55
407	724	216
408	330	854
409	35	406
410	725	305
411	57	437
412	785	227
413	903	818
414	56	194
415	370	180
416	990	986
417	354	934
418	289	624
419	575	284
420	420	765
421	551	73
422	78	225
423	216	766
424	397	501
425	717	63
426	851	243
427	881	264
428	724	374
429	565	948
430	123	913
431	572	9
432	92	334
433	380	861
434	654	861
435	299	402
436	633	691
437	957	218
438	734	31
439	164	540
440	395	843
441	920	878
442	478	998
443	132	454
444	629	471
445	295	394
446	975	79
447	52	882
448	116	129
449	370	80
450	10	771
451	856	264
452	397	623
453	363	836
454	947	398
455	450	1
456	281	696
457	554	623
458	402	145
459	577	110
460	184	707
461	294	527
462	454	794
463	237	296
464	640	275
465	855	767
466	585	7
467	391	241
468	524	244
469	553	235
470	565	768
471	791	249
472	194	660
473	965	629
474	743	335
475	81	203
476	622	256
477	993	645
478	430	961
479	492	411
480	983	232
481	818	126
482	86	106
483	832	908
484	773	992
485	893	303
486	764	446
487	308	799
488	101	701
489	557	800
490	801	122
491	908	544
492	831	971
493	567	801
494	256	492
495	727	366
496	172	126
497	453	859
498	465	599
499	688	717
500	855	908
501	55	840
502	295	375
503	930	974
504	174	391
505	786	646
506	209	172
507	314	317
508	152	568
509	391	607
510	52	610
511	989	272
512	878	952
513	887	588
514	24	273
515	748	979
516	350	34
517	179	865
518	102	395
519	864	563
520	803	66
521	353	362
522	675	28
523	219	714
524	99	669
525	834	573
526	926	980
527	694	236
528	59	283
529	484	704
530	633	676
531	980	733
532	445	40
533	817	986
534	455	52
535	153	979
536	833	944
537	267	373
538	416	468
539	992	403
540	743	297
541	31	603
542	170	352
543	433	170
544	390	646
545	953	624
546	782	441
547	950	942
548	27	938
549	243	355
550	18	594
551	139	981
552	646	921
553	114	566
554	925	671
555	188	835
556	485	536
557	704	907
558	135	802
559	452	701
560	557	944
561	150	778
562	105	868
563	366	427
564	639	135
565	545	945
566	327	327
567	731	662
568	912	216
569	573	152
570	830	469
571	670	611
572	309	386
573	411	405
574	20	413
575	359	743
576	144	947
577	228	951
578	396	683
579	956	514
580	241	573
581	423	695
582	142	702
583	485	225
584	123	84
585	700	186
586	601	902
587	788	705
588	980	262
589	95	259
590	265	854
591	409	875
592	794	171
593	652	494
594	146	221
595	129	677
596	97	49
597	770	933
598	355	568
599	853	318
600	224	304
601	254	936
602	301	767
603	160	116
604	431	50
605	1000	757
606	952	662
607	131	574
608	674	863
609	476	869
610	721	538
611	303	214
612	539	655
613	716	325
614	715	677
615	115	806
616	906	15
617	899	701
618	216	816
619	176	137
620	452	171
621	253	796
622	936	501
623	946	771
624	57	362
625	916	366
626	92	668
627	181	742
628	562	739
629	827	233
630	700	339
631	881	439
632	235	816
633	152	272
634	120	710
635	207	167
636	785	217
637	977	184
638	62	547
639	464	536
640	612	629
641	146	70
642	837	916
643	357	921
644	675	48
645	674	919
646	424	349
647	730	345
648	388	733
649	80	790
650	287	371
651	649	159
652	935	198
653	204	743
654	461	518
655	463	65
656	972	675
657	985	56
658	141	596
659	782	972
660	697	245
661	641	338
662	137	616
663	695	359
664	68	261
665	140	592
666	676	567
667	389	391
668	47	822
669	880	659
670	942	482
671	736	82
672	225	13
673	138	417
674	207	711
675	203	871
676	843	677
677	756	862
678	988	673
679	995	149
680	149	455
681	291	533
682	284	142
683	311	675
684	703	606
685	810	392
686	110	956
687	98	217
688	601	683
689	640	160
690	324	374
691	749	971
692	504	959
693	912	348
694	426	510
695	977	801
696	567	246
697	922	259
698	117	386
699	157	677
700	620	700
701	38	202
702	447	571
703	740	775
704	242	6
705	242	987
706	923	279
707	845	959
708	877	583
709	886	735
710	762	819
711	240	132
712	437	210
713	540	722
714	339	221
715	368	723
716	342	940
717	279	706
718	655	715
719	444	469
720	424	836
721	585	553
722	786	591
723	833	874
724	331	722
725	515	327
726	797	977
727	552	892
728	118	322
729	900	332
730	617	660
731	659	589
732	192	529
733	479	653
734	736	739
735	353	606
736	194	491
737	613	429
738	103	791
739	97	854
740	428	470
741	73	1000
742	765	173
743	367	975
744	248	300
745	558	453
746	193	812
747	234	993
748	312	932
749	122	974
750	100	650
751	992	584
752	566	977
753	990	834
754	984	697
755	108	226
756	589	614
757	405	146
758	730	522
759	568	450
760	670	826
761	22	124
762	595	608
763	124	772
764	620	908
765	464	338
766	493	571
767	69	695
768	667	200
769	901	747
770	892	446
771	591	734
772	904	155
773	891	856
774	722	190
775	838	335
776	264	421
777	14	564
778	450	68
779	4	605
780	100	768
781	581	687
782	902	550
783	318	518
784	411	317
785	821	483
786	387	149
787	443	30
788	405	421
789	625	43
790	953	600
791	763	520
792	230	369
793	758	885
794	805	166
795	605	739
796	724	756
797	521	846
798	797	941
799	158	88
800	147	427
801	249	374
802	989	196
803	60	362
804	495	701
805	638	515
806	625	935
807	621	872
808	928	450
809	611	785
810	612	828
811	168	456
812	296	567
813	400	883
814	737	856
815	638	709
816	788	229
817	260	186
818	70	710
819	193	344
820	233	267
821	111	396
822	192	81
823	841	78
824	452	627
825	448	589
826	491	757
827	622	939
828	166	194
829	384	500
830	135	87
831	206	253
832	893	91
833	68	401
834	447	844
835	182	831
836	744	224
837	344	106
838	268	522
839	840	255
840	396	972
841	26	258
842	553	933
843	453	353
844	643	897
845	596	24
846	26	505
847	887	559
848	30	374
849	209	928
850	739	185
851	528	106
852	186	93
853	670	442
854	825	388
855	561	146
856	837	809
857	914	846
858	266	233
859	410	730
860	873	965
861	126	490
862	258	71
863	357	842
864	592	559
865	8	119
866	41	274
867	427	326
868	834	893
869	881	970
870	805	38
871	851	222
872	570	186
873	164	770
874	379	975
875	731	131
876	542	245
877	989	354
878	312	584
879	940	609
880	280	161
881	698	84
882	216	597
883	912	928
884	804	964
885	200	495
886	473	724
887	794	843
888	128	471
889	478	84
890	486	799
891	104	109
892	109	343
893	286	561
894	954	932
895	406	348
896	827	454
897	701	542
898	983	251
899	201	574
900	533	918
901	97	553
902	897	711
903	741	961
904	734	400
905	867	419
906	20	985
907	818	504
908	526	862
909	708	512
910	422	61
911	187	338
912	417	261
913	980	433
914	364	268
915	887	704
916	910	65
917	579	831
918	762	939
919	720	408
920	42	341
921	680	930
922	877	667
923	726	642
924	691	325
925	51	753
926	775	151
927	32	807
928	805	328
929	311	903
930	563	459
931	478	708
932	580	577
933	446	817
934	457	152
935	991	205
936	96	517
937	109	258
938	27	871
939	382	275
940	916	559
941	999	444
942	733	418
943	571	362
944	677	154
945	717	912
946	711	193
947	822	487
948	876	447
949	306	805
950	489	613
951	542	886
952	643	781
953	767	414
954	778	999
955	769	240
956	403	287
957	997	783
958	487	231
959	82	437
960	185	605
961	886	701
962	896	619
963	131	472
964	131	9
965	389	512
966	342	72
967	704	903
968	5	889
969	154	368
970	116	709
971	185	290
972	83	872
973	671	286
974	716	503
975	853	564
976	209	267
977	314	75
978	363	342
979	334	634
980	601	585
981	263	442
982	285	724
983	348	884
984	458	659
985	802	57
986	812	384
987	138	853
988	170	451
989	144	140
990	711	675
991	39	801
992	481	287
993	186	414
994	678	592
995	667	988
996	12	872
997	842	284
998	752	50
999	272	413
1000	866	873
1001	339	349
DEMAND_SECTION
1	0
2	2
3	7
4	5
5	7
6	9
7	6
8	6
9	5
10	5
11	6
12	7
13	8
14	7
15	7
16	3
17	1
18	8
19	2
20	5
21	4
22	3
23	6
24	5
25	4
26	5
27	1
28	7
29	2
30	5
31	1
32	6
33	6
34	4
35	1
36	3
37	6
38	7
39	2
40	4
41	4
42	3
43	7
44	9
45	6
46	3
47	6
48	1
49	9
50	8
51	9
52	5
53	6
54	7
55	8
56	2
57	5
58	9
59	8
60	3
61	2
62	4
63	5
64	1
65	9
66	9
67	8
68	5
69	4
70	1
71	8
72	5
73	6
74	9
75	5
76	8
77	6
78	3
79	3
80	6
81	7
82	8
83	3
84	2
85	6
86	2
87	7
88	6
89	8
90	8
91	1
92	1
93	5
94	7
95	2
96	4
97	8
98	9
99	3
100	5
101	2
102	9
103	6
104	7
105	6
106	8
107	1
108	3
109	3
110	1
111	1
112	9
113	8
114	9
115	6
116	8
117	9
118	9
119	1
120	3
121	4
122	5
123	2
124	9
125	4
126	9
127	9
128	1
129	9
130	7
131	8
132	1
133	8
134	7
135	6
136	3
137	1
138	5
139	7
140	3
141	1
142	8
143	1
144	1
145	2
146	3
147	6
148	8
149	9
150	2
151	5
152	5
153	7
154	4
155	3
156	7
157	2
158	7
159	2
160	5
161	4
162	5
163	4
164	8
165	2
166	6
167	1
168	9
169	8
170	3
171	6
172	1
173	3
174	3
175	6
176	7
177	1
178	1
179	9
180	1
181	8
182	8
183	3
184	2
185	1
186	7
187	2
188	6
189	4
190	2
191	4
192	9
193	4
194	9
195	8
196	5
197	6
198	9
199	6
200	2
201	7
202	4
203	3
204	6
205	3
206	6
207	7
208	1
209	3
210	7
211	5
212	4
213	8
214	8
215	6
216	4
217	1
218	5
219	4
220	5
221	4
222	7
223	7
224	8
225	3
226	6
227	7
228	8
229	9
230	1
231	3
232	2
233	8
234	9
235	2
236	7
237	3
238	2
239	7
240	9
241	9
242	3
243	4
244	2
245	5
246	6
247	8
248	6
249	9
250	8
251	5
252	4
253	8
254	4
255	7
256	1
257	5
258	3
259	4
260	7
261	1
262	2
263	9
264	9
265	5
266	4
267	6
268	9
269	2
270	3
271	9
272	6
273	2
274	1
275	9
276	6
277	6
278	7
279	4
280	6
281	2
282	4
283	9
284	5
285	9
286	3
287	4
288	4
289	2
290	1
291	9
292	4
293	7
294	2
295	1
296	8
297	8
298	9
299	9
300	7
301	3
302	4
303	1
304	7
305	9
306	9
307	2
308	9
309	9
310	3
311	9
312	9
313	6
314	9
315	4
316	2
317	3
318	6
319	2
320	3
321	1
322	1
323	6
324	9
325	2
326	8
327	3
328	4
329	4
330	6
331	1
332	6
333	7
334	1
335	5
336	7
337	2
338	8
339	3
340	7
341	2
342	2
343	8
344	4
345	1
346	9
347	6
348	6
349	8
350	7
351	9
352	8
353	3
354	8
355	2
356	4
357	9
358	9
359	3
360	1
361	7
362	3
363	2
364	6
365	7
366	9
367	9
368	4
369	1
370	7
371	4
372	6
373	9
374	5
375	9
376	1
377	4
378	2
379	2
380	5
381	1
382	3
383	6
384	6
385	5
386	4
387	1
388	6
389	3
390	4
391	8
392	9
393	5
394	6
395	7
396	8
397	5
398	3
399	2
400	3
401	9
402	3
403	1
404	2
405	2
406	9
407	4
408	8
409	3
410	5
411	9
412	5
413	5
414	1
415	6
416	5
417	4
418	1
419	6
420	2
421	7
422	2
423	8
424	4
425	2
426	8
427	6
428	1
429	7
430	9
431	3
432	2
433	5
434	3
435	5
436	1
437	5
438	5
439	9
440	8
441	4
442	6
443	9
444	5
445	5
446	4
447	1
448	8
449	3
450	3
451	1
452	1
453	1
454	2
455	1
456	4
457	2
458	7
459	5
460	2
461	9
462	3
463	2
464	2
465	1
466	2
467	2
468	8
469	3
470	5
471	9
472	7
473	2
474	7
475	7
476	2
477	2
478	5
479	8
480	4
481	9
482	2
483	1
484	5
485	1
486	7
487	2
488	6
489	2
490	2
491	8
492	5
493	9
494	8
495	2
496	1
497	1
498	7
499	6
500	2
501	2
502	9
503	8
504	4
505	2
506	8
507	5
508	2
509	6
510	8
511	3
512	4
513	4
514	9
515	4
516	4
517	8
518	5
519	3
520	6
521	2
522	3
523	2
524	2
525	9
526	6
527	5
528	3
529	8
530	9
531	7
532	3
533	5
534	1
535	6
536	4
537	9
538	7
539	3
540	1
541	2
542	6
543	6
544	4
545	3
546	6
547	9
548	2
549	7
550	7
551	9
552	8
553	1
554	6
555	3
556	5
557	2
558	6
559	3
560	5
561	5
562	9
563	7
564	7
565	7
566	7
567	2
568	1
569	7
570	2
571	7
572	1
573	8
574	8
575	1
576	2
577	3
578	5
579	6
580	2
581	2
582	9
583	9
584	1
585	4
586	7
587	9
588	6
589	1
590	6
591	5
592	5
593	2
594	9
595	6
596	1
597	3
598	4
599	1
600	9
601	6
602	7
603	2
604	3
605	3
606	4
607	7
608	3
609	1
610	1
611	3
612	7
613	6
614	2
615	7
616	8
617	6
618	6
619	4
620	3
621	9
622	4
623	3
624	8
625	3
626	3
627	2
628	6
629	4
630	1
631	9
632	3
633	6
634	9
635	8
636	9
637	9
638	9
639	3
640	1
641	9
642	3
643	5
644	8
645	3
646	6
647	4
648	2
649	8
650	3
651	2
652	9
653	5
654	3
655	8
656	3
657	9
658	4
659	3
660	1
661	4
662	4
663	2
664	8
665	9
666	3
667	6
668	8
669	8
670	6
671	5
672	2
673	9
674	6
675	8
676	5
677	8
678	4
679	9
680	5
681	6
682	4
683	1
684	6
685	2
686	4
687	5
688	9
689	7
690	9
691	1
692	7
693	2
694	7
695	7
696	8
697	2
698	1
699	9
700	6
701	7
702	1
703	8
704	8
705	8
706	2
707	4
708	9
709	1
710	9
711	9
712	4
713	9
714	9
715	8
716	6
717	9
718	8
719	2
720	5
721	7
722	6
723	3
724	8
725	3
726	4
727	9
728	7
729	9
730	4
731	8
732	5
733	1
734	9
735	2
736	3
737	7
738	1
739	4
740	1
741	8
742	5
743	8
744	4
745	3
746	2
747	8
748	4
749	4
750	9
751	2
752	8
753	2
754	3
755	5
756	9
757	1
758	9
759	3
760	2
761	8
762	8
763	3
764	2
765	7
766	6
767	7
768	3
769	5
770	1
771	1
772	7
773	5
774	9
775	7
776	4
777	7
778	6
779	8
780	6
781	2
782	9
783	1
784	7
785	6
786	2
787	3
788	3
789	1
790	3
791	6
792	9
793	3
794	2
795	7
796	4
797	6
798	9
799	6
800	6
801	9
802	4
803	7
804	8
805	6
806	8
807	7
808	4
809	6
810	4
811	4
812	8
813	1
814	4
815	5
816	8
817	6
818	7
819	8
820	7
821	4
822	6
823	4
824	2
825	2
826	3
827	7
828	3
829	9
830	9
831	5
832	3
833	6
834	7
835	8
836	1
837	1
838	4
839	3
840	2
841	3
842	4
843	9
844	7
845	9
846	6
847	4
848	8
849	6
850	5
851	8
852	7
853	5
854	7
855	6
856	1
857	7
858	5
859	8
860	4
861	8
862	6
863	6
864	8
865	8
866	1
867	3
868	4
869	7
870	6
871	5
872	2
873	3
874	7
875	2
876	3
877	5
878	5
879	7
880	6
881	7
882	8
883	2
884	5
885	2
886	9
887	2
888	7
889	2
890	2
891	9
892	8
893	7
894	3
895	1
896	1
897	8
898	9
899	2
900	5
901	7
902	5
903	3
904	7
905	1
906	3
907	9
908	7
909	9
910	8
911	7
912	9
913	9
914	9
915	4
916	9
917	2
918	9
919	2
920	1
921	8
922	2
923	7
924	6
925	4
926	6
927	8
928	9
929	4
930	9
931	3
932	2
933	1
934	1
935	9
936	2
937	5
938	6
939	3
940	5
941	2
942	6
943	9
944	1
945	6
946	8
947	9
948	3
949	8
950	6
951	6
952	1
953	7
954	4
955	7
956	8
957	4
958	7
959	7
960	9
961	6
962	9
963	5
964	6
965	3
966	2
967	7
968	2
969	8
970	3
971	8
972	7
973	1
974	1
975	7
976	7
977	8
978	8
979	3
980	9
981	3
982	7
983	4
984	6
985	7
986	3
987	8
988	8
989	4
990	3
991	4
992	4
993	8
994	6
995	1
996	6
997	1
998	1
999	8
1000	3
1001	8
BACKHAUL_SECTION
10	13	28	29	38	52	55	57	60	66	72	75	81	95	98	109	112	114	116	126	127	153	164	168	169	184	186	191	198	201	205	206	211	215	217	218	231	242	245	246	247	249	253	255	257	262	266	284	287	289	293	298	299	300	303	306	322	332	340	347	349	355	363	365	366	376	377	378	390	392	396	397	398	400	406	409	414	418	423	431	438	443	451	456	466	474	480	483	487	498	499	510	519	526	532	547	548	553	555	556	559	564	567	568	573	576	578	583	588	594	595	596	603	608	613	615	620	622	629	640	641	649	655	681	686	689	694	696	701	704	707	718	719	720	722	723	731	734	736	740	746	747	752	757	772	773	774	781	783	797	811	813	814	816	817	818	836	842	844	854	855	862	863	865	872	873	875	881	891	893	894	896	897	898	903	909	915	916	922	923	928	930	931	934	936	938	941	951	953	954	958	974	982	984	985	987	988	990	993	995	-1
DEPOT_SECTION
1
-1
EOF
