NAME : n1001-0003
COMMENT : "Generated by pyvrp_manuel (OVRPB)"
TYPE : OVRPB
DIMENSION : 1001
EDGE_WEIGHT_TYPE : EUC_2D
CAPACITY : 150
VEHICLES : 1000
OPEN_ROUTE : YES
NODE_COORD_SECTION
1	754	832
2	984	979
3	924	218
4	502	937
5	865	345
6	801	114
7	820	163
8	237	886
9	761	958
10	315	461
11	667	140
12	397	372
13	107	789
14	642	935
15	828	352
16	512	881
17	194	624
18	141	854
19	226	450
20	760	167
21	410	696
22	132	358
23	680	270
24	693	885
25	419	994
26	690	165
27	208	503
28	179	992
29	85	996
30	758	967
31	298	590
32	901	209
33	974	705
34	457	650
35	976	42
36	935	229
37	564	894
38	90	791
39	424	487
40	524	214
41	588	16
42	442	369
43	453	559
44	651	983
45	374	77
46	583	684
47	577	892
48	125	671
49	427	319
50	656	837
51	452	58
52	274	439
53	502	686
54	869	639
55	696	644
56	244	950
57	977	403
58	991	862
59	669	962
60	552	120
61	880	72
62	357	375
63	3	314
64	494	39
65	394	379
66	582	931
67	535	220
68	646	622
69	420	836
70	314	180
71	15	798
72	498	234
73	512	349
74	900	746
75	378	597
76	919	13
77	847	914
78	309	351
79	94	713
80	855	915
81	794	522
82	176	262
83	489	37
84	965	470
85	663	380
86	255	806
87	143	912
88	947	640
89	145	242
90	777	970
91	738	175
92	95	210
93	363	520
94	485	339
95	794	485
96	662	555
97	357	13
98	653	308
99	962	284
100	782	517
101	416	653
102	837	365
103	951	516
104	620	124
105	713	613
106	20	675
107	646	150
108	76	904
109	755	78
110	467	744
111	666	601
112	350	382
113	85	975
114	217	529
115	477	953
116	894	959
117	642	370
118	917	176
119	560	99
120	182	72
121	327	828
122	537	854
123	536	739
124	241	60
125	865	354
126	676	998
127	355	26
128	164	775
129	682	82
130	429	163
131	142	238
132	0	92
133	904	708
134	429	635
135	341	9
136	703	891
137	640	375
138	714	115
139	431	620
140	183	500
141	122	716
142	570	622
143	121	129
144	492	120
145	763	536
146	139	672
147	188	175
148	856	315
149	526	346
150	623	698
151	250	248
152	916	656
153	773	742
154	868	179
155	656	970
156	210	676
157	951	66
158	430	834
159	109	269
160	909	95
161	972	110
162	742	301
163	576	370
164	595	884
165	941	598
166	874	480
167	16	303
168	252	719
169	157	943
170	189	343
171	920	677
172	52	266
173	226	997
174	10	63
175	658	291
176	292	918
177	577	472
178	558	231
179	98	493
180	294	353
181	237	287
182	971	151
183	772	560
184	41	602
185	143	729
186	477	629
187	515	620
188	39	741
189	222	98
190	758	595
191	47	775
192	743	206
193	140	590
194	841	396
195	96	361
196	938	971
197	324	925
198	919	35
199	567	813
200	871	969
201	309	834
202	641	489
203	214	75
204	0	250
205	211	50
206	758	284
207	949	397
208	596	94
209	783	627
210	685	616
211	784	910
212	263	314
213	939	52
214	344	278
215	231	892
216	842	353
217	38	283
218	361	794
219	238	46
220	512	228
221	828	508
222	763	871
223	831	4
224	337	209
225	47	647
226	469	181
227	204	954
228	176	530
229	968	34
230	32	398
231	858	513
232	999	845
233	833	991
234	26	945
235	79	993
236	738	52
237	133	874
238	546	582
239	383	82
240	58	157
241	100	454
242	930	651
243	654	834
244	596	311
245	262	733
246	800	631
247	842	763
248	961	252
249	394	336
250	451	371
251	975	326
252	850	475
253	615	897
254	255	378
255	849	7
256	212	182
257	68	317
258	529	125
259	178	823
260	24	288
261	627	540
262	164	545
263	177	958
264	511	95
265	628	3
266	608	692
267	582	227
268	193	240
269	970	979
270	879	895
271	514	634
272	227	647
273	254	300
274	516	541
275	555	919
276	833	818
277	550	625
278	566	847
279	42	19
280	524	599
281	560	853
282	502	638
283	131	854
284	422	54
285	533	159
286	924	257
287	877	671
288	703	138
289	582	365
290	762	520
291	945	532
292	15	616
293	883	456
294	540	824
295	440	85
296	829	778
297	22	981
298	894	910
299	545	479
300	931	89
301	61	68
302	967	645
303	568	773
304	608	83
305	981	610
306	924	644
307	465	723
308	769	82
309	917	130
310	704	729
311	479	249
312	671	203
313	497	314
314	8	650
315	486	690
316	585	93
317	754	988
318	622	107
319	453	220
320	480	14
321	746	181
322	368	665
323	113	713
324	755	154
325	560	957
326	297	31
327	681	279
328	136	971
329	16	757
330	108	206
331	988	337
332	402	539
333	762	836
334	5	733
335	297	80
336	607	702
337	368	459
338	839	862
339	330	525
340	62	543
341	448	162
342	342	994
343	654	586
344	391	638
345	721	374
346	242	674
347	685	19
348	659	707
349	433	189
350	709	30
351	697	664
352	240	263
353	665	935
354	187	273
355	749	843
356	791	612
357	879	306
358	128	405
359	779	140
360	924	822
361	684	940
362	962	167
363	286	414
364	260	236
365	114	38
366	957	519
367	428	973
368	767	633
369	398	580
370	569	987
371	759	893
372	280	1000
373	504	45
374	938	609
375	664	742
376	260	710
377	76	363
378	525	65
379	325	84
380	501	887
381	776	709
382	502	135
383	574	803
384	691	571
385	48	514
386	342	944
387	583	778
388	428	83
389	915	822
390	923	214
391	944	901
392	132	285
393	84	960
394	305	878
395	282	808
396	409	236
397	730	76
398	569	466
399	43	879
400	376	209
401	62	243
402	820	625
403	198	966
404	313	181
405	461	949
406	693	112
407	53	19
408	362	828
409	547	200
410	905	638
411	322	606
412	516	335
413	307	60
414	702	234
415	62	801
416	289	79
417	13	990
418	830	200
419	933	387
420	91	106
421	657	800
422	705	90
423	910	698
424	498	860
425	62	179
426	780	977
427	654	305
428	494	942
429	208	825
430	755	403
431	538	622
432	211	320
433	617	544
434	624	41
435	792	611
436	907	632
437	81	463
438	581	273
439	63	23
440	109	24
441	667	897
442	624	708
443	411	653
444	626	217
445	760	731
446	499	234
447	644	856
448	686	524
449	366	172
450	11	832
451	3	565
452	556	493
453	624	194
454	176	717
455	414	59
456	348	41
457	600	386
458	854	179
459	891	997
460	868	822
461	917	58
462	947	423
463	911	174
464	691	412
465	99	274
466	990	845
467	873	294
468	747	193
469	815	411
470	588	315
471	342	12
472	965	2
473	12	292
474	369	349
475	791	685
476	701	317
477	841	790
478	710	642
479	416	330
480	471	426
481	95	371
482	734	748
483	726	339
484	726	406
485	687	109
486	900	650
487	454	820
488	706	492
489	909	158
490	991	918
491	598	401
492	158	687
493	654	33
494	169	442
495	100	280
496	927	84
497	21	66
498	466	673
499	210	811
500	93	834
501	569	733
502	24	444
503	894	487
504	717	849
505	475	649
506	570	844
507	195	869
508	451	945
509	335	86
510	863	170
511	828	829
512	605	131
513	288	222
514	901	622
515	597	481
516	792	214
517	863	365
518	735	545
519	989	968
520	274	268
521	645	696
522	50	49
523	589	238
524	217	929
525	377	348
526	77	702
527	518	890
528	508	91
529	656	840
530	572	140
531	593	394
532	546	204
533	913	943
534	823	466
535	947	510
536	954	324
537	787	322
538	221	585
539	591	733
540	378	987
541	894	213
542	475	844
543	944	718
544	114	534
545	892	201
546	36	81
547	683	686
548	320	223
549	700	394
550	983	21
551	371	206
552	755	325
553	540	582
554	923	177
555	657	592
556	113	640
557	2	50
558	619	992
559	740	956
560	161	256
561	785	189
562	918	388
563	789	86
564	457	828
565	656	315
566	76	325
567	961	425
568	999	527
569	843	613
570	757	303
571	128	670
572	289	516
573	82	746
574	425	47
575	484	728
576	674	316
577	75	31
578	712	360
579	606	271
580	185	779
581	843	110
582	681	157
583	639	280
584	589	390
585	312	345
586	376	590
587	778	518
588	835	656
589	334	188
590	776	800
591	159	499
592	346	621
593	844	986
594	985	556
595	454	670
596	480	741
597	149	316
598	864	315
599	815	502
600	254	218
601	789	91
602	402	733
603	596	242
604	637	220
605	980	707
606	58	884
607	162	414
608	353	27
609	964	890
610	336	489
611	690	670
612	497	297
613	867	927
614	613	712
615	768	536
616	211	416
617	914	35
618	896	25
619	217	810
620	413	712
621	852	276
622	758	665
623	625	263
624	238	602
625	507	973
626	509	417
627	164	138
628	107	337
629	500	256
630	426	386
631	603	395
632	30	660
633	712	428
634	361	993
635	738	504
636	354	440
637	667	152
638	583	260
639	90	95
640	457	866
641	710	802
642	56	994
643	738	722
644	281	143
645	939	392
646	250	775
647	130	887
648	419	487
649	773	478
650	528	268
651	417	649
652	289	95
653	953	759
654	651	650
655	965	34
656	617	861
657	585	305
658	295	35
659	155	460
660	668	732
661	507	345
662	298	549
663	69	9
664	543	760
665	652	572
666	639	343
667	838	376
668	104	12
669	391	807
670	79	958
671	167	716
672	606	292
673	673	962
674	215	446
675	361	734
676	58	739
677	724	294
678	45	353
679	692	327
680	708	84
681	990	697
682	591	951
683	163	347
684	211	221
685	957	999
686	781	829
687	301	112
688	403	170
689	999	354
690	233	213
691	884	226
692	225	191
693	183	957
694	876	308
695	815	123
696	248	454
697	654	653
698	326	427
699	209	663
700	97	463
701	107	336
702	126	377
703	760	182
704	830	258
705	656	743
706	239	821
707	937	182
708	795	88
709	83	731
710	775	130
711	574	498
712	263	60
713	919	506
714	651	38
715	83	653
716	709	9
717	453	973
718	517	679
719	330	682
720	627	337
721	699	857
722	805	374
723	479	470
724	686	607
725	744	875
726	638	628
727	484	455
728	286	935
729	19	742
730	945	365
731	612	94
732	660	808
733	100	400
734	520	253
735	362	180
736	915	394
737	553	883
738	682	484
739	229	649
740	185	584
741	328	365
742	873	758
743	529	379
744	404	55
745	200	740
746	94	711
747	488	848
748	420	534
749	132	889
750	406	944
751	904	562
752	785	435
753	980	193
754	64	604
755	525	741
756	311	934
757	136	46
758	623	332
759	807	61
760	650	218
761	235	648
762	22	363
763	706	118
764	871	279
765	935	872
766	291	953
767	528	700
768	83	396
769	531	814
770	768	861
771	688	808
772	432	757
773	352	381
774	895	953
775	493	37
776	368	694
777	448	547
778	419	508
779	992	113
780	505	891
781	92	311
782	762	440
783	208	35
784	877	389
785	359	711
786	370	59
787	989	472
788	536	802
789	363	736
790	936	83
791	307	114
792	432	74
793	641	334
794	263	333
795	132	974
796	426	458
797	686	802
798	779	798
799	26	758
800	998	285
801	260	52
802	886	548
803	129	269
804	511	614
805	843	375
806	746	398
807	496	828
808	214	983
809	186	456
810	300	909
811	889	922
812	366	424
813	217	996
814	590	742
815	77	519
816	736	698
817	181	502
818	788	98
819	941	784
820	252	283
821	576	748
822	57	566
823	328	276
824	648	613
825	507	712
826	523	228
827	386	785
828	628	622
829	565	951
830	278	348
831	439	441
832	99	786
833	108	713
834	150	370
835	358	742
836	4	800
837	778	845
838	65	870
839	838	768
840	872	113
841	190	908
842	567	331
843	501	84
844	893	428
845	663	603
846	124	746
847	219	483
848	192	701
849	474	946
850	277	482
851	981	29
852	107	425
853	547	210
854	608	478
855	958	340
856	82	775
857	887	991
858	102	13
859	700	487
860	511	154
861	823	979
862	281	113
863	359	484
864	197	842
865	276	821
866	919	803
867	448	739
868	447	178
869	119	548
870	703	585
871	208	975
872	460	693
873	756	461
874	153	142
875	991	299
876	643	408
877	499	47
878	594	710
879	63	810
880	648	706
881	830	517
882	958	754
883	619	226
884	671	809
885	859	172
886	911	472
887	508	15
888	338	706
889	930	288
890	991	867
891	139	519
892	513	907
893	330	22
894	345	105
895	787	725
896	356	108
897	99	762
898	503	411
899	916	535
900	361	276
901	28	701
902	507	207
903	11	355
904	290	275
905	121	290
906	512	496
907	434	71
908	371	909
909	205	208
910	81	759
911	577	230
912	795	93
913	705	315
914	909	75
915	47	353
916	604	19
917	417	459
918	536	344
919	292	263
920	68	777
921	688	434
922	422	104
923	761	667
924	506	875
925	467	151
926	315	104
927	706	162
928	992	920
929	191	985
930	171	372
931	175	338
932	712	49
933	143	654
934	993	993
935	667	494
936	602	180
937	219	846
938	856	190
939	774	989
940	1	356
941	745	523
942	410	333
943	904	575
944	419	167
945	783	687
946	179	569
947	743	982
948	803	722
949	223	6
950	102	999
951	981	96
952	279	236
953	311	372
954	887	535
955	931	708
956	656	322
957	811	272
958	725	879
959	740	948
960	392	378
961	732	628
962	691	128
963	446	126
964	377	176
965	77	66
966	961	754
967	809	166
968	410	442
969	413	690
970	645	167
971	706	357
972	276	187
973	319	422
974	414	826
975	901	287
976	693	113
977	666	673
978	733	35
979	834	304
980	807	196
981	778	393
982	263	194
983	54	857
984	860	344
985	998	800
986	172	865
987	41	746
988	69	382
989	310	757
990	140	22
991	618	258
992	553	828
993	223	307
994	514	202
995	526	903
996	474	121
997	232	265
998	863	456
999	736	476
1000	643	457
1001	349	207
DEMAND_SECTION
1	0
2	3
3	3
4	2
5	6
6	3
7	4
8	5
9	6
10	1
11	7
12	4
13	9
14	8
15	2
16	1
17	4
18	6
19	2
20	4
21	2
22	4
23	9
24	3
25	9
26	7
27	8
28	6
29	1
30	2
31	8
32	4
33	8
34	8
35	8
36	5
37	1
38	5
39	2
40	2
41	1
42	1
43	4
44	6
45	3
46	1
47	1
48	7
49	4
50	2
51	8
52	2
53	5
54	2
55	2
56	7
57	2
58	5
59	9
60	6
61	3
62	7
63	4
64	4
65	9
66	5
67	2
68	6
69	7
70	1
71	1
72	8
73	8
74	9
75	1
76	9
77	7
78	9
79	1
80	7
81	1
82	6
83	3
84	1
85	2
86	7
87	8
88	9
89	1
90	9
91	5
92	4
93	6
94	1
95	8
96	9
97	7
98	9
99	9
100	6
101	8
102	9
103	7
104	7
105	9
106	4
107	9
108	3
109	2
110	3
111	6
112	1
113	9
114	3
115	5
116	8
117	8
118	7
119	8
120	1
121	1
122	2
123	9
124	6
125	5
126	4
127	1
128	2
129	7
130	2
131	7
132	3
133	7
134	9
135	9
136	4
137	5
138	5
139	4
140	4
141	4
142	5
143	4
144	8
145	8
146	4
147	6
148	5
149	3
150	4
151	6
152	2
153	5
154	1
155	1
156	7
157	5
158	4
159	9
160	5
161	6
162	3
163	9
164	9
165	2
166	2
167	4
168	1
169	8
170	1
171	4
172	1
173	8
174	9
175	2
176	8
177	3
178	2
179	7
180	8
181	6
182	6
183	3
184	4
185	7
186	3
187	9
188	7
189	3
190	8
191	4
192	7
193	9
194	6
195	2
196	4
197	5
198	6
199	3
200	4
201	4
202	8
203	6
204	2
205	1
206	2
207	9
208	6
209	4
210	5
211	7
212	4
213	7
214	5
215	7
216	8
217	5
218	6
219	1
220	2
221	5
222	5
223	8
224	5
225	9
226	9
227	1
228	4
229	6
230	2
231	5
232	3
233	8
234	9
235	5
236	9
237	1
238	7
239	9
240	6
241	3
242	7
243	1
244	9
245	9
246	7
247	2
248	4
249	8
250	5
251	8
252	1
253	4
254	5
255	3
256	6
257	2
258	9
259	6
260	3
261	3
262	5
263	7
264	9
265	8
266	5
267	1
268	6
269	6
270	5
271	3
272	3
273	6
274	8
275	8
276	3
277	9
278	5
279	9
280	2
281	1
282	4
283	1
284	6
285	5
286	1
287	6
288	2
289	9
290	8
291	1
292	7
293	3
294	1
295	5
296	9
297	8
298	7
299	8
300	7
301	1
302	8
303	6
304	3
305	6
306	9
307	5
308	2
309	7
310	7
311	5
312	8
313	8
314	3
315	3
316	2
317	2
318	4
319	8
320	8
321	9
322	3
323	4
324	1
325	5
326	5
327	2
328	4
329	4
330	4
331	8
332	9
333	5
334	6
335	8
336	9
337	3
338	7
339	8
340	6
341	8
342	8
343	4
344	3
345	3
346	8
347	8
348	8
349	4
350	4
351	8
352	3
353	5
354	1
355	6
356	2
357	6
358	2
359	7
360	9
361	9
362	1
363	7
364	9
365	5
366	4
367	4
368	3
369	4
370	3
371	9
372	7
373	2
374	7
375	7
376	1
377	7
378	1
379	2
380	2
381	9
382	7
383	3
384	1
385	4
386	5
387	4
388	1
389	4
390	5
391	2
392	6
393	2
394	2
395	6
396	8
397	8
398	4
399	8
400	3
401	6
402	8
403	2
404	8
405	5
406	6
407	3
408	6
409	9
410	5
411	9
412	1
413	1
414	3
415	7
416	7
417	5
418	3
419	5
420	9
421	4
422	4
423	7
424	8
425	3
426	5
427	7
428	3
429	1
430	9
431	5
432	7
433	5
434	4
435	4
436	7
437	4
438	8
439	1
440	1
441	2
442	2
443	7
444	7
445	8
446	5
447	2
448	9
449	8
450	4
451	3
452	1
453	5
454	8
455	9
456	2
457	2
458	3
459	8
460	5
461	3
462	9
463	8
464	1
465	7
466	2
467	8
468	5
469	8
470	8
471	2
472	8
473	5
474	5
475	3
476	1
477	8
478	7
479	7
480	5
481	3
482	2
483	5
484	8
485	3
486	9
487	1
488	7
489	9
490	5
491	5
492	8
493	5
494	9
495	6
496	2
497	5
498	7
499	4
500	6
501	5
502	9
503	2
504	9
505	9
506	9
507	4
508	4
509	8
510	9
511	9
512	3
513	6
514	1
515	5
516	3
517	4
518	8
519	3
520	8
521	4
522	4
523	7
524	9
525	6
526	3
527	3
528	7
529	5
530	3
531	3
532	9
533	9
534	2
535	4
536	8
537	9
538	7
539	9
540	6
541	7
542	6
543	2
544	5
545	3
546	2
547	7
548	6
549	6
550	1
551	3
552	4
553	8
554	2
555	5
556	2
557	9
558	2
559	4
560	7
561	6
562	7
563	8
564	2
565	7
566	9
567	7
568	8
569	1
570	2
571	9
572	8
573	2
574	5
575	2
576	2
577	1
578	4
579	2
580	3
581	2
582	8
583	3
584	6
585	9
586	1
587	1
588	4
589	1
590	1
591	9
592	1
593	8
594	4
595	9
596	5
597	9
598	8
599	3
600	9
601	7
602	4
603	8
604	6
605	5
606	1
607	7
608	1
609	2
610	6
611	6
612	4
613	9
614	6
615	1
616	9
617	8
618	9
619	3
620	3
621	8
622	8
623	7
624	2
625	2
626	6
627	2
628	8
629	8
630	8
631	7
632	6
633	6
634	1
635	5
636	6
637	6
638	8
639	9
640	9
641	2
642	7
643	5
644	5
645	4
646	3
647	9
648	2
649	6
650	6
651	4
652	8
653	8
654	2
655	1
656	2
657	2
658	1
659	9
660	6
661	1
662	3
663	6
664	5
665	1
666	6
667	8
668	7
669	2
670	2
671	5
672	7
673	8
674	7
675	4
676	7
677	8
678	3
679	6
680	5
681	9
682	8
683	5
684	1
685	9
686	3
687	6
688	3
689	3
690	9
691	4
692	6
693	3
694	8
695	4
696	2
697	4
698	1
699	1
700	9
701	2
702	8
703	5
704	8
705	5
706	6
707	1
708	4
709	6
710	9
711	1
712	4
713	5
714	1
715	5
716	9
717	4
718	4
719	9
720	2
721	6
722	8
723	8
724	4
725	2
726	6
727	9
728	2
729	6
730	9
731	6
732	3
733	6
734	3
735	7
736	5
737	5
738	3
739	6
740	9
741	9
742	5
743	9
744	5
745	4
746	4
747	4
748	4
749	1
750	6
751	2
752	2
753	3
754	7
755	2
756	5
757	5
758	4
759	6
760	8
761	1
762	9
763	5
764	4
765	4
766	7
767	2
768	4
769	5
770	5
771	8
772	8
773	6
774	5
775	6
776	8
777	4
778	8
779	8
780	3
781	7
782	9
783	9
784	3
785	5
786	3
787	1
788	4
789	9
790	2
791	1
792	9
793	4
794	2
795	4
796	5
797	9
798	5
799	5
800	3
801	1
802	9
803	4
804	3
805	8
806	4
807	3
808	8
809	5
810	6
811	1
812	3
813	1
814	1
815	7
816	2
817	1
818	2
819	9
820	7
821	4
822	9
823	8
824	3
825	2
826	3
827	8
828	1
829	9
830	6
831	3
832	7
833	8
834	2
835	8
836	9
837	4
838	1
839	9
840	2
841	7
842	1
843	9
844	3
845	4
846	5
847	8
848	7
849	7
850	6
851	2
852	8
853	7
854	9
855	1
856	3
857	2
858	3
859	7
860	9
861	1
862	7
863	4
864	9
865	4
866	8
867	6
868	7
869	1
870	5
871	5
872	3
873	4
874	8
875	1
876	4
877	7
878	8
879	4
880	6
881	3
882	9
883	9
884	1
885	9
886	1
887	9
888	4
889	9
890	4
891	9
892	4
893	2
894	4
895	2
896	5
897	5
898	5
899	7
900	6
901	7
902	4
903	1
904	8
905	5
906	8
907	8
908	4
909	5
910	1
911	4
912	1
913	8
914	2
915	4
916	4
917	2
918	8
919	5
920	7
921	6
922	2
923	7
924	5
925	8
926	7
927	7
928	9
929	3
930	1
931	3
932	2
933	8
934	8
935	4
936	8
937	9
938	8
939	1
940	4
941	3
942	5
943	3
944	3
945	4
946	1
947	1
948	1
949	9
950	4
951	5
952	3
953	6
954	8
955	2
956	7
957	4
958	4
959	1
960	6
961	7
962	1
963	8
964	3
965	3
966	5
967	7
968	8
969	2
970	1
971	1
972	4
973	1
974	7
975	1
976	7
977	3
978	7
979	5
980	8
981	1
982	7
983	3
984	9
985	2
986	9
987	7
988	5
989	6
990	4
991	9
992	6
993	2
994	5
995	6
996	7
997	8
998	9
999	5
1000	1
1001	3
BACKHAUL_SECTION
10	13	28	29	38	52	55	57	60	66	72	75	81	95	98	109	112	114	116	126	127	153	164	168	169	184	186	191	198	201	205	206	211	215	217	218	231	242	245	246	247	249	253	255	257	262	266	284	287	289	293	298	299	300	303	306	322	332	340	347	349	355	363	365	366	376	377	378	390	392	396	397	398	400	406	409	414	418	423	431	438	443	451	456	466	474	480	483	487	498	499	510	519	526	532	547	548	553	555	556	559	564	567	568	573	576	578	583	588	594	595	596	603	608	613	615	620	622	629	640	641	649	655	681	686	689	694	696	701	704	707	718	719	720	722	723	731	734	736	740	746	747	752	757	772	773	774	781	783	797	811	813	814	816	817	818	836	842	844	854	855	862	863	865	872	873	875	881	891	893	894	896	897	898	903	909	915	916	922	923	928	930	931	934	936	938	941	951	953	954	958	974	982	984	985	987	988	990	993	995	-1
DEPOT_SECTION
1
-1
EOF
