NAME : n1001-0008
COMMENT : "Generated by pyvrp_manuel (OVRPB)"
TYPE : OVRPB
DIMENSION : 1001
EDGE_WEIGHT_TYPE : EUC_2D
CAPACITY : 150
VEHICLES : 1000
OPEN_ROUTE : YES
NODE_COORD_SECTION
1	667	117
2	780	580
3	416	491
4	461	601
5	662	180
6	281	306
7	86	343
8	32	474
9	284	525
10	881	726
11	300	539
12	965	865
13	84	832
14	982	882
15	120	735
16	425	296
17	279	530
18	908	720
19	351	172
20	181	960
21	888	10
22	731	885
23	525	474
24	309	521
25	153	339
26	705	558
27	856	865
28	523	144
29	552	234
30	664	655
31	968	615
32	962	202
33	6	387
34	737	995
35	208	625
36	454	327
37	214	863
38	749	532
39	773	392
40	257	260
41	141	347
42	649	344
43	717	561
44	78	331
45	540	73
46	887	380
47	535	762
48	146	630
49	654	846
50	699	982
51	972	798
52	189	714
53	787	326
54	883	317
55	703	944
56	254	332
57	149	129
58	387	425
59	267	685
60	939	455
61	253	874
62	930	712
63	955	620
64	46	696
65	769	304
66	424	463
67	663	701
68	360	813
69	315	935
70	666	847
71	947	785
72	283	968
73	986	101
74	28	842
75	44	128
76	376	78
77	569	258
78	481	933
79	60	61
80	467	517
81	518	487
82	148	733
83	620	322
84	48	260
85	676	805
86	212	448
87	604	402
88	906	191
89	943	733
90	730	49
91	654	258
92	81	338
93	344	341
94	145	901
95	829	272
96	934	952
97	942	681
98	655	127
99	653	412
100	390	938
101	139	81
102	698	656
103	389	673
104	869	97
105	226	554
106	466	565
107	280	916
108	731	347
109	533	515
110	94	28
111	829	608
112	360	980
113	924	160
114	58	713
115	768	26
116	199	103
117	758	462
118	952	588
119	175	941
120	942	361
121	841	634
122	572	436
123	144	960
124	461	703
125	707	184
126	786	47
127	76	795
128	283	514
129	834	62
130	852	533
131	453	924
132	554	215
133	666	242
134	135	697
135	116	442
136	419	771
137	326	590
138	620	920
139	291	956
140	371	69
141	328	786
142	554	481
143	495	878
144	734	499
145	97	620
146	460	67
147	17	798
148	411	534
149	221	820
150	472	819
151	576	160
152	964	601
153	390	975
154	30	898
155	919	735
156	127	983
157	527	376
158	472	647
159	58	977
160	145	558
161	26	726
162	730	444
163	292	783
164	647	804
165	246	1
166	293	148
167	930	854
168	709	268
169	851	662
170	293	580
171	148	407
172	73	934
173	124	694
174	712	529
175	262	278
176	252	174
177	595	895
178	271	96
179	297	900
180	233	513
181	306	570
182	229	826
183	967	36
184	612	850
185	582	322
186	910	101
187	770	857
188	854	745
189	583	456
190	955	875
191	512	793
192	776	22
193	460	384
194	365	874
195	580	854
196	777	276
197	53	526
198	192	484
199	934	578
200	860	656
201	524	53
202	70	393
203	243	42
204	368	296
205	340	598
206	297	12
207	764	807
208	361	918
209	556	504
210	549	447
211	832	385
212	728	633
213	943	389
214	487	352
215	570	38
216	31	900
217	703	16
218	92	709
219	404	289
220	871	638
221	795	809
222	668	519
223	254	478
224	481	180
225	960	932
226	36	274
227	662	386
228	718	328
229	139	129
230	842	753
231	560	202
232	490	601
233	109	22
234	491	620
235	107	13
236	846	748
237	183	173
238	255	515
239	127	357
240	531	814
241	751	330
242	338	127
243	375	222
244	20	778
245	68	625
246	394	495
247	204	440
248	1	40
249	477	584
250	891	873
251	122	171
252	891	791
253	918	554
254	120	729
255	210	143
256	962	994
257	310	174
258	373	221
259	86	76
260	603	433
261	27	610
262	102	498
263	381	295
264	744	877
265	701	19
266	820	202
267	214	79
268	882	348
269	794	101
270	477	396
271	655	217
272	269	316
273	818	284
274	427	572
275	500	991
276	489	590
277	336	985
278	361	881
279	118	466
280	496	249
281	714	886
282	163	431
283	565	659
284	731	37
285	260	759
286	881	887
287	628	384
288	436	334
289	641	211
290	567	998
291	503	238
292	178	674
293	462	425
294	0	421
295	230	98
296	159	177
297	168	89
298	622	563
299	658	325
300	79	315
301	734	844
302	56	881
303	396	727
304	969	84
305	194	289
306	749	430
307	176	625
308	236	928
309	669	805
310	162	289
311	740	874
312	171	934
313	263	571
314	909	249
315	160	508
316	394	509
317	922	952
318	406	656
319	527	214
320	422	382
321	61	818
322	768	565
323	649	198
324	17	325
325	755	830
326	947	653
327	354	453
328	355	47
329	930	634
330	272	173
331	846	387
332	186	11
333	874	388
334	830	658
335	218	412
336	449	572
337	976	837
338	882	25
339	421	184
340	717	356
341	457	475
342	372	518
343	836	405
344	582	175
345	997	56
346	118	661
347	156	730
348	230	591
349	52	98
350	725	998
351	466	232
352	589	209
353	413	600
354	423	121
355	733	995
356	599	525
357	934	883
358	709	956
359	124	817
360	43	342
361	760	206
362	104	570
363	393	957
364	825	383
365	981	695
366	698	191
367	815	649
368	308	471
369	912	14
370	582	257
371	73	229
372	396	190
373	560	19
374	137	558
375	178	993
376	574	712
377	498	341
378	769	235
379	304	466
380	548	667
381	96	608
382	525	607
383	395	92
384	540	282
385	693	460
386	988	493
387	174	198
388	190	96
389	724	216
390	745	938
391	55	916
392	788	9
393	695	601
394	952	660
395	211	689
396	852	885
397	99	771
398	57	940
399	474	215
400	484	684
401	133	297
402	884	623
403	294	312
404	213	462
405	935	342
406	571	759
407	646	940
408	361	727
409	551	951
410	931	69
411	698	106
412	985	710
413	660	831
414	54	956
415	320	795
416	997	374
417	398	221
418	246	574
419	755	430
420	718	332
421	932	611
422	702	353
423	131	63
424	411	601
425	608	201
426	63	179
427	277	599
428	476	495
429	244	712
430	646	313
431	226	479
432	578	366
433	389	584
434	559	895
435	748	532
436	715	161
437	515	882
438	232	938
439	964	952
440	51	454
441	834	526
442	402	94
443	42	668
444	254	722
445	740	769
446	261	409
447	401	486
448	373	616
449	462	499
450	825	721
451	501	545
452	284	964
453	963	921
454	384	312
455	283	259
456	85	268
457	159	117
458	319	965
459	706	877
460	156	984
461	187	917
462	950	782
463	339	595
464	966	770
465	609	88
466	577	290
467	767	929
468	520	305
469	757	498
470	428	468
471	540	16
472	747	283
473	558	531
474	281	416
475	228	565
476	208	351
477	336	988
478	775	394
479	748	322
480	819	948
481	975	265
482	976	287
483	10	247
484	369	946
485	695	109
486	659	888
487	346	462
488	57	619
489	905	647
490	387	81
491	426	681
492	681	719
493	831	654
494	944	833
495	210	709
496	886	901
497	422	367
498	921	917
499	998	208
500	211	367
501	296	132
502	971	460
503	126	522
504	291	604
505	292	102
506	686	258
507	845	889
508	678	191
509	886	579
510	724	614
511	239	33
512	715	565
513	637	345
514	717	860
515	918	647
516	545	411
517	240	622
518	92	159
519	302	540
520	630	941
521	275	776
522	789	156
523	794	919
524	35	800
525	684	100
526	529	198
527	544	357
528	260	545
529	575	965
530	173	257
531	435	909
532	817	140
533	231	698
534	338	995
535	48	979
536	616	722
537	406	993
538	372	502
539	139	213
540	302	371
541	739	303
542	542	204
543	241	965
544	573	493
545	529	593
546	419	481
547	330	366
548	929	34
549	491	828
550	249	283
551	4	30
552	89	224
553	103	983
554	612	629
555	489	602
556	872	515
557	608	229
558	909	489
559	529	588
560	110	129
561	601	653
562	986	715
563	878	399
564	118	947
565	9	102
566	450	996
567	944	608
568	625	307
569	859	916
570	65	212
571	602	99
572	936	396
573	552	808
574	744	89
575	691	981
576	629	731
577	949	829
578	67	580
579	665	90
580	334	743
581	382	629
582	172	89
583	104	563
584	393	683
585	903	463
586	424	8
587	466	221
588	534	997
589	458	764
590	41	403
591	531	785
592	909	865
593	927	585
594	936	87
595	181	770
596	403	122
597	189	930
598	334	813
599	396	13
600	640	760
601	194	328
602	865	403
603	862	448
604	561	532
605	854	928
606	150	933
607	130	938
608	288	456
609	786	726
610	155	756
611	691	494
612	108	846
613	601	562
614	73	589
615	183	651
616	197	963
617	976	11
618	782	758
619	229	198
620	452	61
621	491	558
622	154	923
623	389	214
624	943	869
625	662	52
626	441	766
627	471	905
628	648	237
629	45	964
630	546	327
631	931	872
632	500	210
633	99	686
634	463	785
635	194	388
636	651	55
637	539	868
638	993	523
639	243	769
640	976	696
641	902	217
642	925	306
643	980	989
644	209	82
645	455	744
646	20	538
647	948	437
648	755	668
649	650	482
650	114	911
651	638	119
652	686	522
653	117	367
654	981	963
655	329	395
656	122	603
657	367	978
658	994	893
659	174	230
660	960	259
661	995	323
662	738	893
663	330	717
664	729	618
665	290	180
666	789	640
667	244	223
668	869	189
669	462	847
670	526	416
671	314	762
672	248	393
673	762	175
674	532	263
675	644	416
676	401	756
677	537	127
678	794	87
679	385	665
680	363	508
681	563	712
682	141	273
683	28	448
684	318	383
685	198	626
686	316	888
687	797	858
688	340	817
689	657	476
690	69	973
691	487	246
692	446	301
693	857	434
694	616	809
695	967	394
696	75	565
697	531	724
698	573	150
699	585	440
700	623	223
701	261	124
702	920	335
703	397	458
704	326	442
705	633	726
706	446	691
707	182	927
708	318	279
709	526	71
710	97	963
711	626	999
712	405	507
713	808	647
714	181	288
715	109	966
716	319	810
717	919	96
718	647	729
719	132	149
720	180	228
721	653	425
722	913	159
723	214	263
724	446	97
725	230	242
726	627	402
727	928	220
728	977	128
729	275	154
730	533	939
731	94	282
732	944	669
733	915	899
734	390	84
735	296	532
736	711	138
737	741	408
738	300	388
739	232	835
740	950	260
741	646	984
742	153	375
743	637	390
744	184	32
745	515	227
746	376	486
747	194	449
748	395	982
749	817	19
750	583	314
751	579	155
752	524	480
753	617	834
754	348	937
755	60	995
756	794	358
757	933	95
758	682	173
759	871	449
760	343	600
761	378	106
762	708	841
763	98	886
764	496	460
765	906	354
766	137	575
767	161	351
768	93	379
769	448	716
770	146	882
771	402	361
772	894	899
773	174	596
774	417	797
775	165	951
776	51	131
777	240	840
778	697	547
779	879	970
780	113	540
781	884	304
782	130	794
783	583	930
784	377	999
785	147	520
786	662	960
787	170	283
788	26	4
789	892	38
790	763	537
791	6	969
792	344	354
793	4	894
794	479	853
795	75	48
796	777	700
797	143	784
798	150	92
799	83	735
800	306	61
801	667	236
802	601	738
803	909	304
804	782	363
805	248	896
806	861	193
807	422	322
808	151	235
809	787	22
810	936	154
811	322	983
812	762	207
813	568	409
814	465	158
815	661	857
816	195	221
817	13	511
818	445	522
819	152	855
820	372	582
821	158	326
822	875	50
823	137	179
824	204	266
825	560	783
826	909	397
827	750	722
828	959	23
829	26	754
830	748	192
831	740	944
832	201	326
833	604	62
834	975	10
835	404	933
836	68	971
837	786	864
838	160	11
839	285	770
840	831	538
841	563	829
842	636	872
843	689	823
844	782	274
845	678	283
846	257	149
847	38	226
848	226	998
849	287	206
850	500	785
851	746	224
852	4	93
853	403	605
854	970	143
855	806	785
856	165	821
857	944	306
858	24	491
859	110	397
860	396	889
861	811	205
862	932	997
863	387	9
864	460	212
865	717	192
866	915	642
867	651	582
868	742	977
869	932	6
870	593	273
871	812	521
872	642	948
873	817	869
874	345	345
875	900	367
876	960	849
877	677	874
878	821	226
879	717	530
880	816	217
881	277	329
882	276	724
883	123	721
884	461	938
885	193	302
886	505	503
887	151	557
888	616	565
889	27	69
890	762	821
891	779	589
892	253	519
893	621	802
894	744	34
895	289	458
896	956	473
897	158	934
898	889	549
899	188	239
900	186	804
901	136	219
902	30	564
903	564	749
904	302	677
905	671	754
906	124	179
907	737	209
908	144	500
909	985	925
910	205	906
911	509	391
912	309	424
913	855	475
914	935	687
915	229	260
916	456	642
917	740	423
918	709	733
919	966	114
920	711	468
921	281	438
922	352	916
923	883	46
924	394	129
925	242	149
926	398	841
927	584	977
928	298	251
929	44	358
930	563	75
931	860	125
932	345	555
933	929	923
934	87	238
935	537	986
936	118	916
937	960	96
938	717	548
939	191	303
940	104	635
941	879	928
942	746	375
943	369	669
944	165	979
945	793	151
946	392	789
947	553	13
948	351	179
949	743	794
950	563	857
951	586	11
952	24	513
953	730	203
954	432	710
955	273	603
956	850	639
957	308	225
958	618	18
959	134	885
960	39	508
961	667	91
962	976	878
963	941	181
964	957	832
965	643	579
966	320	839
967	333	39
968	419	49
969	619	823
970	519	162
971	774	209
972	590	353
973	139	535
974	523	962
975	421	23
976	244	436
977	915	658
978	951	603
979	613	896
980	965	781
981	72	502
982	543	264
983	59	928
984	950	116
985	554	836
986	497	341
987	35	122
988	132	859
989	688	376
990	698	299
991	192	234
992	228	477
993	518	527
994	534	446
995	378	593
996	90	5
997	18	209
998	632	493
999	502	84
1000	740	999
1001	329	317
DEMAND_SECTION
1	0
2	1
3	5
4	5
5	7
6	6
7	8
8	1
9	2
10	2
11	3
12	5
13	6
14	4
15	4
16	3
17	2
18	6
19	8
20	9
21	8
22	2
23	3
24	6
25	9
26	2
27	3
28	2
29	4
30	2
31	9
32	9
33	7
34	5
35	2
36	3
37	1
38	2
39	1
40	8
41	8
42	8
43	1
44	8
45	7
46	8
47	7
48	3
49	3
50	1
51	6
52	7
53	9
54	1
55	9
56	3
57	7
58	2
59	5
60	7
61	1
62	4
63	1
64	6
65	1
66	9
67	6
68	5
69	3
70	9
71	8
72	2
73	4
74	1
75	7
76	5
77	9
78	6
79	9
80	3
81	8
82	7
83	9
84	2
85	5
86	5
87	6
88	9
89	8
90	3
91	1
92	1
93	9
94	2
95	2
96	9
97	6
98	5
99	4
100	4
101	7
102	8
103	5
104	7
105	8
106	3
107	4
108	6
109	9
110	6
111	8
112	7
113	7
114	3
115	7
116	5
117	9
118	5
119	3
120	6
121	4
122	9
123	7
124	5
125	2
126	5
127	9
128	9
129	1
130	9
131	2
132	6
133	9
134	1
135	6
136	3
137	8
138	3
139	8
140	8
141	4
142	1
143	1
144	2
145	7
146	7
147	6
148	5
149	9
150	9
151	1
152	8
153	1
154	6
155	2
156	5
157	6
158	3
159	9
160	4
161	7
162	8
163	8
164	6
165	5
166	9
167	8
168	5
169	2
170	7
171	8
172	7
173	7
174	3
175	9
176	6
177	2
178	3
179	2
180	7
181	3
182	6
183	5
184	2
185	1
186	2
187	9
188	9
189	4
190	2
191	8
192	1
193	4
194	1
195	9
196	1
197	6
198	7
199	2
200	8
201	6
202	2
203	6
204	5
205	8
206	8
207	4
208	3
209	3
210	1
211	8
212	7
213	2
214	4
215	5
216	7
217	8
218	9
219	9
220	6
221	8
222	3
223	8
224	7
225	5
226	9
227	6
228	4
229	5
230	1
231	6
232	9
233	9
234	7
235	3
236	1
237	6
238	1
239	8
240	2
241	9
242	9
243	2
244	9
245	5
246	9
247	8
248	1
249	6
250	5
251	5
252	5
253	3
254	8
255	2
256	5
257	5
258	2
259	2
260	9
261	6
262	3
263	6
264	9
265	7
266	6
267	1
268	8
269	3
270	9
271	6
272	5
273	7
274	6
275	5
276	1
277	2
278	5
279	7
280	7
281	8
282	2
283	6
284	1
285	3
286	7
287	9
288	6
289	7
290	1
291	4
292	9
293	4
294	9
295	8
296	2
297	2
298	5
299	8
300	7
301	5
302	7
303	9
304	5
305	1
306	8
307	3
308	1
309	5
310	1
311	5
312	8
313	6
314	1
315	3
316	3
317	8
318	9
319	1
320	8
321	1
322	3
323	6
324	5
325	5
326	1
327	2
328	8
329	3
330	1
331	7
332	6
333	7
334	3
335	7
336	2
337	1
338	6
339	9
340	9
341	2
342	2
343	4
344	9
345	8
346	5
347	1
348	5
349	2
350	1
351	4
352	2
353	7
354	3
355	3
356	2
357	4
358	6
359	8
360	8
361	7
362	3
363	2
364	4
365	6
366	3
367	4
368	4
369	9
370	9
371	1
372	3
373	6
374	8
375	7
376	6
377	5
378	1
379	5
380	3
381	1
382	5
383	8
384	1
385	7
386	2
387	4
388	1
389	6
390	8
391	8
392	1
393	1
394	3
395	2
396	3
397	8
398	2
399	7
400	1
401	3
402	5
403	7
404	1
405	4
406	8
407	1
408	5
409	5
410	3
411	2
412	3
413	4
414	8
415	7
416	7
417	2
418	6
419	1
420	2
421	5
422	8
423	7
424	7
425	4
426	1
427	4
428	2
429	9
430	9
431	5
432	5
433	5
434	2
435	3
436	3
437	3
438	5
439	2
440	3
441	9
442	3
443	6
444	9
445	3
446	7
447	5
448	2
449	1
450	4
451	1
452	6
453	3
454	5
455	8
456	2
457	9
458	1
459	6
460	7
461	1
462	5
463	1
464	4
465	9
466	8
467	9
468	9
469	9
470	7
471	1
472	8
473	5
474	3
475	4
476	2
477	3
478	8
479	7
480	7
481	2
482	3
483	5
484	7
485	9
486	4
487	7
488	9
489	9
490	3
491	4
492	6
493	6
494	4
495	2
496	7
497	1
498	9
499	8
500	4
501	8
502	4
503	7
504	8
505	7
506	3
507	6
508	2
509	9
510	3
511	7
512	8
513	6
514	5
515	9
516	2
517	3
518	5
519	2
520	9
521	4
522	9
523	3
524	9
525	7
526	3
527	4
528	3
529	2
530	7
531	6
532	4
533	1
534	5
535	7
536	6
537	2
538	3
539	8
540	3
541	4
542	8
543	8
544	7
545	3
546	4
547	4
548	5
549	4
550	7
551	4
552	4
553	9
554	3
555	5
556	5
557	5
558	8
559	6
560	7
561	4
562	9
563	7
564	8
565	9
566	2
567	3
568	5
569	9
570	8
571	2
572	5
573	3
574	4
575	8
576	9
577	5
578	6
579	5
580	5
581	3
582	2
583	3
584	9
585	1
586	6
587	8
588	3
589	5
590	2
591	6
592	7
593	3
594	3
595	1
596	7
597	4
598	1
599	8
600	7
601	6
602	7
603	9
604	1
605	8
606	5
607	8
608	8
609	3
610	6
611	3
612	6
613	3
614	8
615	6
616	4
617	5
618	6
619	5
620	8
621	4
622	5
623	1
624	7
625	4
626	1
627	5
628	8
629	9
630	5
631	8
632	6
633	4
634	4
635	5
636	5
637	9
638	9
639	1
640	2
641	9
642	3
643	7
644	3
645	4
646	1
647	7
648	6
649	9
650	9
651	7
652	7
653	8
654	5
655	2
656	9
657	7
658	6
659	8
660	5
661	8
662	7
663	1
664	2
665	9
666	4
667	8
668	6
669	6
670	1
671	5
672	1
673	7
674	2
675	3
676	4
677	4
678	3
679	7
680	1
681	9
682	8
683	2
684	7
685	2
686	4
687	1
688	9
689	6
690	5
691	2
692	5
693	3
694	2
695	9
696	1
697	1
698	9
699	7
700	7
701	1
702	8
703	8
704	4
705	7
706	8
707	4
708	4
709	9
710	5
711	5
712	3
713	3
714	8
715	1
716	5
717	1
718	1
719	1
720	2
721	6
722	9
723	9
724	5
725	5
726	5
727	9
728	8
729	9
730	4
731	4
732	7
733	9
734	9
735	4
736	7
737	1
738	4
739	8
740	7
741	7
742	2
743	5
744	1
745	3
746	9
747	7
748	1
749	4
750	8
751	9
752	2
753	8
754	1
755	4
756	6
757	9
758	8
759	7
760	4
761	6
762	5
763	9
764	1
765	8
766	5
767	8
768	8
769	7
770	9
771	7
772	5
773	8
774	6
775	2
776	5
777	7
778	1
779	9
780	4
781	8
782	4
783	3
784	7
785	7
786	2
787	7
788	2
789	9
790	9
791	4
792	8
793	3
794	5
795	7
796	1
797	7
798	1
799	5
800	1
801	6
802	8
803	7
804	3
805	7
806	5
807	1
808	7
809	8
810	8
811	4
812	5
813	2
814	4
815	4
816	3
817	2
818	8
819	3
820	6
821	6
822	4
823	1
824	1
825	3
826	5
827	4
828	9
829	1
830	6
831	4
832	1
833	2
834	8
835	9
836	9
837	8
838	6
839	2
840	2
841	4
842	1
843	4
844	9
845	2
846	4
847	8
848	2
849	3
850	3
851	8
852	2
853	7
854	9
855	1
856	6
857	8
858	5
859	3
860	6
861	4
862	8
863	8
864	1
865	6
866	7
867	9
868	8
869	5
870	8
871	6
872	8
873	7
874	9
875	5
876	3
877	9
878	4
879	3
880	8
881	2
882	5
883	8
884	7
885	9
886	7
887	6
888	8
889	5
890	7
891	3
892	4
893	5
894	6
895	8
896	4
897	7
898	2
899	2
900	5
901	9
902	4
903	6
904	9
905	5
906	9
907	1
908	9
909	8
910	3
911	6
912	6
913	8
914	6
915	9
916	6
917	3
918	3
919	5
920	7
921	9
922	3
923	9
924	5
925	1
926	6
927	3
928	1
929	2
930	1
931	4
932	7
933	7
934	8
935	8
936	4
937	7
938	4
939	5
940	5
941	3
942	2
943	9
944	6
945	8
946	1
947	7
948	2
949	2
950	5
951	9
952	4
953	5
954	5
955	5
956	1
957	5
958	1
959	6
960	9
961	8
962	5
963	8
964	7
965	6
966	5
967	7
968	1
969	2
970	3
971	5
972	2
973	7
974	6
975	1
976	1
977	4
978	4
979	1
980	2
981	8
982	9
983	8
984	2
985	6
986	4
987	8
988	5
989	8
990	4
991	4
992	6
993	4
994	1
995	2
996	7
997	4
998	2
999	3
1000	6
1001	6
BACKHAUL_SECTION
10	13	28	29	38	52	55	57	60	66	72	75	81	95	98	109	112	114	116	126	127	153	164	168	169	184	186	191	198	201	205	206	211	215	217	218	231	242	245	246	247	249	253	255	257	262	266	284	287	289	293	298	299	300	303	306	322	332	340	347	349	355	363	365	366	376	377	378	390	392	396	397	398	400	406	409	414	418	423	431	438	443	451	456	466	474	480	483	487	498	499	510	519	526	532	547	548	553	555	556	559	564	567	568	573	576	578	583	588	594	595	596	603	608	613	615	620	622	629	640	641	649	655	681	686	689	694	696	701	704	707	718	719	720	722	723	731	734	736	740	746	747	752	757	772	773	774	781	783	797	811	813	814	816	817	818	836	842	844	854	855	862	863	865	872	873	875	881	891	893	894	896	897	898	903	909	915	916	922	923	928	930	931	934	936	938	941	951	953	954	958	974	982	984	985	987	988	990	993	995	-1
DEPOT_SECTION
1
-1
EOF
