NAME : n1001-0024
COMMENT : "Generated by pyvrp_manuel (OVRPB)"
TYPE : OVRPB
DIMENSION : 1001
EDGE_WEIGHT_TYPE : EUC_2D
CAPACITY : 150
VEHICLES : 1000
OPEN_ROUTE : YES
NODE_COORD_SECTION
1	530	947
2	218	237
3	949	834
4	578	975
5	103	144
6	775	457
7	527	15
8	732	729
9	290	813
10	417	249
11	939	388
12	645	448
13	954	494
14	122	337
15	615	454
16	204	894
17	245	847
18	854	261
19	317	824
20	459	635
21	556	844
22	407	736
23	488	945
24	448	563
25	205	276
26	63	81
27	52	901
28	523	457
29	636	396
30	892	615
31	795	535
32	919	993
33	276	646
34	978	983
35	881	730
36	610	153
37	915	626
38	12	35
39	666	581
40	105	45
41	775	358
42	769	140
43	536	797
44	68	93
45	272	956
46	810	383
47	96	903
48	69	802
49	625	845
50	821	261
51	562	281
52	201	29
53	590	429
54	464	134
55	595	984
56	836	402
57	721	19
58	701	448
59	428	239
60	48	836
61	954	801
62	529	691
63	333	199
64	500	791
65	965	656
66	437	266
67	664	498
68	276	256
69	458	213
70	462	596
71	360	642
72	644	883
73	755	138
74	963	585
75	277	547
76	373	969
77	457	312
78	592	398
79	873	983
80	670	325
81	524	663
82	306	206
83	975	139
84	111	281
85	91	78
86	515	186
87	118	217
88	159	142
89	666	449
90	723	667
91	105	515
92	920	613
93	484	213
94	442	849
95	315	812
96	750	592
97	634	527
98	101	401
99	284	100
100	134	791
101	275	102
102	380	637
103	552	1
104	388	504
105	793	545
106	477	318
107	808	313
108	887	398
109	256	607
110	629	65
111	648	891
112	845	999
113	183	380
114	746	516
115	85	8
116	638	679
117	512	940
118	112	222
119	290	342
120	486	868
121	429	570
122	856	187
123	497	655
124	132	869
125	960	528
126	743	867
127	251	884
128	518	430
129	317	523
130	698	984
131	604	388
132	911	6
133	638	791
134	474	150
135	425	724
136	197	231
137	318	101
138	439	666
139	436	239
140	726	622
141	508	281
142	476	800
143	314	5
144	429	834
145	174	872
146	238	605
147	510	190
148	847	963
149	326	469
150	480	13
151	664	583
152	377	3
153	168	892
154	571	91
155	475	813
156	160	64
157	89	330
158	679	320
159	479	245
160	51	399
161	138	100
162	139	265
163	164	746
164	7	591
165	509	420
166	439	466
167	6	411
168	481	661
169	101	542
170	315	50
171	964	63
172	479	520
173	833	764
174	441	563
175	555	393
176	346	208
177	575	72
178	286	21
179	53	934
180	614	642
181	22	873
182	951	187
183	294	201
184	918	826
185	862	709
186	157	790
187	381	111
188	232	621
189	427	303
190	476	756
191	37	959
192	623	425
193	998	286
194	20	160
195	880	740
196	366	404
197	346	574
198	302	264
199	124	273
200	717	673
201	469	520
202	246	556
203	791	946
204	248	760
205	412	429
206	638	177
207	658	522
208	495	985
209	27	662
210	633	617
211	889	347
212	441	758
213	45	402
214	904	590
215	819	703
216	475	880
217	677	372
218	805	476
219	293	549
220	974	313
221	792	580
222	755	567
223	925	611
224	339	533
225	351	898
226	326	844
227	913	403
228	726	957
229	106	142
230	947	699
231	304	34
232	827	330
233	175	299
234	805	384
235	845	444
236	898	251
237	123	80
238	91	82
239	70	92
240	250	922
241	550	915
242	560	262
243	525	953
244	28	936
245	879	729
246	946	481
247	548	252
248	563	570
249	985	769
250	639	359
251	669	818
252	746	663
253	333	489
254	427	312
255	494	475
256	909	19
257	706	335
258	830	291
259	914	534
260	565	151
261	614	525
262	465	621
263	458	530
264	135	578
265	211	566
266	642	46
267	361	298
268	80	316
269	813	975
270	891	521
271	642	832
272	290	971
273	361	990
274	206	232
275	808	860
276	79	730
277	830	820
278	794	679
279	910	981
280	535	648
281	808	896
282	367	794
283	462	921
284	97	588
285	859	752
286	599	557
287	481	654
288	407	787
289	232	278
290	689	958
291	820	414
292	31	485
293	11	117
294	184	12
295	463	562
296	841	109
297	719	954
298	386	86
299	863	711
300	634	772
301	766	924
302	334	917
303	874	331
304	325	203
305	342	579
306	272	451
307	53	708
308	520	716
309	563	344
310	972	741
311	205	22
312	838	938
313	688	877
314	695	792
315	710	329
316	162	681
317	169	803
318	483	309
319	153	391
320	929	255
321	130	370
322	282	663
323	318	283
324	940	407
325	355	496
326	37	625
327	947	729
328	208	644
329	63	300
330	750	196
331	565	678
332	616	8
333	812	681
334	510	891
335	12	816
336	883	435
337	126	861
338	200	523
339	623	453
340	453	812
341	819	72
342	800	436
343	489	180
344	104	866
345	658	412
346	458	925
347	73	998
348	434	643
349	602	838
350	443	166
351	168	663
352	497	575
353	169	364
354	465	623
355	453	185
356	988	412
357	108	124
358	254	922
359	642	786
360	821	28
361	153	401
362	514	217
363	693	749
364	475	193
365	808	130
366	304	727
367	518	627
368	71	360
369	753	549
370	419	221
371	47	336
372	114	298
373	476	169
374	276	783
375	397	693
376	676	887
377	828	40
378	330	25
379	902	461
380	253	902
381	759	912
382	774	818
383	842	525
384	531	435
385	770	988
386	465	194
387	223	841
388	850	571
389	189	96
390	695	767
391	258	523
392	678	739
393	443	637
394	721	845
395	554	129
396	563	563
397	444	998
398	47	472
399	732	699
400	37	956
401	298	195
402	52	663
403	180	15
404	524	972
405	104	96
406	21	99
407	206	850
408	702	260
409	792	30
410	237	41
411	367	280
412	570	585
413	940	496
414	969	522
415	966	992
416	55	899
417	411	367
418	781	596
419	655	445
420	712	397
421	397	694
422	86	191
423	875	96
424	664	626
425	952	113
426	228	38
427	79	873
428	276	579
429	27	321
430	557	321
431	311	219
432	678	72
433	460	576
434	52	909
435	536	730
436	881	640
437	52	30
438	988	732
439	812	1000
440	524	56
441	70	280
442	486	148
443	420	469
444	265	581
445	586	583
446	815	616
447	318	238
448	140	856
449	542	441
450	614	990
451	522	701
452	293	700
453	753	140
454	27	834
455	672	955
456	575	69
457	455	571
458	572	35
459	76	724
460	627	477
461	901	543
462	89	119
463	60	62
464	78	538
465	363	991
466	109	42
467	246	723
468	127	49
469	105	621
470	158	729
471	423	445
472	998	479
473	464	555
474	533	118
475	98	702
476	383	504
477	684	480
478	294	369
479	297	141
480	743	109
481	514	110
482	619	144
483	877	67
484	847	712
485	280	86
486	820	489
487	716	970
488	826	745
489	836	9
490	775	836
491	39	192
492	162	401
493	606	409
494	730	525
495	196	482
496	635	708
497	169	101
498	460	689
499	653	634
500	764	352
501	165	731
502	679	910
503	711	600
504	384	758
505	909	785
506	73	449
507	925	758
508	180	8
509	132	416
510	189	812
511	37	484
512	930	630
513	133	126
514	618	858
515	583	609
516	420	332
517	114	226
518	156	970
519	919	180
520	476	895
521	701	70
522	338	208
523	619	235
524	687	926
525	625	165
526	737	280
527	315	916
528	834	551
529	613	208
530	295	780
531	659	955
532	810	444
533	463	469
534	769	125
535	756	303
536	863	897
537	528	243
538	784	298
539	40	263
540	919	15
541	17	253
542	208	43
543	915	205
544	461	696
545	684	434
546	223	127
547	828	803
548	258	199
549	756	920
550	84	691
551	142	206
552	229	32
553	498	151
554	699	444
555	390	475
556	128	69
557	446	767
558	153	128
559	537	517
560	879	307
561	124	511
562	169	83
563	120	612
564	2	339
565	540	960
566	777	522
567	232	519
568	444	97
569	962	723
570	71	37
571	214	823
572	439	202
573	983	639
574	497	892
575	901	877
576	491	594
577	818	957
578	205	350
579	253	477
580	586	714
581	150	102
582	923	449
583	828	794
584	553	133
585	834	747
586	6	751
587	269	399
588	623	702
589	731	557
590	546	316
591	526	553
592	138	74
593	317	671
594	468	48
595	446	501
596	331	243
597	490	526
598	840	540
599	350	502
600	745	799
601	216	802
602	240	817
603	985	860
604	660	52
605	212	883
606	925	560
607	391	217
608	403	283
609	911	124
610	351	210
611	156	235
612	879	207
613	370	193
614	854	128
615	641	465
616	181	108
617	218	520
618	92	496
619	794	18
620	329	463
621	101	243
622	75	441
623	95	913
624	891	779
625	753	932
626	377	227
627	297	538
628	254	217
629	48	960
630	138	912
631	239	719
632	834	47
633	256	333
634	645	317
635	562	323
636	638	392
637	178	978
638	664	711
639	171	454
640	938	118
641	758	505
642	718	16
643	280	795
644	811	674
645	141	718
646	894	153
647	328	724
648	603	930
649	118	738
650	752	52
651	88	184
652	51	828
653	320	767
654	936	241
655	221	89
656	73	492
657	484	342
658	769	914
659	982	290
660	818	824
661	641	788
662	847	333
663	22	538
664	321	793
665	625	724
666	8	664
667	683	878
668	342	708
669	57	480
670	9	109
671	888	282
672	102	224
673	724	388
674	305	651
675	731	835
676	65	677
677	593	325
678	531	312
679	686	345
680	897	836
681	278	243
682	229	147
683	514	103
684	58	93
685	343	83
686	446	637
687	300	29
688	689	225
689	816	1000
690	968	94
691	588	181
692	57	287
693	639	570
694	830	87
695	562	75
696	770	247
697	910	609
698	435	632
699	698	905
700	716	399
701	844	22
702	950	434
703	620	513
704	441	951
705	194	935
706	996	301
707	481	805
708	418	774
709	943	546
710	535	697
711	951	645
712	355	399
713	234	2
714	617	536
715	195	498
716	47	568
717	672	402
718	84	476
719	582	920
720	461	981
721	918	610
722	278	261
723	648	141
724	577	728
725	246	670
726	398	951
727	186	161
728	31	723
729	715	847
730	983	596
731	261	755
732	739	882
733	743	447
734	92	150
735	997	605
736	20	326
737	592	47
738	659	614
739	419	534
740	733	868
741	270	645
742	123	299
743	970	671
744	746	392
745	0	415
746	667	250
747	524	692
748	308	317
749	633	900
750	860	495
751	132	99
752	450	421
753	605	384
754	156	289
755	489	867
756	689	364
757	767	94
758	52	492
759	947	610
760	771	90
761	890	117
762	723	581
763	655	281
764	340	240
765	96	330
766	36	952
767	24	794
768	289	561
769	789	111
770	805	436
771	33	620
772	757	758
773	737	934
774	146	540
775	0	311
776	840	460
777	924	740
778	467	511
779	132	971
780	402	528
781	425	503
782	500	84
783	490	833
784	938	273
785	555	175
786	107	280
787	745	13
788	300	284
789	257	112
790	156	727
791	235	501
792	875	933
793	319	626
794	664	70
795	745	679
796	480	74
797	925	983
798	134	78
799	814	959
800	807	680
801	652	559
802	527	824
803	795	497
804	957	972
805	589	922
806	337	303
807	216	619
808	904	365
809	46	472
810	902	336
811	588	163
812	978	895
813	570	646
814	652	738
815	514	275
816	254	7
817	2	587
818	774	334
819	363	964
820	62	657
821	436	460
822	115	108
823	960	171
824	973	882
825	674	209
826	885	313
827	244	731
828	83	334
829	828	172
830	972	28
831	738	813
832	118	956
833	315	993
834	137	766
835	507	965
836	270	558
837	664	23
838	759	228
839	463	534
840	200	357
841	751	855
842	62	445
843	660	174
844	46	695
845	118	517
846	972	699
847	189	157
848	816	27
849	460	30
850	605	72
851	993	763
852	367	706
853	91	960
854	608	466
855	328	708
856	493	298
857	755	293
858	934	962
859	622	733
860	707	205
861	82	287
862	577	450
863	993	696
864	462	489
865	44	16
866	931	864
867	988	461
868	886	935
869	67	339
870	777	302
871	49	68
872	218	986
873	355	303
874	29	854
875	559	950
876	423	420
877	731	240
878	176	88
879	280	693
880	483	439
881	294	825
882	977	725
883	122	752
884	696	971
885	84	251
886	453	358
887	215	177
888	294	504
889	830	548
890	338	586
891	442	435
892	818	867
893	418	836
894	196	353
895	817	941
896	157	725
897	482	40
898	150	832
899	886	318
900	727	860
901	422	199
902	508	670
903	684	488
904	29	982
905	464	343
906	972	818
907	230	168
908	699	488
909	319	62
910	271	525
911	196	215
912	855	574
913	773	727
914	359	245
915	995	264
916	408	320
917	889	443
918	814	415
919	699	965
920	128	961
921	547	892
922	328	405
923	200	204
924	83	211
925	85	999
926	289	11
927	80	963
928	658	979
929	12	370
930	632	280
931	149	574
932	755	46
933	924	768
934	74	604
935	314	255
936	502	149
937	633	600
938	70	600
939	606	720
940	576	641
941	625	678
942	864	603
943	94	334
944	250	1000
945	392	39
946	533	132
947	984	511
948	296	695
949	139	553
950	456	783
951	262	399
952	750	772
953	288	282
954	203	214
955	845	909
956	397	72
957	282	247
958	625	362
959	463	24
960	628	783
961	205	907
962	34	32
963	438	63
964	607	593
965	427	321
966	722	210
967	962	9
968	150	757
969	266	224
970	825	337
971	366	587
972	596	586
973	43	278
974	225	606
975	739	973
976	107	73
977	621	801
978	770	812
979	888	899
980	549	192
981	865	423
982	430	279
983	743	558
984	692	677
985	996	434
986	80	729
987	659	473
988	941	552
989	531	256
990	958	398
991	655	201
992	539	594
993	240	302
994	405	880
995	663	134
996	355	113
997	957	437
998	97	259
999	24	253
1000	579	934
1001	305	992
DEMAND_SECTION
1	0
2	1
3	7
4	3
5	5
6	7
7	6
8	3
9	9
10	3
11	4
12	4
13	4
14	6
15	5
16	1
17	1
18	3
19	5
20	2
21	8
22	9
23	8
24	9
25	8
26	6
27	2
28	7
29	8
30	2
31	5
32	3
33	4
34	9
35	6
36	6
37	5
38	4
39	3
40	6
41	5
42	5
43	4
44	1
45	4
46	5
47	3
48	2
49	8
50	3
51	5
52	1
53	4
54	1
55	7
56	5
57	4
58	1
59	5
60	8
61	6
62	3
63	7
64	7
65	9
66	2
67	6
68	2
69	9
70	1
71	8
72	1
73	3
74	1
75	3
76	8
77	2
78	4
79	9
80	3
81	1
82	9
83	4
84	7
85	3
86	7
87	9
88	4
89	6
90	9
91	4
92	6
93	7
94	8
95	3
96	9
97	6
98	1
99	9
100	6
101	5
102	6
103	6
104	5
105	1
106	4
107	1
108	3
109	1
110	3
111	4
112	9
113	9
114	6
115	5
116	3
117	9
118	5
119	3
120	1
121	5
122	5
123	3
124	7
125	3
126	4
127	2
128	4
129	5
130	7
131	8
132	5
133	3
134	8
135	8
136	3
137	5
138	4
139	8
140	6
141	8
142	3
143	9
144	1
145	1
146	8
147	4
148	1
149	8
150	6
151	9
152	9
153	6
154	9
155	4
156	7
157	4
158	1
159	7
160	9
161	7
162	3
163	1
164	9
165	5
166	1
167	7
168	1
169	3
170	2
171	7
172	1
173	7
174	9
175	8
176	6
177	2
178	6
179	1
180	7
181	2
182	7
183	6
184	4
185	9
186	7
187	2
188	3
189	8
190	7
191	4
192	8
193	2
194	3
195	2
196	6
197	5
198	1
199	2
200	1
201	7
202	2
203	1
204	5
205	8
206	3
207	9
208	2
209	2
210	1
211	7
212	1
213	5
214	7
215	5
216	3
217	2
218	4
219	6
220	4
221	5
222	8
223	4
224	6
225	6
226	6
227	6
228	5
229	5
230	8
231	9
232	8
233	1
234	9
235	1
236	4
237	6
238	7
239	3
240	8
241	7
242	4
243	4
244	3
245	7
246	4
247	8
248	6
249	1
250	4
251	4
252	6
253	3
254	5
255	4
256	7
257	1
258	1
259	9
260	6
261	6
262	1
263	1
264	6
265	2
266	4
267	3
268	8
269	5
270	1
271	2
272	4
273	4
274	3
275	2
276	9
277	7
278	4
279	4
280	6
281	9
282	5
283	8
284	5
285	1
286	9
287	8
288	6
289	3
290	2
291	2
292	8
293	3
294	3
295	4
296	9
297	2
298	9
299	4
300	7
301	1
302	9
303	2
304	8
305	3
306	3
307	6
308	2
309	6
310	2
311	9
312	3
313	5
314	3
315	3
316	6
317	7
318	9
319	8
320	7
321	2
322	4
323	2
324	8
325	4
326	3
327	5
328	3
329	2
330	8
331	8
332	9
333	1
334	3
335	8
336	4
337	5
338	1
339	1
340	5
341	7
342	7
343	2
344	2
345	6
346	4
347	7
348	6
349	9
350	1
351	5
352	2
353	6
354	4
355	2
356	3
357	5
358	9
359	9
360	9
361	8
362	6
363	1
364	5
365	7
366	2
367	9
368	7
369	4
370	4
371	2
372	8
373	6
374	7
375	2
376	2
377	9
378	1
379	4
380	8
381	8
382	6
383	3
384	3
385	6
386	9
387	7
388	1
389	8
390	3
391	2
392	5
393	1
394	7
395	9
396	6
397	6
398	6
399	9
400	9
401	4
402	1
403	8
404	3
405	4
406	5
407	7
408	3
409	8
410	3
411	4
412	7
413	9
414	6
415	9
416	9
417	6
418	6
419	2
420	8
421	9
422	2
423	9
424	4
425	2
426	9
427	9
428	3
429	3
430	9
431	8
432	1
433	9
434	2
435	8
436	7
437	9
438	7
439	8
440	2
441	7
442	6
443	5
444	2
445	8
446	4
447	1
448	5
449	4
450	7
451	8
452	8
453	1
454	3
455	1
456	6
457	3
458	5
459	8
460	5
461	3
462	5
463	2
464	7
465	1
466	4
467	5
468	5
469	1
470	9
471	5
472	4
473	8
474	3
475	8
476	6
477	9
478	2
479	8
480	8
481	4
482	6
483	6
484	5
485	6
486	2
487	4
488	2
489	5
490	5
491	8
492	3
493	5
494	5
495	8
496	8
497	2
498	1
499	6
500	7
501	2
502	7
503	2
504	1
505	3
506	3
507	8
508	3
509	8
510	5
511	6
512	3
513	5
514	2
515	4
516	8
517	2
518	2
519	8
520	9
521	4
522	5
523	8
524	8
525	1
526	5
527	7
528	5
529	1
530	4
531	9
532	7
533	4
534	8
535	6
536	3
537	5
538	4
539	7
540	2
541	8
542	5
543	7
544	4
545	7
546	8
547	4
548	1
549	7
550	9
551	1
552	6
553	3
554	7
555	8
556	5
557	1
558	3
559	4
560	8
561	3
562	2
563	1
564	9
565	3
566	2
567	3
568	9
569	1
570	3
571	9
572	1
573	4
574	8
575	1
576	7
577	2
578	2
579	2
580	1
581	9
582	2
583	9
584	4
585	7
586	3
587	8
588	9
589	3
590	5
591	5
592	9
593	3
594	5
595	5
596	9
597	4
598	8
599	2
600	3
601	6
602	5
603	4
604	6
605	4
606	5
607	4
608	9
609	3
610	2
611	4
612	8
613	1
614	5
615	8
616	4
617	7
618	1
619	6
620	9
621	8
622	4
623	8
624	3
625	1
626	3
627	2
628	4
629	5
630	4
631	6
632	5
633	7
634	7
635	7
636	4
637	5
638	6
639	9
640	8
641	4
642	3
643	5
644	9
645	9
646	4
647	6
648	3
649	2
650	3
651	2
652	3
653	2
654	4
655	7
656	4
657	4
658	8
659	4
660	9
661	8
662	6
663	9
664	6
665	9
666	1
667	4
668	5
669	7
670	5
671	3
672	9
673	9
674	6
675	6
676	4
677	8
678	1
679	2
680	7
681	9
682	8
683	2
684	5
685	4
686	8
687	2
688	3
689	7
690	9
691	6
692	5
693	8
694	4
695	3
696	4
697	4
698	1
699	7
700	9
701	7
702	4
703	1
704	6
705	5
706	4
707	7
708	2
709	8
710	4
711	7
712	5
713	8
714	7
715	9
716	4
717	9
718	2
719	5
720	3
721	5
722	5
723	4
724	1
725	6
726	4
727	9
728	7
729	5
730	8
731	2
732	1
733	5
734	3
735	2
736	8
737	7
738	8
739	8
740	3
741	5
742	6
743	3
744	4
745	6
746	3
747	3
748	1
749	2
750	7
751	8
752	5
753	8
754	7
755	4
756	7
757	3
758	4
759	2
760	6
761	2
762	2
763	3
764	4
765	2
766	7
767	7
768	3
769	2
770	9
771	9
772	8
773	6
774	9
775	4
776	4
777	5
778	7
779	1
780	9
781	1
782	5
783	2
784	7
785	9
786	1
787	9
788	2
789	4
790	2
791	9
792	2
793	9
794	1
795	7
796	9
797	4
798	4
799	9
800	4
801	7
802	7
803	9
804	9
805	8
806	2
807	3
808	1
809	3
810	6
811	2
812	9
813	9
814	3
815	2
816	9
817	1
818	1
819	3
820	2
821	3
822	8
823	6
824	2
825	1
826	7
827	5
828	2
829	5
830	6
831	3
832	3
833	5
834	7
835	9
836	8
837	9
838	6
839	1
840	4
841	9
842	3
843	1
844	8
845	3
846	3
847	6
848	9
849	2
850	1
851	9
852	5
853	6
854	5
855	5
856	1
857	9
858	3
859	5
860	7
861	4
862	7
863	4
864	1
865	9
866	2
867	9
868	3
869	8
870	4
871	8
872	2
873	2
874	7
875	8
876	9
877	2
878	7
879	6
880	6
881	7
882	7
883	1
884	9
885	7
886	1
887	4
888	3
889	1
890	9
891	1
892	5
893	7
894	5
895	4
896	5
897	5
898	6
899	4
900	4
901	6
902	8
903	3
904	1
905	5
906	3
907	9
908	4
909	2
910	1
911	3
912	5
913	9
914	1
915	6
916	4
917	1
918	6
919	1
920	2
921	8
922	8
923	4
924	3
925	9
926	3
927	4
928	1
929	2
930	4
931	7
932	1
933	5
934	2
935	7
936	7
937	7
938	1
939	6
940	7
941	1
942	5
943	9
944	7
945	7
946	2
947	6
948	8
949	2
950	9
951	8
952	8
953	4
954	9
955	6
956	6
957	8
958	2
959	7
960	5
961	4
962	4
963	1
964	3
965	8
966	6
967	5
968	8
969	4
970	8
971	8
972	3
973	6
974	7
975	4
976	9
977	6
978	6
979	7
980	8
981	2
982	4
983	6
984	1
985	9
986	4
987	6
988	2
989	6
990	2
991	7
992	4
993	7
994	7
995	9
996	1
997	2
998	6
999	9
1000	2
1001	8
BACKHAUL_SECTION
10	13	28	29	38	52	55	57	60	66	72	75	81	95	98	109	112	114	116	126	127	153	164	168	169	184	186	191	198	201	205	206	211	215	217	218	231	242	245	246	247	249	253	255	257	262	266	284	287	289	293	298	299	300	303	306	322	332	340	347	349	355	363	365	366	376	377	378	390	392	396	397	398	400	406	409	414	418	423	431	438	443	451	456	466	474	480	483	487	498	499	510	519	526	532	547	548	553	555	556	559	564	567	568	573	576	578	583	588	594	595	596	603	608	613	615	620	622	629	640	641	649	655	681	686	689	694	696	701	704	707	718	719	720	722	723	731	734	736	740	746	747	752	757	772	773	774	781	783	797	811	813	814	816	817	818	836	842	844	854	855	862	863	865	872	873	875	881	891	893	894	896	897	898	903	909	915	916	922	923	928	930	931	934	936	938	941	951	953	954	958	974	982	984	985	987	988	990	993	995	-1
DEPOT_SECTION
1
-1
EOF
