NAME : n1001-0050
COMMENT : "Generated by pyvrp_manuel (OVRPB)"
TYPE : OVRPB
DIMENSION : 1001
EDGE_WEIGHT_TYPE : EUC_2D
CAPACITY : 150
VEHICLES : 1000
OPEN_ROUTE : YES
NODE_COORD_SECTION
1	159	710
2	819	921
3	780	678
4	734	408
5	70	452
6	202	397
7	849	923
8	85	428
9	313	91
10	574	267
11	21	601
12	268	95
13	823	362
14	302	351
15	52	190
16	157	206
17	329	354
18	340	859
19	394	921
20	688	791
21	923	152
22	353	978
23	789	770
24	536	636
25	656	631
26	45	29
27	405	201
28	716	816
29	507	311
30	862	724
31	147	459
32	224	693
33	824	36
34	782	75
35	893	436
36	12	383
37	568	855
38	800	932
39	951	235
40	379	786
41	151	925
42	964	213
43	419	113
44	237	805
45	815	359
46	173	151
47	762	477
48	319	346
49	351	700
50	819	60
51	536	374
52	703	260
53	87	146
54	645	410
55	530	995
56	158	41
57	873	826
58	955	869
59	68	303
60	754	630
61	489	133
62	166	581
63	274	957
64	590	528
65	475	417
66	873	767
67	212	561
68	747	815
69	143	478
70	947	867
71	804	359
72	625	505
73	616	661
74	520	833
75	903	515
76	140	524
77	748	760
78	457	846
79	318	786
80	873	310
81	790	303
82	741	949
83	974	295
84	767	259
85	434	798
86	79	749
87	86	110
88	233	51
89	189	493
90	212	690
91	289	285
92	880	464
93	638	703
94	456	363
95	71	9
96	857	353
97	34	268
98	597	140
99	441	608
100	153	853
101	854	97
102	172	28
103	422	327
104	420	992
105	526	700
106	781	670
107	401	194
108	809	850
109	652	568
110	827	435
111	160	502
112	666	576
113	893	853
114	571	70
115	751	316
116	568	785
117	704	138
118	543	606
119	604	897
120	157	332
121	437	411
122	911	417
123	480	118
124	477	121
125	546	971
126	420	452
127	190	888
128	280	49
129	737	578
130	1	531
131	865	751
132	923	519
133	353	895
134	297	985
135	271	987
136	125	426
137	695	890
138	223	536
139	858	105
140	196	336
141	858	725
142	648	313
143	120	582
144	342	539
145	925	253
146	349	793
147	223	755
148	416	336
149	691	26
150	822	224
151	183	178
152	591	198
153	91	252
154	617	734
155	963	122
156	796	519
157	374	110
158	832	952
159	775	914
160	894	906
161	24	575
162	759	789
163	746	504
164	765	884
165	619	969
166	752	219
167	318	297
168	613	490
169	989	765
170	377	239
171	814	50
172	161	667
173	527	692
174	874	325
175	122	335
176	121	151
177	917	767
178	245	57
179	386	996
180	118	795
181	622	313
182	544	729
183	585	343
184	619	639
185	117	725
186	358	521
187	636	307
188	813	564
189	222	469
190	475	819
191	381	627
192	48	127
193	889	5
194	41	898
195	57	572
196	237	930
197	906	896
198	217	800
199	245	744
200	64	520
201	346	423
202	240	992
203	246	952
204	861	595
205	388	652
206	387	5
207	688	43
208	767	784
209	543	421
210	646	458
211	794	392
212	922	649
213	188	178
214	586	469
215	215	66
216	441	109
217	472	479
218	7	792
219	870	554
220	178	231
221	63	709
222	199	444
223	437	225
224	891	413
225	719	941
226	733	981
227	95	751
228	771	652
229	144	485
230	779	936
231	224	586
232	717	500
233	929	165
234	957	941
235	445	618
236	460	479
237	804	926
238	461	930
239	906	172
240	267	779
241	785	117
242	869	310
243	489	330
244	981	278
245	262	656
246	912	41
247	193	112
248	996	236
249	789	850
250	780	816
251	940	298
252	593	454
253	551	117
254	515	989
255	424	129
256	818	251
257	793	55
258	921	523
259	587	675
260	669	748
261	843	612
262	522	886
263	749	401
264	803	386
265	597	76
266	270	444
267	177	949
268	507	453
269	162	964
270	756	463
271	306	7
272	229	994
273	173	345
274	463	42
275	42	180
276	613	325
277	421	53
278	150	500
279	472	405
280	755	968
281	90	892
282	253	798
283	425	669
284	950	46
285	848	434
286	757	818
287	35	898
288	556	634
289	724	818
290	568	366
291	864	770
292	213	392
293	480	988
294	984	789
295	650	489
296	384	841
297	709	69
298	152	598
299	982	161
300	645	291
301	561	483
302	297	137
303	730	410
304	58	692
305	897	937
306	662	208
307	278	189
308	279	704
309	353	538
310	632	45
311	745	866
312	190	997
313	115	67
314	316	806
315	782	573
316	870	707
317	574	946
318	583	350
319	946	466
320	745	937
321	302	473
322	673	633
323	407	355
324	582	166
325	961	226
326	738	456
327	365	648
328	143	684
329	90	851
330	140	803
331	821	279
332	81	325
333	619	534
334	637	536
335	662	256
336	651	861
337	884	66
338	825	833
339	470	813
340	445	990
341	254	710
342	220	152
343	48	98
344	825	913
345	415	496
346	533	49
347	179	137
348	989	940
349	246	615
350	31	38
351	344	625
352	275	741
353	479	482
354	893	445
355	918	812
356	628	566
357	217	589
358	870	428
359	676	616
360	72	109
361	41	390
362	868	922
363	481	396
364	556	964
365	170	922
366	869	834
367	284	52
368	933	242
369	449	899
370	737	153
371	107	86
372	900	182
373	868	466
374	780	729
375	922	248
376	367	46
377	466	205
378	495	167
379	200	931
380	720	951
381	297	989
382	702	909
383	853	917
384	790	927
385	97	358
386	317	352
387	789	549
388	115	220
389	41	607
390	155	245
391	949	47
392	285	793
393	800	954
394	607	510
395	833	199
396	56	289
397	929	114
398	906	723
399	7	783
400	364	567
401	69	692
402	141	876
403	708	890
404	437	432
405	247	520
406	988	334
407	801	486
408	400	852
409	791	852
410	830	931
411	174	451
412	638	435
413	783	527
414	546	443
415	714	277
416	180	351
417	766	159
418	598	371
419	112	181
420	429	194
421	256	806
422	196	356
423	453	637
424	230	766
425	981	856
426	661	70
427	877	398
428	583	364
429	856	707
430	490	139
431	315	605
432	664	897
433	40	144
434	295	160
435	239	932
436	665	74
437	272	578
438	653	188
439	311	912
440	664	921
441	126	656
442	115	298
443	44	539
444	99	308
445	292	333
446	377	201
447	879	515
448	161	684
449	162	776
450	710	698
451	342	967
452	980	593
453	489	835
454	918	423
455	215	335
456	31	978
457	901	795
458	523	691
459	540	549
460	686	860
461	783	788
462	928	128
463	982	985
464	627	668
465	435	517
466	484	877
467	569	741
468	497	326
469	778	392
470	220	992
471	824	599
472	183	153
473	842	850
474	238	359
475	269	526
476	537	790
477	201	658
478	88	479
479	978	405
480	562	929
481	25	520
482	442	152
483	261	371
484	27	475
485	808	809
486	368	69
487	13	501
488	834	60
489	967	851
490	344	770
491	533	17
492	224	187
493	385	904
494	529	584
495	579	313
496	199	560
497	751	668
498	349	709
499	559	517
500	592	274
501	949	253
502	786	696
503	666	854
504	691	228
505	885	220
506	125	622
507	413	395
508	98	856
509	748	570
510	361	965
511	618	8
512	987	571
513	324	402
514	622	644
515	675	589
516	583	973
517	803	804
518	153	208
519	589	546
520	731	597
521	296	317
522	229	175
523	346	865
524	175	123
525	11	348
526	836	484
527	318	509
528	160	445
529	542	192
530	954	680
531	38	645
532	582	211
533	138	256
534	794	311
535	494	654
536	64	441
537	765	702
538	464	333
539	876	211
540	595	69
541	454	968
542	708	648
543	534	933
544	708	732
545	700	871
546	92	832
547	468	284
548	318	109
549	47	811
550	877	975
551	153	427
552	410	461
553	453	451
554	389	350
555	90	727
556	144	804
557	50	714
558	149	281
559	207	8
560	54	999
561	44	132
562	724	521
563	6	877
564	365	240
565	102	249
566	257	370
567	666	160
568	121	908
569	556	721
570	163	697
571	151	737
572	707	209
573	494	232
574	222	711
575	52	782
576	209	64
577	25	898
578	260	430
579	128	28
580	468	640
581	985	738
582	427	763
583	362	869
584	542	882
585	353	353
586	242	282
587	224	569
588	479	719
589	190	149
590	235	43
591	180	694
592	402	725
593	319	699
594	856	553
595	293	400
596	922	85
597	75	36
598	318	12
599	520	199
600	25	298
601	381	452
602	16	477
603	203	805
604	536	454
605	75	162
606	578	305
607	299	616
608	625	682
609	857	369
610	950	102
611	382	87
612	93	810
613	988	587
614	1000	67
615	506	103
616	857	116
617	655	123
618	180	959
619	592	890
620	581	349
621	886	947
622	673	973
623	238	406
624	130	473
625	498	975
626	529	843
627	790	390
628	630	808
629	242	844
630	555	660
631	655	330
632	612	236
633	359	733
634	275	722
635	698	503
636	761	92
637	843	872
638	538	294
639	170	194
640	33	388
641	33	260
642	193	424
643	711	305
644	732	666
645	811	905
646	996	380
647	757	468
648	735	799
649	209	984
650	100	589
651	130	149
652	418	781
653	492	757
654	685	710
655	190	765
656	737	594
657	338	808
658	170	621
659	470	737
660	764	750
661	423	597
662	326	850
663	598	241
664	691	355
665	201	972
666	436	321
667	526	766
668	849	934
669	600	483
670	756	640
671	11	676
672	197	825
673	734	903
674	682	478
675	183	67
676	366	610
677	51	863
678	273	778
679	944	485
680	952	954
681	584	96
682	177	403
683	604	236
684	721	943
685	180	279
686	12	27
687	914	840
688	850	228
689	271	663
690	771	792
691	94	316
692	554	866
693	763	860
694	794	328
695	668	414
696	546	439
697	196	520
698	260	329
699	67	814
700	10	919
701	18	701
702	807	989
703	203	425
704	158	389
705	66	491
706	992	90
707	143	947
708	926	374
709	556	799
710	226	221
711	388	376
712	662	924
713	832	998
714	74	680
715	807	826
716	38	80
717	213	362
718	294	861
719	735	620
720	886	456
721	452	409
722	331	643
723	878	817
724	885	735
725	889	224
726	175	172
727	378	329
728	211	907
729	864	598
730	348	179
731	183	513
732	474	829
733	127	430
734	678	580
735	541	322
736	953	550
737	253	623
738	775	707
739	799	469
740	792	496
741	750	500
742	437	779
743	545	537
744	364	337
745	68	757
746	397	261
747	12	25
748	649	640
749	265	837
750	639	465
751	651	557
752	974	187
753	991	163
754	896	222
755	798	818
756	962	69
757	413	631
758	886	629
759	972	600
760	939	90
761	643	83
762	219	698
763	56	246
764	672	308
765	758	241
766	250	375
767	119	625
768	115	138
769	257	56
770	419	578
771	79	523
772	751	714
773	608	383
774	524	62
775	675	530
776	517	850
777	799	545
778	341	776
779	550	32
780	175	68
781	971	495
782	572	438
783	554	102
784	78	379
785	635	479
786	77	341
787	972	396
788	288	34
789	180	62
790	730	413
791	573	622
792	753	331
793	823	362
794	672	564
795	174	1
796	157	933
797	395	802
798	956	999
799	35	484
800	601	747
801	94	968
802	749	649
803	54	244
804	319	257
805	992	212
806	774	842
807	366	828
808	906	173
809	240	845
810	682	672
811	65	521
812	114	908
813	334	606
814	362	104
815	451	964
816	39	449
817	700	390
818	839	726
819	135	529
820	856	956
821	11	113
822	490	570
823	109	362
824	357	480
825	222	932
826	565	31
827	718	514
828	981	570
829	248	600
830	741	671
831	324	742
832	453	393
833	192	176
834	848	581
835	136	844
836	970	475
837	295	505
838	523	653
839	478	869
840	276	742
841	996	48
842	286	173
843	58	804
844	317	563
845	355	603
846	561	204
847	34	889
848	139	63
849	604	971
850	865	91
851	898	467
852	758	261
853	344	552
854	789	584
855	354	945
856	215	61
857	704	315
858	484	899
859	376	831
860	837	816
861	654	77
862	843	567
863	63	949
864	833	66
865	993	566
866	477	707
867	721	554
868	178	482
869	503	797
870	142	405
871	922	443
872	341	247
873	535	82
874	503	886
875	618	579
876	610	914
877	745	574
878	207	405
879	492	645
880	48	323
881	736	746
882	154	80
883	855	618
884	48	990
885	391	830
886	370	321
887	687	471
888	985	360
889	666	313
890	208	328
891	176	80
892	826	241
893	455	597
894	405	385
895	947	381
896	385	429
897	351	234
898	422	705
899	600	518
900	544	900
901	811	543
902	196	914
903	278	24
904	64	756
905	195	188
906	694	662
907	516	791
908	199	662
909	947	785
910	806	362
911	565	470
912	640	803
913	385	654
914	572	850
915	293	99
916	286	457
917	471	864
918	689	778
919	711	690
920	895	662
921	426	176
922	923	729
923	145	428
924	145	450
925	982	363
926	218	703
927	845	842
928	393	315
929	229	660
930	157	140
931	941	371
932	554	816
933	700	978
934	202	107
935	791	540
936	948	777
937	452	175
938	818	577
939	755	490
940	374	678
941	137	219
942	351	357
943	230	348
944	459	761
945	65	46
946	115	167
947	46	858
948	872	69
949	211	713
950	558	374
951	638	186
952	327	13
953	119	567
954	903	467
955	466	678
956	765	273
957	219	464
958	428	50
959	678	186
960	19	991
961	402	693
962	408	768
963	450	765
964	785	890
965	833	468
966	194	779
967	741	903
968	600	372
969	348	422
970	853	855
971	998	971
972	303	959
973	193	279
974	381	912
975	753	164
976	74	890
977	396	158
978	854	377
979	83	541
980	226	66
981	834	838
982	40	353
983	730	543
984	291	752
985	81	460
986	93	230
987	430	870
988	898	100
989	582	679
990	673	742
991	793	737
992	153	594
993	316	492
994	13	418
995	286	717
996	55	718
997	858	38
998	256	167
999	296	574
1000	492	960
1001	614	941
DEMAND_SECTION
1	0
2	9
3	1
4	5
5	5
6	5
7	4
8	4
9	4
10	8
11	8
12	1
13	1
14	2
15	6
16	2
17	5
18	8
19	5
20	3
21	7
22	4
23	1
24	5
25	5
26	5
27	2
28	7
29	5
30	1
31	4
32	8
33	7
34	8
35	3
36	1
37	9
38	5
39	4
40	4
41	1
42	2
43	7
44	1
45	2
46	5
47	6
48	4
49	7
50	4
51	2
52	9
53	6
54	1
55	6
56	6
57	5
58	4
59	2
60	6
61	1
62	2
63	5
64	8
65	2
66	8
67	4
68	3
69	1
70	5
71	9
72	6
73	8
74	4
75	4
76	1
77	6
78	7
79	1
80	8
81	1
82	6
83	1
84	3
85	3
86	4
87	5
88	1
89	5
90	5
91	5
92	5
93	8
94	8
95	1
96	8
97	8
98	6
99	9
100	3
101	5
102	7
103	8
104	4
105	9
106	8
107	1
108	6
109	4
110	3
111	1
112	3
113	4
114	8
115	5
116	4
117	2
118	1
119	8
120	1
121	9
122	6
123	7
124	6
125	7
126	6
127	8
128	4
129	5
130	1
131	4
132	3
133	5
134	9
135	8
136	5
137	7
138	6
139	1
140	9
141	8
142	5
143	2
144	2
145	3
146	1
147	7
148	4
149	9
150	8
151	5
152	3
153	8
154	3
155	1
156	3
157	2
158	8
159	7
160	9
161	3
162	3
163	5
164	6
165	7
166	5
167	8
168	7
169	1
170	1
171	7
172	1
173	3
174	2
175	6
176	5
177	7
178	7
179	2
180	3
181	8
182	1
183	5
184	5
185	3
186	3
187	8
188	2
189	4
190	6
191	7
192	8
193	7
194	4
195	1
196	3
197	3
198	5
199	7
200	9
201	6
202	7
203	9
204	9
205	5
206	5
207	3
208	2
209	7
210	9
211	6
212	5
213	2
214	9
215	6
216	3
217	9
218	2
219	2
220	3
221	4
222	6
223	1
224	7
225	7
226	4
227	5
228	9
229	5
230	7
231	3
232	8
233	9
234	2
235	5
236	2
237	1
238	2
239	3
240	8
241	9
242	3
243	7
244	9
245	7
246	2
247	8
248	7
249	2
250	8
251	2
252	1
253	7
254	5
255	3
256	4
257	6
258	2
259	6
260	7
261	3
262	3
263	4
264	9
265	7
266	1
267	8
268	7
269	1
270	2
271	6
272	1
273	8
274	8
275	3
276	8
277	8
278	1
279	1
280	9
281	5
282	6
283	4
284	3
285	1
286	5
287	8
288	4
289	5
290	8
291	1
292	7
293	6
294	7
295	9
296	4
297	5
298	2
299	2
300	2
301	8
302	5
303	5
304	8
305	3
306	8
307	5
308	2
309	2
310	8
311	3
312	9
313	9
314	5
315	8
316	7
317	2
318	8
319	9
320	2
321	7
322	8
323	3
324	2
325	5
326	1
327	4
328	5
329	7
330	8
331	1
332	2
333	9
334	1
335	1
336	3
337	4
338	3
339	3
340	2
341	2
342	9
343	9
344	2
345	1
346	8
347	2
348	3
349	7
350	5
351	2
352	4
353	4
354	2
355	1
356	1
357	2
358	4
359	7
360	4
361	2
362	4
363	4
364	9
365	1
366	6
367	6
368	7
369	5
370	6
371	8
372	1
373	5
374	3
375	4
376	5
377	7
378	3
379	1
380	3
381	6
382	6
383	2
384	8
385	4
386	5
387	7
388	3
389	4
390	6
391	4
392	1
393	5
394	2
395	6
396	1
397	8
398	2
399	9
400	9
401	8
402	7
403	9
404	3
405	4
406	2
407	9
408	2
409	7
410	1
411	5
412	1
413	3
414	1
415	6
416	3
417	3
418	2
419	7
420	1
421	1
422	4
423	3
424	6
425	9
426	7
427	8
428	4
429	3
430	9
431	8
432	9
433	7
434	4
435	4
436	1
437	3
438	1
439	1
440	1
441	4
442	9
443	4
444	2
445	5
446	8
447	3
448	7
449	2
450	6
451	6
452	4
453	2
454	8
455	4
456	9
457	6
458	9
459	1
460	2
461	9
462	1
463	8
464	4
465	5
466	9
467	3
468	7
469	3
470	4
471	7
472	7
473	1
474	5
475	6
476	6
477	3
478	5
479	4
480	2
481	3
482	5
483	1
484	9
485	5
486	1
487	1
488	6
489	6
490	3
491	6
492	5
493	5
494	9
495	3
496	7
497	5
498	7
499	2
500	8
501	7
502	6
503	7
504	8
505	6
506	1
507	3
508	5
509	1
510	7
511	1
512	6
513	4
514	8
515	8
516	8
517	1
518	9
519	4
520	3
521	6
522	6
523	8
524	7
525	2
526	6
527	6
528	7
529	9
530	1
531	7
532	9
533	1
534	7
535	1
536	2
537	5
538	2
539	7
540	3
541	1
542	2
543	1
544	5
545	3
546	2
547	6
548	5
549	3
550	1
551	1
552	1
553	8
554	8
555	8
556	6
557	1
558	4
559	4
560	4
561	7
562	8
563	2
564	6
565	8
566	7
567	4
568	2
569	7
570	8
571	5
572	9
573	4
574	4
575	2
576	2
577	9
578	6
579	2
580	1
581	7
582	1
583	4
584	4
585	5
586	6
587	2
588	1
589	4
590	9
591	3
592	5
593	1
594	7
595	1
596	7
597	5
598	6
599	9
600	5
601	1
602	6
603	2
604	5
605	4
606	1
607	8
608	6
609	7
610	7
611	3
612	4
613	6
614	9
615	2
616	4
617	4
618	3
619	9
620	4
621	4
622	9
623	9
624	9
625	8
626	3
627	5
628	5
629	5
630	8
631	8
632	7
633	1
634	8
635	1
636	8
637	3
638	2
639	1
640	4
641	2
642	8
643	8
644	9
645	2
646	3
647	4
648	2
649	7
650	5
651	9
652	7
653	1
654	2
655	1
656	6
657	1
658	1
659	7
660	3
661	8
662	8
663	9
664	6
665	7
666	3
667	7
668	4
669	4
670	8
671	3
672	2
673	5
674	1
675	2
676	7
677	2
678	6
679	5
680	2
681	6
682	9
683	9
684	9
685	3
686	3
687	1
688	3
689	8
690	6
691	6
692	5
693	8
694	4
695	2
696	5
697	5
698	4
699	2
700	9
701	1
702	5
703	4
704	7
705	5
706	3
707	6
708	6
709	9
710	3
711	6
712	6
713	2
714	2
715	2
716	4
717	2
718	1
719	7
720	2
721	8
722	5
723	6
724	6
725	9
726	6
727	7
728	2
729	4
730	2
731	5
732	4
733	5
734	7
735	2
736	1
737	6
738	1
739	3
740	8
741	3
742	3
743	2
744	7
745	5
746	5
747	3
748	7
749	6
750	3
751	1
752	6
753	1
754	3
755	8
756	3
757	9
758	7
759	7
760	8
761	6
762	3
763	9
764	1
765	3
766	2
767	9
768	7
769	5
770	3
771	6
772	6
773	9
774	1
775	1
776	3
777	4
778	2
779	2
780	2
781	2
782	1
783	6
784	4
785	3
786	8
787	3
788	4
789	6
790	5
791	6
792	7
793	4
794	9
795	7
796	1
797	8
798	1
799	4
800	4
801	6
802	5
803	8
804	1
805	1
806	9
807	4
808	4
809	9
810	1
811	8
812	6
813	3
814	1
815	5
816	1
817	5
818	8
819	3
820	4
821	6
822	5
823	9
824	2
825	3
826	5
827	3
828	9
829	3
830	5
831	5
832	5
833	8
834	9
835	8
836	2
837	7
838	9
839	7
840	8
841	8
842	2
843	7
844	8
845	3
846	5
847	3
848	9
849	6
850	4
851	8
852	3
853	6
854	4
855	8
856	8
857	9
858	4
859	8
860	2
861	1
862	7
863	4
864	1
865	7
866	8
867	7
868	4
869	1
870	7
871	6
872	5
873	4
874	3
875	3
876	8
877	3
878	5
879	7
880	9
881	3
882	6
883	2
884	4
885	9
886	1
887	3
888	3
889	9
890	4
891	9
892	7
893	5
894	3
895	1
896	3
897	1
898	7
899	8
900	2
901	6
902	1
903	6
904	6
905	5
906	8
907	3
908	4
909	3
910	1
911	6
912	8
913	3
914	7
915	2
916	9
917	6
918	2
919	5
920	2
921	6
922	3
923	1
924	8
925	8
926	2
927	8
928	6
929	5
930	9
931	6
932	6
933	5
934	5
935	9
936	7
937	3
938	2
939	5
940	1
941	5
942	5
943	8
944	7
945	7
946	2
947	3
948	1
949	1
950	6
951	6
952	3
953	5
954	4
955	7
956	5
957	7
958	4
959	3
960	8
961	2
962	3
963	2
964	7
965	6
966	4
967	3
968	1
969	4
970	1
971	6
972	1
973	4
974	4
975	9
976	5
977	1
978	3
979	5
980	5
981	6
982	7
983	2
984	4
985	5
986	8
987	4
988	9
989	1
990	4
991	4
992	7
993	5
994	5
995	8
996	9
997	6
998	2
999	6
1000	4
1001	7
BACKHAUL_SECTION
10	13	28	29	38	52	55	57	60	66	72	75	81	95	98	109	112	114	116	126	127	153	164	168	169	184	186	191	198	201	205	206	211	215	217	218	231	242	245	246	247	249	253	255	257	262	266	284	287	289	293	298	299	300	303	306	322	332	340	347	349	355	363	365	366	376	377	378	390	392	396	397	398	400	406	409	414	418	423	431	438	443	451	456	466	474	480	483	487	498	499	510	519	526	532	547	548	553	555	556	559	564	567	568	573	576	578	583	588	594	595	596	603	608	613	615	620	622	629	640	641	649	655	681	686	689	694	696	701	704	707	718	719	720	722	723	731	734	736	740	746	747	752	757	772	773	774	781	783	797	811	813	814	816	817	818	836	842	844	854	855	862	863	865	872	873	875	881	891	893	894	896	897	898	903	909	915	916	922	923	928	930	931	934	936	938	941	951	953	954	958	974	982	984	985	987	988	990	993	995	-1
DEPOT_SECTION
1
-1
EOF
