NAME : n1001-0027
COMMENT : "Generated by pyvrp_manuel (OVRPB)"
TYPE : OVRPB
DIMENSION : 1001
EDGE_WEIGHT_TYPE : EUC_2D
CAPACITY : 150
VEHICLES : 1000
OPEN_ROUTE : YES
NODE_COORD_SECTION
1	537	379
2	319	842
3	289	616
4	570	803
5	555	698
6	685	542
7	73	664
8	291	578
9	832	747
10	942	972
11	639	463
12	30	841
13	126	757
14	30	688
15	296	385
16	154	264
17	629	66
18	566	613
19	731	644
20	280	299
21	356	786
22	555	508
23	719	689
24	569	116
25	447	343
26	302	498
27	478	752
28	392	124
29	109	105
30	303	514
31	237	47
32	857	26
33	393	80
34	342	543
35	917	694
36	956	367
37	43	819
38	367	481
39	762	267
40	189	764
41	404	553
42	111	469
43	365	255
44	345	587
45	394	771
46	320	830
47	542	59
48	639	857
49	188	23
50	121	449
51	615	920
52	523	748
53	907	792
54	121	733
55	432	839
56	944	336
57	284	419
58	174	551
59	433	268
60	583	274
61	544	254
62	49	155
63	857	547
64	599	168
65	144	196
66	635	218
67	122	475
68	791	679
69	540	791
70	365	945
71	298	21
72	810	846
73	771	666
74	253	930
75	593	449
76	849	907
77	755	346
78	530	725
79	330	302
80	261	158
81	211	709
82	610	356
83	686	119
84	43	130
85	836	951
86	596	938
87	662	969
88	260	784
89	175	954
90	305	893
91	43	815
92	794	420
93	694	493
94	53	362
95	565	824
96	349	550
97	780	19
98	362	822
99	999	517
100	855	703
101	835	331
102	205	263
103	855	765
104	937	200
105	297	122
106	166	919
107	604	487
108	837	428
109	235	44
110	620	851
111	301	837
112	231	975
113	402	55
114	799	418
115	906	121
116	483	189
117	196	42
118	731	216
119	806	581
120	874	540
121	753	958
122	596	398
123	706	773
124	954	481
125	485	4
126	119	203
127	957	455
128	265	671
129	945	494
130	798	146
131	586	275
132	958	985
133	132	264
134	506	880
135	782	24
136	499	260
137	231	432
138	701	308
139	305	143
140	316	169
141	548	447
142	594	53
143	914	265
144	473	75
145	528	778
146	834	170
147	186	299
148	762	829
149	303	240
150	101	56
151	815	844
152	744	404
153	942	258
154	928	250
155	702	693
156	504	476
157	353	413
158	288	659
159	592	486
160	33	287
161	730	138
162	173	575
163	467	677
164	247	500
165	582	92
166	863	175
167	739	445
168	816	432
169	734	271
170	580	626
171	975	828
172	462	161
173	806	201
174	434	149
175	648	4
176	346	743
177	206	75
178	351	623
179	947	296
180	748	29
181	548	843
182	772	245
183	564	479
184	184	388
185	829	445
186	557	515
187	542	229
188	59	540
189	434	816
190	906	8
191	697	407
192	935	388
193	180	850
194	714	294
195	849	641
196	807	379
197	983	706
198	489	730
199	141	125
200	542	152
201	293	318
202	29	282
203	464	421
204	239	430
205	865	890
206	227	112
207	780	158
208	204	92
209	546	212
210	60	758
211	655	217
212	388	67
213	787	798
214	366	750
215	235	156
216	459	817
217	41	667
218	723	251
219	321	72
220	432	724
221	282	847
222	879	420
223	420	949
224	525	937
225	260	240
226	784	713
227	730	880
228	636	378
229	387	553
230	987	887
231	462	99
232	748	761
233	438	81
234	602	811
235	165	416
236	716	317
237	654	774
238	697	412
239	84	319
240	898	26
241	989	160
242	968	335
243	505	494
244	54	724
245	911	225
246	348	557
247	500	865
248	453	99
249	413	133
250	546	266
251	502	687
252	835	694
253	828	204
254	983	747
255	14	515
256	610	796
257	605	168
258	974	86
259	4	703
260	795	308
261	935	284
262	484	316
263	132	316
264	498	588
265	937	131
266	411	208
267	109	902
268	958	33
269	207	422
270	440	712
271	428	540
272	794	445
273	597	8
274	842	151
275	628	351
276	549	429
277	20	563
278	598	621
279	614	6
280	781	112
281	878	902
282	115	658
283	920	151
284	648	489
285	823	157
286	396	827
287	351	575
288	768	456
289	550	764
290	535	826
291	740	323
292	349	426
293	112	496
294	736	729
295	237	793
296	763	305
297	303	772
298	131	515
299	869	622
300	417	530
301	509	181
302	693	113
303	289	778
304	721	601
305	626	837
306	999	921
307	985	598
308	695	729
309	911	367
310	108	431
311	660	893
312	22	793
313	519	185
314	897	280
315	43	285
316	11	221
317	40	170
318	590	503
319	629	747
320	857	105
321	238	735
322	320	862
323	849	724
324	823	453
325	958	60
326	414	230
327	379	532
328	94	893
329	398	877
330	935	858
331	804	287
332	938	590
333	739	848
334	428	849
335	927	595
336	786	189
337	647	658
338	303	304
339	902	537
340	788	849
341	882	452
342	247	849
343	706	555
344	187	913
345	275	193
346	79	754
347	451	574
348	244	57
349	414	262
350	603	999
351	712	493
352	146	932
353	10	424
354	530	324
355	847	979
356	267	87
357	203	515
358	925	429
359	908	783
360	83	998
361	785	96
362	886	765
363	840	257
364	256	367
365	564	96
366	227	531
367	973	622
368	101	195
369	799	214
370	981	538
371	945	354
372	992	49
373	534	204
374	223	396
375	833	485
376	432	121
377	407	215
378	746	496
379	413	329
380	598	453
381	60	538
382	145	545
383	904	477
384	91	62
385	14	80
386	180	833
387	987	906
388	339	33
389	503	400
390	164	310
391	465	398
392	44	264
393	942	774
394	982	892
395	167	740
396	241	818
397	91	274
398	623	774
399	691	184
400	949	645
401	718	185
402	108	812
403	257	545
404	318	646
405	441	26
406	960	570
407	17	157
408	88	665
409	138	43
410	313	770
411	544	720
412	385	202
413	35	859
414	503	274
415	293	710
416	420	0
417	576	893
418	989	596
419	263	918
420	562	860
421	920	28
422	465	665
423	91	614
424	617	80
425	726	627
426	713	603
427	669	740
428	900	446
429	634	183
430	303	710
431	512	284
432	818	239
433	589	769
434	427	789
435	748	378
436	4	673
437	521	799
438	829	864
439	239	960
440	114	48
441	329	921
442	412	857
443	918	131
444	937	876
445	241	330
446	926	221
447	332	45
448	731	657
449	612	103
450	875	564
451	311	912
452	208	883
453	1000	542
454	800	929
455	727	53
456	128	610
457	225	528
458	480	721
459	89	162
460	395	559
461	644	251
462	451	825
463	789	744
464	258	377
465	544	377
466	546	411
467	39	913
468	548	240
469	26	650
470	861	400
471	158	131
472	645	347
473	191	742
474	957	802
475	954	306
476	310	713
477	789	936
478	959	476
479	895	905
480	378	540
481	570	505
482	296	688
483	409	74
484	930	929
485	710	243
486	877	730
487	645	781
488	331	397
489	411	806
490	871	35
491	103	868
492	659	518
493	594	151
494	265	536
495	430	50
496	831	60
497	36	957
498	100	44
499	317	37
500	447	795
501	905	866
502	993	343
503	208	601
504	873	221
505	553	225
506	984	449
507	76	982
508	943	519
509	936	37
510	688	867
511	740	800
512	636	140
513	202	946
514	110	521
515	673	155
516	904	516
517	129	475
518	203	792
519	765	40
520	14	996
521	432	960
522	206	766
523	544	199
524	980	401
525	349	536
526	350	331
527	556	311
528	664	509
529	880	751
530	655	120
531	507	291
532	884	532
533	796	595
534	640	699
535	651	452
536	335	774
537	873	900
538	422	780
539	632	225
540	605	796
541	948	826
542	555	600
543	641	531
544	335	571
545	200	198
546	585	986
547	517	706
548	932	699
549	560	907
550	862	354
551	44	5
552	884	813
553	380	807
554	518	149
555	823	466
556	724	716
557	251	682
558	750	739
559	928	57
560	992	710
561	568	134
562	693	54
563	636	16
564	38	717
565	703	89
566	408	266
567	880	724
568	577	529
569	179	699
570	228	447
571	375	513
572	777	391
573	405	782
574	564	603
575	342	673
576	469	670
577	230	101
578	465	919
579	862	529
580	469	570
581	701	542
582	514	733
583	101	980
584	874	212
585	401	619
586	173	17
587	829	367
588	475	150
589	740	367
590	998	985
591	699	893
592	931	142
593	45	26
594	902	587
595	664	241
596	249	978
597	752	517
598	813	551
599	868	87
600	804	672
601	410	369
602	236	884
603	248	459
604	274	779
605	492	885
606	422	704
607	281	861
608	996	672
609	326	652
610	908	137
611	391	732
612	995	814
613	711	834
614	574	329
615	176	466
616	402	13
617	97	346
618	170	91
619	535	426
620	382	21
621	781	482
622	108	102
623	417	838
624	174	265
625	643	255
626	175	106
627	70	4
628	940	317
629	670	88
630	258	631
631	695	457
632	313	483
633	827	133
634	802	490
635	338	889
636	250	167
637	372	654
638	808	316
639	722	772
640	822	477
641	504	445
642	565	865
643	538	481
644	79	437
645	781	870
646	254	273
647	81	132
648	515	300
649	883	397
650	703	348
651	340	593
652	542	24
653	484	588
654	388	852
655	630	218
656	774	953
657	94	609
658	366	65
659	658	522
660	669	536
661	886	399
662	652	801
663	249	510
664	819	409
665	495	831
666	736	764
667	896	856
668	261	286
669	896	269
670	563	410
671	564	514
672	629	729
673	762	523
674	478	59
675	737	613
676	894	323
677	982	405
678	690	612
679	632	526
680	404	719
681	269	636
682	620	120
683	58	736
684	753	868
685	182	743
686	779	768
687	635	320
688	420	333
689	402	982
690	880	246
691	336	937
692	377	898
693	581	401
694	648	46
695	363	51
696	516	357
697	116	149
698	673	985
699	192	829
700	938	185
701	466	84
702	345	746
703	92	941
704	912	642
705	388	650
706	731	902
707	480	192
708	889	697
709	738	73
710	862	164
711	703	97
712	657	350
713	351	792
714	280	596
715	314	437
716	382	77
717	635	31
718	647	472
719	175	299
720	519	439
721	66	484
722	772	489
723	907	556
724	114	154
725	698	486
726	358	916
727	543	83
728	304	661
729	828	572
730	579	556
731	986	952
732	102	724
733	70	364
734	887	365
735	377	657
736	30	638
737	690	816
738	849	922
739	347	248
740	605	148
741	59	572
742	721	926
743	48	406
744	424	109
745	8	49
746	978	380
747	348	647
748	167	510
749	786	222
750	669	50
751	246	488
752	815	186
753	728	155
754	939	392
755	703	628
756	735	145
757	29	804
758	980	948
759	895	763
760	199	726
761	26	161
762	321	136
763	673	163
764	219	745
765	749	43
766	425	856
767	167	223
768	7	65
769	855	207
770	21	134
771	809	445
772	15	314
773	870	29
774	46	7
775	200	805
776	396	99
777	995	728
778	115	99
779	54	710
780	513	333
781	98	196
782	911	744
783	376	978
784	540	998
785	171	30
786	422	124
787	798	46
788	399	828
789	200	243
790	143	47
791	371	317
792	810	9
793	783	466
794	161	19
795	750	387
796	391	528
797	621	933
798	243	573
799	322	5
800	829	583
801	910	498
802	907	941
803	650	859
804	146	858
805	264	502
806	666	660
807	960	425
808	344	29
809	123	664
810	261	5
811	456	818
812	99	134
813	191	555
814	13	148
815	75	145
816	455	842
817	296	316
818	198	565
819	193	58
820	936	510
821	187	206
822	638	984
823	601	905
824	805	170
825	15	98
826	71	39
827	169	665
828	827	127
829	13	930
830	286	474
831	737	168
832	892	446
833	753	930
834	307	603
835	181	993
836	825	503
837	491	907
838	474	675
839	531	285
840	791	275
841	531	514
842	888	885
843	909	151
844	224	179
845	895	547
846	717	124
847	956	334
848	3	389
849	602	370
850	90	928
851	471	240
852	259	82
853	396	440
854	316	871
855	918	272
856	266	728
857	492	43
858	981	934
859	145	498
860	211	231
861	749	355
862	770	393
863	617	142
864	514	189
865	682	643
866	477	319
867	939	694
868	465	841
869	610	192
870	44	785
871	363	62
872	200	727
873	252	435
874	57	57
875	504	257
876	13	814
877	171	635
878	749	211
879	615	120
880	449	277
881	496	383
882	119	568
883	167	199
884	460	236
885	817	790
886	207	894
887	691	326
888	412	17
889	416	506
890	134	897
891	324	748
892	594	804
893	999	875
894	105	879
895	979	929
896	826	148
897	889	368
898	769	976
899	520	980
900	441	683
901	436	542
902	493	625
903	909	202
904	845	230
905	996	309
906	116	174
907	20	506
908	706	341
909	879	599
910	233	967
911	118	141
912	851	143
913	901	761
914	864	240
915	736	841
916	755	593
917	263	764
918	374	576
919	169	573
920	645	507
921	357	278
922	174	54
923	251	710
924	812	226
925	979	566
926	551	439
927	771	250
928	496	343
929	958	286
930	638	624
931	243	111
932	763	150
933	411	126
934	192	880
935	440	86
936	850	619
937	410	862
938	925	796
939	505	154
940	246	264
941	697	410
942	954	527
943	39	953
944	145	860
945	788	904
946	290	68
947	853	178
948	134	859
949	51	872
950	19	52
951	189	405
952	609	983
953	637	33
954	419	479
955	459	440
956	846	872
957	686	919
958	756	918
959	713	790
960	627	222
961	541	209
962	992	909
963	685	640
964	156	437
965	244	163
966	9	218
967	349	311
968	489	9
969	870	909
970	9	629
971	621	476
972	701	284
973	121	329
974	115	625
975	426	752
976	724	176
977	842	849
978	60	551
979	299	582
980	369	751
981	137	454
982	458	311
983	896	218
984	558	65
985	594	233
986	650	27
987	80	780
988	923	533
989	525	265
990	296	534
991	333	91
992	439	225
993	740	27
994	147	38
995	742	885
996	621	298
997	507	906
998	593	716
999	196	39
1000	323	347
1001	905	740
DEMAND_SECTION
1	0
2	3
3	5
4	3
5	5
6	6
7	3
8	2
9	6
10	9
11	9
12	1
13	8
14	2
15	9
16	8
17	4
18	6
19	1
20	6
21	3
22	9
23	8
24	8
25	9
26	5
27	4
28	7
29	2
30	8
31	5
32	6
33	8
34	8
35	3
36	7
37	4
38	4
39	1
40	7
41	4
42	9
43	5
44	3
45	3
46	7
47	8
48	6
49	7
50	9
51	5
52	4
53	7
54	4
55	2
56	6
57	2
58	5
59	6
60	3
61	2
62	5
63	6
64	4
65	8
66	7
67	1
68	5
69	7
70	5
71	5
72	5
73	6
74	4
75	1
76	2
77	5
78	7
79	6
80	3
81	6
82	4
83	2
84	6
85	4
86	4
87	1
88	6
89	1
90	5
91	6
92	4
93	8
94	8
95	5
96	6
97	3
98	2
99	1
100	6
101	1
102	5
103	3
104	3
105	2
106	8
107	4
108	3
109	5
110	6
111	9
112	4
113	5
114	6
115	1
116	2
117	3
118	8
119	2
120	8
121	1
122	3
123	2
124	9
125	2
126	1
127	1
128	7
129	1
130	6
131	1
132	2
133	8
134	4
135	2
136	5
137	3
138	1
139	6
140	7
141	1
142	9
143	6
144	8
145	3
146	6
147	6
148	4
149	1
150	4
151	5
152	5
153	1
154	9
155	8
156	6
157	2
158	2
159	4
160	7
161	9
162	3
163	4
164	9
165	9
166	7
167	4
168	3
169	2
170	3
171	9
172	5
173	4
174	4
175	9
176	3
177	2
178	4
179	3
180	5
181	6
182	2
183	8
184	2
185	8
186	8
187	8
188	3
189	4
190	6
191	9
192	6
193	2
194	6
195	4
196	6
197	3
198	1
199	7
200	4
201	5
202	4
203	9
204	6
205	5
206	2
207	6
208	3
209	2
210	7
211	8
212	4
213	4
214	3
215	8
216	8
217	2
218	8
219	7
220	3
221	6
222	6
223	9
224	3
225	9
226	9
227	4
228	3
229	6
230	8
231	6
232	2
233	8
234	7
235	8
236	5
237	8
238	3
239	9
240	8
241	9
242	8
243	2
244	4
245	6
246	7
247	3
248	1
249	8
250	9
251	2
252	9
253	4
254	1
255	9
256	1
257	6
258	9
259	9
260	3
261	5
262	2
263	2
264	8
265	4
266	1
267	3
268	4
269	2
270	8
271	3
272	4
273	4
274	6
275	7
276	6
277	1
278	3
279	4
280	9
281	1
282	2
283	8
284	4
285	8
286	3
287	5
288	9
289	6
290	4
291	9
292	5
293	8
294	8
295	4
296	8
297	1
298	6
299	2
300	6
301	6
302	1
303	7
304	2
305	7
306	5
307	7
308	6
309	5
310	7
311	5
312	9
313	6
314	2
315	7
316	4
317	5
318	6
319	9
320	5
321	3
322	8
323	2
324	2
325	8
326	2
327	7
328	4
329	8
330	4
331	7
332	3
333	5
334	4
335	3
336	8
337	5
338	8
339	7
340	9
341	3
342	6
343	3
344	4
345	4
346	4
347	1
348	5
349	3
350	8
351	6
352	5
353	9
354	5
355	2
356	8
357	2
358	1
359	3
360	8
361	6
362	9
363	6
364	3
365	8
366	1
367	3
368	9
369	3
370	2
371	5
372	6
373	7
374	5
375	2
376	4
377	3
378	7
379	7
380	4
381	7
382	9
383	8
384	1
385	2
386	7
387	3
388	8
389	4
390	7
391	8
392	9
393	9
394	1
395	3
396	5
397	8
398	5
399	8
400	1
401	3
402	5
403	1
404	8
405	8
406	6
407	8
408	1
409	2
410	1
411	4
412	2
413	2
414	9
415	1
416	1
417	2
418	3
419	6
420	8
421	7
422	3
423	3
424	5
425	4
426	1
427	9
428	6
429	7
430	2
431	7
432	2
433	8
434	1
435	4
436	2
437	9
438	2
439	5
440	1
441	3
442	5
443	2
444	2
445	4
446	7
447	9
448	3
449	6
450	8
451	8
452	6
453	4
454	3
455	5
456	2
457	5
458	1
459	9
460	2
461	8
462	2
463	4
464	1
465	2
466	3
467	9
468	1
469	1
470	8
471	6
472	9
473	5
474	1
475	3
476	6
477	5
478	5
479	1
480	5
481	8
482	6
483	4
484	2
485	8
486	8
487	7
488	5
489	7
490	2
491	7
492	1
493	7
494	9
495	4
496	9
497	9
498	9
499	5
500	7
501	5
502	6
503	7
504	2
505	4
506	8
507	6
508	6
509	7
510	8
511	5
512	4
513	7
514	9
515	2
516	9
517	3
518	1
519	4
520	1
521	4
522	8
523	5
524	8
525	6
526	4
527	3
528	2
529	2
530	5
531	3
532	5
533	8
534	4
535	3
536	6
537	2
538	3
539	6
540	5
541	3
542	7
543	9
544	6
545	5
546	7
547	6
548	9
549	8
550	2
551	7
552	2
553	4
554	6
555	5
556	9
557	2
558	9
559	8
560	2
561	8
562	4
563	1
564	9
565	8
566	8
567	4
568	8
569	6
570	5
571	4
572	1
573	6
574	5
575	4
576	8
577	8
578	5
579	7
580	9
581	5
582	6
583	2
584	8
585	7
586	1
587	4
588	2
589	5
590	9
591	8
592	9
593	5
594	9
595	7
596	4
597	2
598	8
599	9
600	7
601	1
602	8
603	4
604	7
605	6
606	2
607	2
608	1
609	4
610	5
611	1
612	5
613	7
614	7
615	4
616	5
617	3
618	4
619	8
620	8
621	9
622	5
623	9
624	2
625	8
626	1
627	7
628	4
629	7
630	3
631	9
632	1
633	7
634	3
635	6
636	6
637	2
638	1
639	5
640	4
641	4
642	3
643	2
644	7
645	8
646	5
647	4
648	8
649	3
650	2
651	6
652	6
653	2
654	9
655	2
656	4
657	5
658	8
659	8
660	2
661	9
662	8
663	8
664	3
665	7
666	9
667	9
668	8
669	1
670	9
671	9
672	4
673	8
674	5
675	8
676	5
677	2
678	4
679	7
680	7
681	2
682	5
683	4
684	7
685	6
686	8
687	7
688	9
689	8
690	9
691	2
692	7
693	1
694	7
695	6
696	7
697	4
698	6
699	8
700	2
701	4
702	2
703	2
704	7
705	4
706	6
707	8
708	9
709	9
710	3
711	8
712	5
713	9
714	9
715	8
716	5
717	6
718	1
719	6
720	1
721	4
722	3
723	1
724	9
725	4
726	8
727	7
728	2
729	3
730	6
731	2
732	6
733	7
734	5
735	5
736	1
737	6
738	2
739	7
740	3
741	5
742	8
743	7
744	2
745	9
746	2
747	5
748	4
749	5
750	6
751	2
752	7
753	9
754	9
755	5
756	9
757	1
758	6
759	1
760	4
761	9
762	4
763	2
764	5
765	6
766	1
767	7
768	9
769	8
770	1
771	6
772	2
773	7
774	9
775	2
776	4
777	1
778	6
779	7
780	8
781	3
782	7
783	7
784	9
785	7
786	6
787	4
788	2
789	2
790	6
791	7
792	2
793	7
794	4
795	4
796	5
797	3
798	2
799	1
800	4
801	3
802	6
803	2
804	3
805	4
806	5
807	2
808	3
809	9
810	9
811	8
812	3
813	5
814	3
815	4
816	6
817	8
818	4
819	6
820	6
821	6
822	4
823	3
824	1
825	8
826	6
827	7
828	7
829	8
830	6
831	2
832	7
833	3
834	9
835	1
836	2
837	3
838	3
839	6
840	2
841	9
842	7
843	6
844	2
845	9
846	7
847	8
848	2
849	1
850	5
851	1
852	6
853	6
854	3
855	4
856	8
857	4
858	5
859	7
860	7
861	3
862	8
863	5
864	8
865	7
866	1
867	9
868	8
869	6
870	2
871	6
872	8
873	5
874	3
875	4
876	8
877	6
878	9
879	3
880	5
881	7
882	4
883	9
884	3
885	4
886	6
887	9
888	4
889	5
890	5
891	2
892	9
893	1
894	8
895	9
896	6
897	5
898	9
899	6
900	4
901	2
902	1
903	1
904	2
905	5
906	8
907	5
908	6
909	5
910	2
911	8
912	5
913	9
914	4
915	7
916	4
917	8
918	2
919	3
920	9
921	9
922	2
923	7
924	6
925	2
926	6
927	4
928	5
929	6
930	7
931	7
932	5
933	9
934	2
935	7
936	1
937	1
938	2
939	2
940	6
941	5
942	3
943	9
944	7
945	3
946	1
947	7
948	5
949	8
950	8
951	6
952	6
953	3
954	4
955	5
956	5
957	8
958	4
959	4
960	3
961	1
962	3
963	3
964	1
965	1
966	8
967	8
968	2
969	5
970	2
971	9
972	6
973	9
974	9
975	4
976	3
977	4
978	7
979	1
980	3
981	2
982	9
983	4
984	8
985	7
986	8
987	6
988	8
989	5
990	3
991	5
992	4
993	8
994	7
995	7
996	4
997	4
998	6
999	3
1000	4
1001	2
BACKHAUL_SECTION
10	13	28	29	38	52	55	57	60	66	72	75	81	95	98	109	112	114	116	126	127	153	164	168	169	184	186	191	198	201	205	206	211	215	217	218	231	242	245	246	247	249	253	255	257	262	266	284	287	289	293	298	299	300	303	306	322	332	340	347	349	355	363	365	366	376	377	378	390	392	396	397	398	400	406	409	414	418	423	431	438	443	451	456	466	474	480	483	487	498	499	510	519	526	532	547	548	553	555	556	559	564	567	568	573	576	578	583	588	594	595	596	603	608	613	615	620	622	629	640	641	649	655	681	686	689	694	696	701	704	707	718	719	720	722	723	731	734	736	740	746	747	752	757	772	773	774	781	783	797	811	813	814	816	817	818	836	842	844	854	855	862	863	865	872	873	875	881	891	893	894	896	897	898	903	909	915	916	922	923	928	930	931	934	936	938	941	951	953	954	958	974	982	984	985	987	988	990	993	995	-1
DEPOT_SECTION
1
-1
EOF
