NAME : n1001-0014
COMMENT : "Generated by pyvrp_manuel (OVRPB)"
TYPE : OVRPB
DIMENSION : 1001
EDGE_WEIGHT_TYPE : EUC_2D
CAPACITY : 150
VEHICLES : 1000
OPEN_ROUTE : YES
NODE_COORD_SECTION
1	843	101
2	407	363
3	949	563
4	790	158
5	946	486
6	319	60
7	544	680
8	948	680
9	84	872
10	12	656
11	612	600
12	301	859
13	627	866
14	666	769
15	424	349
16	330	507
17	162	610
18	216	597
19	493	361
20	416	974
21	424	377
22	629	920
23	633	771
24	332	786
25	846	947
26	185	957
27	188	680
28	51	402
29	343	183
30	331	98
31	239	160
32	264	269
33	961	801
34	625	201
35	980	823
36	443	976
37	851	289
38	760	933
39	993	629
40	928	477
41	485	880
42	215	861
43	948	437
44	262	954
45	374	978
46	411	241
47	990	18
48	80	329
49	247	79
50	692	669
51	671	284
52	844	469
53	376	237
54	761	220
55	966	999
56	680	110
57	993	517
58	134	999
59	164	49
60	723	767
61	29	957
62	464	980
63	857	666
64	580	230
65	246	646
66	536	706
67	547	225
68	275	156
69	556	599
70	844	904
71	263	273
72	91	125
73	226	275
74	958	396
75	262	706
76	924	452
77	97	675
78	631	146
79	656	706
80	316	965
81	890	675
82	873	597
83	444	67
84	993	296
85	299	807
86	94	911
87	464	444
88	452	958
89	335	272
90	747	851
91	820	68
92	863	758
93	750	240
94	295	615
95	855	165
96	472	20
97	943	249
98	11	256
99	352	870
100	45	492
101	637	381
102	755	331
103	683	80
104	51	683
105	669	910
106	197	388
107	495	530
108	64	711
109	775	525
110	541	4
111	352	704
112	445	352
113	125	650
114	84	823
115	672	721
116	259	920
117	201	372
118	967	101
119	635	425
120	7	132
121	643	83
122	917	221
123	57	569
124	320	403
125	147	290
126	791	904
127	950	802
128	140	149
129	64	974
130	866	491
131	681	118
132	920	370
133	566	364
134	765	477
135	317	213
136	207	871
137	972	900
138	834	503
139	153	816
140	623	714
141	461	697
142	488	248
143	585	432
144	612	800
145	419	801
146	90	938
147	593	415
148	953	371
149	50	937
150	825	341
151	655	374
152	603	678
153	404	249
154	913	361
155	320	503
156	897	382
157	741	582
158	975	654
159	21	99
160	990	552
161	409	160
162	205	834
163	979	595
164	478	474
165	464	427
166	437	365
167	227	657
168	921	503
169	741	299
170	836	648
171	216	125
172	670	706
173	133	606
174	108	618
175	751	795
176	606	980
177	406	58
178	973	640
179	628	99
180	19	175
181	496	864
182	413	780
183	760	168
184	281	963
185	645	518
186	361	606
187	365	390
188	14	187
189	768	821
190	201	952
191	540	119
192	626	131
193	166	898
194	580	138
195	239	532
196	154	666
197	74	593
198	371	151
199	158	113
200	682	166
201	737	519
202	311	483
203	381	374
204	82	875
205	429	741
206	947	68
207	773	318
208	137	819
209	853	713
210	59	179
211	873	454
212	347	66
213	488	660
214	739	557
215	347	703
216	438	6
217	531	389
218	31	868
219	695	6
220	238	760
221	148	135
222	454	306
223	537	639
224	852	721
225	820	560
226	135	675
227	903	202
228	586	768
229	807	475
230	451	918
231	209	378
232	278	46
233	165	718
234	605	592
235	275	258
236	853	373
237	104	658
238	300	223
239	288	413
240	240	305
241	445	786
242	266	481
243	347	713
244	759	919
245	531	212
246	424	391
247	969	181
248	429	334
249	181	232
250	85	712
251	987	411
252	721	635
253	850	107
254	757	84
255	879	623
256	642	661
257	562	234
258	379	454
259	261	456
260	16	284
261	890	939
262	477	680
263	593	996
264	321	973
265	690	977
266	350	451
267	952	595
268	396	608
269	775	751
270	664	273
271	640	439
272	471	214
273	1	466
274	603	628
275	914	666
276	744	820
277	161	210
278	188	926
279	269	756
280	205	997
281	145	928
282	804	406
283	49	332
284	303	801
285	555	691
286	820	407
287	205	63
288	171	319
289	463	457
290	144	540
291	477	224
292	46	715
293	296	220
294	183	629
295	448	20
296	65	231
297	914	418
298	48	835
299	964	33
300	70	181
301	334	47
302	68	140
303	802	224
304	618	405
305	423	126
306	533	422
307	274	629
308	980	438
309	43	592
310	898	659
311	709	996
312	46	965
313	618	830
314	953	465
315	935	857
316	163	205
317	715	375
318	287	432
319	247	270
320	4	947
321	277	432
322	914	733
323	851	17
324	174	640
325	460	452
326	763	21
327	86	304
328	46	475
329	602	763
330	363	688
331	520	936
332	18	430
333	604	797
334	593	312
335	146	45
336	915	691
337	703	515
338	80	624
339	534	732
340	638	619
341	941	666
342	911	897
343	293	953
344	330	267
345	947	412
346	248	446
347	374	952
348	240	42
349	792	789
350	201	706
351	489	520
352	414	511
353	580	566
354	687	344
355	973	145
356	414	620
357	551	989
358	932	288
359	165	730
360	40	518
361	305	881
362	654	636
363	847	763
364	270	823
365	530	280
366	728	757
367	237	218
368	856	891
369	372	777
370	671	13
371	919	808
372	516	783
373	340	645
374	210	666
375	129	264
376	952	533
377	632	749
378	225	75
379	907	820
380	333	158
381	339	399
382	206	381
383	502	806
384	530	955
385	27	426
386	840	248
387	162	654
388	918	638
389	352	816
390	831	409
391	392	762
392	656	451
393	766	355
394	996	882
395	70	264
396	579	774
397	800	536
398	264	790
399	201	390
400	697	131
401	656	344
402	539	977
403	211	311
404	946	602
405	128	641
406	910	422
407	55	84
408	557	909
409	513	370
410	25	75
411	933	230
412	729	758
413	483	586
414	179	176
415	516	983
416	67	589
417	853	167
418	893	913
419	556	478
420	796	37
421	491	307
422	825	762
423	861	508
424	906	206
425	844	752
426	308	987
427	907	79
428	953	657
429	418	815
430	18	520
431	392	431
432	935	639
433	444	884
434	900	54
435	794	728
436	382	589
437	382	860
438	77	569
439	723	927
440	950	680
441	623	233
442	185	720
443	596	327
444	272	592
445	150	105
446	938	688
447	801	722
448	153	295
449	66	712
450	656	52
451	61	650
452	433	251
453	669	720
454	795	2
455	189	684
456	941	434
457	287	349
458	302	475
459	602	299
460	967	6
461	68	64
462	65	719
463	277	598
464	522	810
465	746	906
466	471	597
467	72	715
468	25	734
469	210	687
470	897	324
471	703	241
472	23	675
473	589	754
474	457	955
475	459	550
476	978	788
477	919	564
478	518	758
479	877	971
480	153	573
481	329	797
482	260	842
483	954	474
484	58	960
485	839	921
486	555	842
487	686	654
488	944	923
489	962	492
490	931	337
491	881	944
492	818	682
493	711	993
494	441	492
495	763	783
496	564	68
497	471	456
498	961	221
499	10	454
500	315	609
501	856	96
502	754	365
503	282	670
504	858	738
505	695	37
506	906	878
507	332	229
508	76	449
509	721	380
510	229	730
511	247	138
512	315	870
513	514	20
514	282	859
515	828	24
516	157	29
517	894	934
518	58	344
519	164	397
520	72	123
521	598	264
522	414	774
523	303	176
524	538	298
525	78	255
526	460	419
527	722	239
528	437	638
529	857	450
530	974	14
531	230	802
532	751	39
533	94	954
534	108	464
535	517	452
536	422	302
537	412	169
538	32	739
539	774	704
540	156	808
541	852	627
542	638	794
543	824	785
544	331	205
545	468	206
546	423	989
547	189	607
548	522	948
549	545	637
550	970	116
551	331	574
552	248	788
553	853	950
554	279	269
555	25	598
556	965	113
557	843	655
558	326	360
559	656	526
560	282	78
561	757	801
562	953	435
563	648	594
564	953	657
565	543	328
566	409	547
567	639	386
568	554	477
569	363	7
570	821	916
571	88	513
572	80	292
573	497	371
574	291	475
575	855	989
576	177	18
577	89	335
578	305	636
579	708	462
580	674	667
581	783	392
582	723	484
583	43	528
584	565	979
585	771	17
586	916	942
587	702	120
588	911	401
589	688	775
590	104	755
591	307	876
592	974	856
593	682	399
594	369	48
595	793	113
596	772	330
597	224	555
598	765	201
599	87	798
600	569	983
601	582	999
602	382	812
603	629	980
604	310	761
605	933	150
606	481	615
607	369	488
608	491	63
609	898	835
610	640	377
611	419	297
612	365	247
613	34	798
614	168	831
615	522	306
616	35	237
617	150	846
618	629	893
619	856	793
620	824	13
621	349	350
622	187	891
623	761	733
624	94	223
625	766	912
626	7	318
627	98	110
628	487	271
629	178	118
630	819	95
631	566	963
632	60	228
633	862	891
634	35	547
635	501	821
636	978	695
637	231	325
638	412	367
639	141	720
640	812	561
641	183	756
642	972	266
643	75	730
644	602	550
645	51	689
646	354	589
647	986	592
648	79	23
649	810	540
650	813	930
651	947	499
652	702	527
653	101	109
654	766	752
655	88	70
656	812	52
657	10	7
658	26	435
659	316	462
660	277	520
661	678	292
662	879	520
663	499	614
664	934	947
665	906	832
666	363	1000
667	554	971
668	950	102
669	244	357
670	129	390
671	195	591
672	311	227
673	800	964
674	984	432
675	609	998
676	561	39
677	886	964
678	106	127
679	823	717
680	718	454
681	317	384
682	933	29
683	330	610
684	544	975
685	671	390
686	535	699
687	858	256
688	79	32
689	611	690
690	544	763
691	349	936
692	167	534
693	552	630
694	719	479
695	539	328
696	449	165
697	79	957
698	948	494
699	755	593
700	867	687
701	375	976
702	822	115
703	258	143
704	189	446
705	820	883
706	649	302
707	287	985
708	396	758
709	739	664
710	529	84
711	434	797
712	662	302
713	4	786
714	842	654
715	30	239
716	102	683
717	534	695
718	696	233
719	961	272
720	657	112
721	607	476
722	167	769
723	766	124
724	974	561
725	843	557
726	648	17
727	805	730
728	347	19
729	57	912
730	407	263
731	966	157
732	598	972
733	920	875
734	439	228
735	946	941
736	986	338
737	422	190
738	334	570
739	261	814
740	447	811
741	875	452
742	658	140
743	356	746
744	374	950
745	326	912
746	550	968
747	820	458
748	239	603
749	467	239
750	729	335
751	583	289
752	886	391
753	621	853
754	331	766
755	160	55
756	520	416
757	612	100
758	607	884
759	679	491
760	958	947
761	474	561
762	216	580
763	795	523
764	143	826
765	403	890
766	298	876
767	151	174
768	280	382
769	513	196
770	13	710
771	178	113
772	496	435
773	198	886
774	388	122
775	609	299
776	366	15
777	401	42
778	799	567
779	680	710
780	781	126
781	460	74
782	117	557
783	540	756
784	313	208
785	347	261
786	591	942
787	448	176
788	421	143
789	278	528
790	440	691
791	229	733
792	249	284
793	753	981
794	473	545
795	87	963
796	288	507
797	431	975
798	335	381
799	197	647
800	373	861
801	362	854
802	667	522
803	832	59
804	447	503
805	614	859
806	505	917
807	139	900
808	3	805
809	701	857
810	281	331
811	127	856
812	207	826
813	519	450
814	671	471
815	434	642
816	402	251
817	235	4
818	972	843
819	713	423
820	500	708
821	541	400
822	989	790
823	480	137
824	33	922
825	761	654
826	803	645
827	823	233
828	177	232
829	774	558
830	4	994
831	777	746
832	807	63
833	869	372
834	162	235
835	719	149
836	688	180
837	510	379
838	615	115
839	731	700
840	260	725
841	743	225
842	457	216
843	552	462
844	643	557
845	549	413
846	393	785
847	196	586
848	167	444
849	410	621
850	592	978
851	969	669
852	500	998
853	567	808
854	528	749
855	535	654
856	155	162
857	383	317
858	379	60
859	252	957
860	19	151
861	159	558
862	376	520
863	695	360
864	683	333
865	454	133
866	149	526
867	306	260
868	933	985
869	581	416
870	74	960
871	579	683
872	416	840
873	762	567
874	951	949
875	669	463
876	497	854
877	987	884
878	562	330
879	359	964
880	514	986
881	601	278
882	573	17
883	75	54
884	82	235
885	882	636
886	976	650
887	485	764
888	105	338
889	970	587
890	989	966
891	668	910
892	568	556
893	700	356
894	209	773
895	591	167
896	780	839
897	267	340
898	368	74
899	590	180
900	912	319
901	952	629
902	28	549
903	759	859
904	31	599
905	697	70
906	962	83
907	977	548
908	672	813
909	163	212
910	97	768
911	120	863
912	254	918
913	644	213
914	40	690
915	281	965
916	881	773
917	90	277
918	519	910
919	513	575
920	411	388
921	359	168
922	146	858
923	410	350
924	730	594
925	149	460
926	618	428
927	79	632
928	647	978
929	890	107
930	457	111
931	86	767
932	634	792
933	868	604
934	815	188
935	951	634
936	959	625
937	669	932
938	275	369
939	482	490
940	491	770
941	722	446
942	584	916
943	788	572
944	918	841
945	747	175
946	873	156
947	490	77
948	682	429
949	591	197
950	633	244
951	196	959
952	314	148
953	466	748
954	712	157
955	776	468
956	43	725
957	866	741
958	519	982
959	387	237
960	612	251
961	510	224
962	500	405
963	929	440
964	101	205
965	719	98
966	24	220
967	997	8
968	804	818
969	904	899
970	548	698
971	112	434
972	290	452
973	642	820
974	61	174
975	144	811
976	285	764
977	357	394
978	792	838
979	248	796
980	265	284
981	288	37
982	665	583
983	100	912
984	189	373
985	231	812
986	89	56
987	780	17
988	83	332
989	575	984
990	742	708
991	161	940
992	644	29
993	227	395
994	172	683
995	386	758
996	245	69
997	785	240
998	370	680
999	497	869
1000	280	976
1001	998	407
DEMAND_SECTION
1	0
2	5
3	4
4	7
5	5
6	6
7	8
8	9
9	6
10	9
11	3
12	7
13	9
14	6
15	1
16	1
17	3
18	4
19	2
20	2
21	1
22	1
23	5
24	9
25	1
26	4
27	4
28	6
29	9
30	4
31	5
32	9
33	6
34	6
35	5
36	3
37	8
38	7
39	7
40	3
41	9
42	3
43	1
44	1
45	8
46	2
47	1
48	3
49	6
50	3
51	7
52	8
53	8
54	4
55	5
56	4
57	2
58	8
59	4
60	4
61	6
62	5
63	3
64	1
65	1
66	5
67	3
68	3
69	6
70	3
71	2
72	5
73	8
74	2
75	5
76	3
77	8
78	7
79	6
80	3
81	5
82	4
83	7
84	3
85	4
86	2
87	6
88	5
89	3
90	1
91	5
92	5
93	6
94	2
95	1
96	5
97	7
98	2
99	1
100	1
101	8
102	1
103	2
104	9
105	3
106	2
107	6
108	8
109	1
110	3
111	1
112	6
113	6
114	3
115	6
116	1
117	7
118	6
119	7
120	8
121	2
122	7
123	4
124	9
125	5
126	4
127	3
128	1
129	1
130	7
131	7
132	4
133	2
134	7
135	7
136	9
137	4
138	7
139	2
140	8
141	1
142	5
143	8
144	3
145	2
146	8
147	6
148	9
149	4
150	6
151	1
152	7
153	5
154	4
155	7
156	4
157	9
158	2
159	8
160	5
161	9
162	2
163	6
164	7
165	3
166	5
167	9
168	8
169	8
170	7
171	5
172	3
173	4
174	7
175	3
176	6
177	2
178	6
179	2
180	7
181	1
182	9
183	2
184	6
185	2
186	4
187	9
188	7
189	9
190	9
191	3
192	9
193	3
194	1
195	5
196	4
197	7
198	3
199	4
200	8
201	3
202	6
203	4
204	1
205	7
206	6
207	1
208	9
209	2
210	9
211	1
212	2
213	2
214	8
215	8
216	7
217	9
218	8
219	5
220	1
221	9
222	4
223	7
224	1
225	1
226	5
227	4
228	6
229	3
230	6
231	6
232	2
233	5
234	1
235	7
236	5
237	5
238	4
239	3
240	4
241	3
242	3
243	1
244	4
245	3
246	7
247	5
248	2
249	3
250	7
251	4
252	2
253	9
254	2
255	4
256	3
257	3
258	9
259	9
260	5
261	1
262	9
263	8
264	7
265	1
266	1
267	1
268	1
269	6
270	3
271	4
272	2
273	2
274	4
275	8
276	7
277	8
278	4
279	5
280	4
281	9
282	2
283	8
284	9
285	2
286	1
287	9
288	4
289	6
290	6
291	9
292	1
293	6
294	4
295	5
296	7
297	2
298	1
299	7
300	2
301	4
302	6
303	9
304	5
305	1
306	3
307	2
308	8
309	9
310	8
311	3
312	9
313	8
314	9
315	2
316	2
317	4
318	5
319	9
320	6
321	4
322	7
323	8
324	9
325	1
326	6
327	1
328	7
329	3
330	2
331	1
332	5
333	7
334	4
335	1
336	7
337	4
338	7
339	4
340	9
341	9
342	4
343	2
344	8
345	1
346	2
347	3
348	6
349	6
350	8
351	9
352	1
353	6
354	9
355	4
356	3
357	5
358	6
359	3
360	5
361	9
362	4
363	2
364	5
365	3
366	5
367	6
368	4
369	5
370	6
371	4
372	6
373	8
374	5
375	1
376	9
377	5
378	5
379	4
380	7
381	5
382	1
383	9
384	8
385	8
386	2
387	5
388	2
389	8
390	4
391	4
392	8
393	5
394	7
395	3
396	9
397	4
398	9
399	9
400	4
401	8
402	8
403	9
404	1
405	9
406	7
407	7
408	4
409	1
410	7
411	2
412	5
413	9
414	8
415	7
416	2
417	3
418	8
419	9
420	1
421	3
422	4
423	6
424	7
425	6
426	4
427	3
428	8
429	5
430	7
431	9
432	6
433	7
434	6
435	9
436	7
437	9
438	1
439	5
440	7
441	9
442	7
443	9
444	8
445	3
446	6
447	1
448	9
449	5
450	3
451	8
452	7
453	5
454	7
455	6
456	8
457	4
458	4
459	7
460	3
461	2
462	1
463	8
464	8
465	2
466	4
467	9
468	4
469	2
470	4
471	7
472	3
473	5
474	5
475	6
476	8
477	7
478	6
479	8
480	1
481	9
482	3
483	8
484	7
485	9
486	3
487	5
488	7
489	1
490	7
491	6
492	7
493	5
494	9
495	7
496	8
497	4
498	7
499	6
500	2
501	4
502	7
503	8
504	8
505	9
506	5
507	4
508	4
509	4
510	5
511	5
512	5
513	2
514	8
515	1
516	7
517	6
518	3
519	3
520	7
521	7
522	4
523	2
524	1
525	3
526	7
527	1
528	6
529	9
530	8
531	4
532	4
533	3
534	5
535	2
536	4
537	7
538	6
539	8
540	7
541	9
542	4
543	4
544	1
545	4
546	7
547	4
548	3
549	9
550	8
551	3
552	9
553	3
554	8
555	4
556	7
557	3
558	8
559	7
560	1
561	6
562	4
563	3
564	4
565	2
566	7
567	7
568	5
569	2
570	2
571	5
572	1
573	7
574	9
575	6
576	6
577	5
578	4
579	3
580	8
581	1
582	8
583	4
584	9
585	5
586	7
587	4
588	1
589	5
590	5
591	9
592	1
593	8
594	6
595	4
596	5
597	3
598	9
599	3
600	3
601	3
602	6
603	2
604	3
605	5
606	4
607	1
608	4
609	1
610	7
611	5
612	2
613	2
614	2
615	3
616	3
617	9
618	4
619	1
620	1
621	9
622	3
623	4
624	4
625	8
626	4
627	5
628	2
629	3
630	5
631	4
632	9
633	1
634	1
635	1
636	8
637	9
638	4
639	5
640	9
641	4
642	9
643	8
644	9
645	2
646	2
647	9
648	8
649	3
650	3
651	8
652	5
653	5
654	2
655	9
656	6
657	4
658	7
659	9
660	5
661	8
662	7
663	1
664	2
665	8
666	3
667	2
668	4
669	9
670	1
671	2
672	8
673	6
674	5
675	8
676	9
677	7
678	3
679	8
680	4
681	1
682	4
683	1
684	2
685	2
686	2
687	4
688	2
689	2
690	7
691	2
692	6
693	1
694	7
695	8
696	7
697	4
698	9
699	5
700	9
701	4
702	7
703	5
704	7
705	2
706	9
707	5
708	6
709	9
710	1
711	7
712	7
713	4
714	1
715	7
716	4
717	6
718	3
719	8
720	2
721	8
722	3
723	7
724	5
725	9
726	3
727	1
728	7
729	7
730	2
731	6
732	3
733	2
734	4
735	3
736	8
737	6
738	3
739	3
740	4
741	5
742	6
743	9
744	6
745	3
746	6
747	6
748	2
749	2
750	8
751	4
752	2
753	7
754	9
755	3
756	6
757	3
758	5
759	4
760	5
761	1
762	7
763	9
764	4
765	9
766	1
767	2
768	9
769	8
770	1
771	2
772	7
773	7
774	9
775	4
776	1
777	2
778	3
779	4
780	8
781	1
782	7
783	8
784	9
785	9
786	6
787	8
788	4
789	2
790	4
791	5
792	3
793	9
794	9
795	9
796	8
797	1
798	3
799	2
800	4
801	9
802	8
803	3
804	2
805	7
806	2
807	9
808	5
809	6
810	5
811	8
812	5
813	3
814	5
815	8
816	7
817	2
818	5
819	5
820	2
821	6
822	1
823	6
824	8
825	4
826	8
827	7
828	8
829	3
830	9
831	4
832	3
833	9
834	4
835	9
836	4
837	1
838	9
839	4
840	6
841	8
842	5
843	3
844	1
845	2
846	1
847	1
848	3
849	1
850	4
851	6
852	5
853	7
854	4
855	9
856	9
857	7
858	9
859	8
860	4
861	4
862	4
863	2
864	3
865	2
866	2
867	4
868	5
869	4
870	1
871	1
872	7
873	9
874	4
875	1
876	7
877	4
878	4
879	7
880	9
881	6
882	4
883	6
884	5
885	3
886	7
887	1
888	1
889	2
890	2
891	2
892	8
893	8
894	8
895	2
896	9
897	4
898	3
899	4
900	3
901	2
902	6
903	2
904	9
905	6
906	2
907	1
908	4
909	1
910	1
911	9
912	8
913	9
914	9
915	4
916	2
917	7
918	5
919	7
920	9
921	4
922	9
923	8
924	6
925	4
926	7
927	6
928	4
929	2
930	4
931	9
932	3
933	7
934	8
935	7
936	8
937	8
938	7
939	8
940	3
941	6
942	9
943	6
944	5
945	9
946	1
947	8
948	4
949	6
950	1
951	9
952	5
953	9
954	6
955	8
956	1
957	4
958	8
959	6
960	3
961	6
962	2
963	9
964	9
965	1
966	2
967	6
968	5
969	4
970	3
971	8
972	8
973	6
974	5
975	8
976	8
977	3
978	7
979	2
980	4
981	7
982	5
983	6
984	6
985	4
986	4
987	5
988	1
989	4
990	7
991	3
992	6
993	6
994	8
995	1
996	2
997	5
998	1
999	6
1000	9
1001	9
BACKHAUL_SECTION
10	13	28	29	38	52	55	57	60	66	72	75	81	95	98	109	112	114	116	126	127	153	164	168	169	184	186	191	198	201	205	206	211	215	217	218	231	242	245	246	247	249	253	255	257	262	266	284	287	289	293	298	299	300	303	306	322	332	340	347	349	355	363	365	366	376	377	378	390	392	396	397	398	400	406	409	414	418	423	431	438	443	451	456	466	474	480	483	487	498	499	510	519	526	532	547	548	553	555	556	559	564	567	568	573	576	578	583	588	594	595	596	603	608	613	615	620	622	629	640	641	649	655	681	686	689	694	696	701	704	707	718	719	720	722	723	731	734	736	740	746	747	752	757	772	773	774	781	783	797	811	813	814	816	817	818	836	842	844	854	855	862	863	865	872	873	875	881	891	893	894	896	897	898	903	909	915	916	922	923	928	930	931	934	936	938	941	951	953	954	958	974	982	984	985	987	988	990	993	995	-1
DEPOT_SECTION
1
-1
EOF
