NAME : n51-0003
COMMENT : "Generated by pyvrp_manuel (OVRPBTW)"
TYPE : OVRPBTW
DIMENSION : 51
EDGE_WEIGHT_TYPE : EUC_2D
CAPACITY : 40
VEHICLES : 50
OPEN_ROUTE : YES
SERVICE_TIME : 200
NODE_COORD_SECTION
1	307	634
2	259	590
3	240	615
4	598	129
5	583	713
6	698	437
7	90	423
8	674	318
9	690	833
10	239	505
11	707	539
12	542	562
13	107	539
14	846	951
15	794	567
16	734	257
17	86	70
18	999	817
19	154	696
20	878	1000
21	937	887
22	385	325
23	911	780
24	199	950
25	742	773
26	187	643
27	325	891
28	410	695
29	589	713
30	330	744
31	151	613
32	162	7
33	98	895
34	771	969
35	901	53
36	159	419
37	175	847
38	122	256
39	17	216
40	911	909
41	858	886
42	945	372
43	720	945
44	665	1000
45	759	811
46	325	740
47	557	381
48	218	219
49	115	836
50	855	443
51	211	886
DEMAND_SECTION
1	0
2	3
3	4
4	4
5	3
6	4
7	5
8	2
9	3
10	2
11	5
12	7
13	9
14	3
15	4
16	1
17	1
18	7
19	1
20	7
21	4
22	4
23	9
24	9
25	9
26	3
27	4
28	3
29	1
30	9
31	9
32	4
33	9
34	3
35	9
36	5
37	4
38	1
39	5
40	4
41	7
42	9
43	1
44	9
45	6
46	1
47	7
48	6
49	4
50	2
51	9
TIME_WINDOW_SECTION
1	0	3000
2	915	2618
3	0	857
4	0	1416
5	397	1634
6	254	1029
7	366	1641
8	74	993
9	833	2146
10	107	2073
11	1071	2056
12	890	1950
13	900	2611
14	723	2690
15	435	1313
16	370	1717
17	1291	2210
18	1355	2652
19	135	1457
20	1334	2795
21	1314	1549
22	1379	3000
23	86	1409
24	0	1204
25	1468	2884
26	2267	2911
27	1926	2226
28	868	1225
29	1185	2723
30	960	2453
31	1343	2086
32	953	1570
33	977	2831
34	269	1777
35	1046	2570
36	908	2095
37	0	1145
38	1043	2838
39	91	1342
40	363	1671
41	1141	2172
42	432	1875
43	1237	2757
44	1180	1477
45	461	1821
46	0	564
47	1140	2829
48	1210	2700
49	1593	2327
50	1737	2660
51	282	2061
BACKHAUL_SECTION
4	6	8	10	23	36	38	44	46	48	-1
DEPOT_SECTION
1
-1
EOF
