NAME : n201-0018
COMMENT : "Generated by pyvrp_manuel (VRPL)"
TYPE : VRPL
DIMENSION : 201
EDGE_WEIGHT_TYPE : EUC_2D
CAPACITY : 80
VEHICLES : 200
DISTANCE : 3000
NODE_COORD_SECTION
1	2	461
2	457	780
3	543	110
4	845	550
5	122	264
6	870	726
7	78	476
8	110	209
9	959	176
10	859	552
11	224	48
12	466	535
13	386	698
14	819	622
15	140	320
16	239	417
17	440	998
18	815	919
19	846	956
20	270	856
21	112	293
22	360	405
23	485	712
24	924	96
25	620	191
26	500	257
27	306	621
28	907	213
29	950	698
30	553	640
31	772	294
32	424	668
33	435	197
34	523	76
35	983	549
36	980	195
37	576	538
38	234	531
39	656	928
40	437	648
41	929	206
42	281	553
43	56	223
44	141	992
45	227	755
46	56	623
47	243	290
48	885	44
49	91	94
50	806	334
51	916	195
52	248	853
53	27	790
54	204	209
55	436	877
56	885	721
57	701	89
58	151	927
59	494	171
60	772	305
61	924	861
62	263	285
63	454	202
64	166	510
65	735	133
66	912	848
67	763	416
68	149	317
69	838	228
70	670	456
71	880	810
72	643	905
73	971	431
74	325	148
75	374	308
76	478	127
77	563	274
78	370	985
79	12	347
80	132	913
81	725	469
82	740	42
83	482	569
84	100	413
85	951	840
86	538	984
87	253	773
88	468	660
89	393	697
90	205	783
91	331	669
92	706	754
93	721	174
94	290	667
95	706	681
96	921	918
97	421	417
98	675	309
99	54	252
100	459	262
101	794	149
102	462	108
103	452	229
104	173	243
105	402	408
106	712	834
107	631	352
108	884	250
109	964	829
110	236	664
111	101	216
112	626	807
113	57	991
114	145	18
115	770	644
116	592	775
117	560	642
118	669	495
119	975	816
120	77	244
121	95	741
122	990	30
123	172	406
124	11	336
125	812	919
126	395	84
127	13	646
128	906	765
129	540	761
130	34	912
131	454	83
132	710	224
133	935	245
134	257	931
135	833	628
136	633	657
137	136	742
138	937	817
139	183	836
140	346	567
141	427	91
142	804	156
143	617	549
144	11	254
145	968	640
146	77	707
147	253	989
148	381	636
149	75	138
150	130	440
151	386	566
152	779	690
153	438	514
154	463	76
155	933	237
156	623	722
157	251	981
158	846	970
159	445	317
160	244	19
161	99	509
162	455	399
163	884	327
164	155	847
165	360	624
166	622	783
167	992	452
168	153	832
169	253	240
170	859	39
171	685	918
172	196	174
173	983	18
174	700	642
175	888	622
176	259	53
177	844	507
178	527	661
179	960	637
180	927	665
181	297	614
182	396	417
183	480	405
184	555	170
185	47	256
186	779	219
187	207	456
188	822	934
189	534	773
190	386	418
191	393	841
192	658	452
193	950	499
194	727	737
195	364	838
196	385	52
197	258	718
198	768	396
199	481	902
200	388	637
201	427	163
DEMAND_SECTION
1	0
2	2
3	8
4	4
5	9
6	6
7	8
8	3
9	9
10	9
11	2
12	2
13	6
14	2
15	9
16	4
17	4
18	9
19	3
20	4
21	9
22	1
23	3
24	9
25	8
26	5
27	2
28	1
29	3
30	7
31	3
32	4
33	8
34	4
35	5
36	4
37	9
38	9
39	3
40	2
41	5
42	3
43	9
44	7
45	7
46	7
47	8
48	3
49	8
50	6
51	6
52	3
53	5
54	3
55	6
56	3
57	1
58	5
59	3
60	2
61	7
62	7
63	3
64	8
65	7
66	5
67	4
68	7
69	3
70	6
71	5
72	2
73	2
74	3
75	7
76	8
77	9
78	3
79	8
80	7
81	8
82	3
83	3
84	2
85	9
86	1
87	9
88	1
89	7
90	8
91	6
92	9
93	5
94	2
95	7
96	1
97	2
98	8
99	9
100	8
101	6
102	1
103	8
104	2
105	1
106	4
107	6
108	7
109	6
110	2
111	4
112	7
113	3
114	3
115	5
116	3
117	9
118	8
119	8
120	7
121	3
122	9
123	4
124	3
125	6
126	5
127	3
128	7
129	8
130	2
131	3
132	9
133	1
134	7
135	8
136	5
137	5
138	5
139	8
140	4
141	6
142	7
143	8
144	6
145	1
146	5
147	1
148	2
149	5
150	6
151	9
152	2
153	2
154	1
155	2
156	8
157	7
158	9
159	2
160	6
161	1
162	2
163	7
164	2
165	6
166	2
167	5
168	8
169	6
170	4
171	5
172	8
173	7
174	5
175	2
176	7
177	9
178	3
179	8
180	5
181	3
182	2
183	4
184	4
185	6
186	3
187	5
188	1
189	8
190	2
191	2
192	2
193	1
194	2
195	8
196	6
197	4
198	7
199	1
200	2
201	7
DEPOT_SECTION
1
-1
EOF
