NAME : n501-0036
COMMENT : "Generated by pyvrp_manuel (VRPBTW)"
TYPE : VRPBTW
DIMENSION : 501
EDGE_WEIGHT_TYPE : EUC_2D
CAPACITY : 100
VEHICLES : 500
SERVICE_TIME : 200
NODE_COORD_SECTION
1	195	21
2	629	751
3	964	413
4	916	444
5	133	978
6	793	989
7	528	368
8	220	412
9	271	466
10	762	183
11	273	991
12	99	982
13	452	701
14	670	770
15	287	650
16	383	176
17	928	461
18	35	863
19	658	288
20	567	505
21	434	525
22	629	872
23	998	445
24	63	307
25	858	62
26	410	112
27	577	758
28	800	270
29	375	604
30	976	807
31	527	98
32	65	655
33	988	798
34	461	854
35	223	251
36	378	476
37	796	63
38	333	345
39	107	553
40	824	271
41	705	816
42	354	561
43	935	678
44	507	798
45	561	250
46	451	944
47	602	300
48	942	364
49	348	82
50	772	864
51	557	969
52	670	117
53	999	621
54	537	903
55	416	957
56	314	58
57	707	793
58	314	416
59	760	188
60	952	177
61	327	933
62	96	165
63	651	666
64	917	334
65	960	767
66	708	604
67	873	279
68	506	177
69	78	548
70	47	126
71	139	876
72	246	596
73	132	891
74	795	56
75	452	290
76	744	255
77	470	923
78	29	267
79	105	900
80	7	641
81	768	555
82	817	605
83	900	535
84	444	572
85	734	114
86	806	593
87	450	409
88	468	373
89	124	820
90	88	680
91	376	847
92	412	889
93	292	372
94	159	47
95	930	324
96	6	447
97	27	345
98	712	819
99	408	410
100	977	653
101	396	799
102	869	5
103	918	478
104	339	600
105	980	235
106	566	428
107	958	65
108	51	630
109	249	957
110	405	393
111	87	304
112	688	145
113	168	461
114	978	641
115	457	621
116	18	657
117	307	870
118	556	66
119	840	175
120	674	339
121	83	373
122	815	278
123	423	609
124	202	215
125	954	283
126	882	845
127	755	326
128	965	68
129	771	619
130	824	450
131	412	767
132	720	771
133	885	189
134	200	61
135	150	391
136	872	848
137	679	585
138	171	737
139	619	187
140	951	578
141	242	211
142	470	900
143	418	175
144	540	341
145	953	640
146	768	452
147	779	124
148	416	875
149	191	660
150	338	216
151	765	996
152	57	911
153	282	463
154	906	337
155	511	188
156	672	695
157	270	767
158	753	746
159	956	833
160	16	552
161	616	424
162	996	501
163	550	688
164	50	502
165	108	120
166	355	813
167	70	41
168	273	875
169	212	122
170	127	741
171	451	591
172	730	723
173	498	834
174	611	287
175	755	400
176	917	448
177	911	724
178	878	29
179	662	979
180	433	510
181	527	982
182	942	301
183	954	337
184	849	703
185	759	66
186	424	646
187	415	198
188	607	532
189	742	825
190	933	801
191	432	295
192	401	507
193	492	11
194	486	483
195	120	591
196	92	895
197	47	835
198	676	543
199	354	650
200	954	63
201	805	828
202	451	290
203	107	570
204	123	90
205	341	875
206	285	936
207	674	680
208	611	809
209	905	285
210	212	103
211	865	849
212	876	750
213	447	659
214	817	367
215	927	504
216	272	892
217	237	866
218	736	6
219	64	351
220	571	349
221	825	449
222	567	95
223	983	773
224	27	738
225	250	345
226	30	527
227	160	697
228	762	17
229	181	894
230	703	735
231	498	910
232	205	859
233	901	852
234	638	54
235	950	90
236	894	584
237	801	388
238	491	720
239	90	575
240	708	184
241	297	470
242	178	166
243	990	249
244	536	124
245	301	747
246	645	528
247	686	975
248	180	687
249	914	192
250	736	296
251	766	270
252	769	336
253	532	844
254	712	753
255	34	401
256	450	520
257	146	497
258	599	616
259	354	809
260	42	749
261	108	758
262	607	449
263	109	554
264	219	34
265	229	576
266	468	919
267	458	635
268	948	936
269	812	150
270	298	442
271	538	396
272	734	513
273	893	403
274	305	2
275	71	591
276	53	382
277	253	987
278	247	252
279	561	297
280	440	509
281	914	701
282	198	310
283	508	674
284	286	595
285	591	313
286	55	798
287	676	588
288	127	788
289	225	942
290	397	21
291	489	422
292	244	418
293	970	351
294	426	572
295	852	535
296	126	385
297	683	701
298	419	122
299	334	282
300	530	109
301	798	947
302	542	946
303	439	858
304	119	13
305	74	937
306	645	325
307	680	299
308	57	676
309	78	334
310	12	867
311	706	756
312	482	132
313	262	435
314	686	833
315	944	491
316	710	327
317	474	704
318	751	379
319	513	47
320	534	496
321	660	818
322	847	819
323	85	353
324	661	208
325	977	904
326	147	12
327	548	253
328	525	941
329	282	576
330	794	477
331	320	765
332	90	568
333	141	211
334	850	486
335	497	299
336	769	949
337	941	524
338	702	276
339	761	753
340	556	885
341	304	28
342	570	643
343	868	134
344	755	270
345	897	544
346	392	455
347	619	307
348	169	242
349	302	873
350	833	258
351	139	32
352	283	740
353	376	385
354	431	878
355	76	577
356	338	358
357	160	982
358	666	455
359	452	669
360	142	786
361	852	781
362	391	96
363	9	932
364	970	448
365	65	284
366	760	737
367	985	748
368	18	808
369	373	764
370	665	333
371	740	702
372	16	625
373	524	283
374	755	39
375	91	173
376	604	749
377	585	627
378	483	546
379	325	332
380	638	314
381	765	983
382	693	386
383	249	28
384	995	937
385	609	430
386	132	550
387	174	29
388	272	388
389	722	423
390	657	886
391	736	23
392	562	241
393	564	141
394	867	80
395	101	587
396	976	487
397	804	548
398	105	86
399	441	769
400	299	73
401	476	27
402	38	681
403	803	769
404	464	395
405	784	558
406	234	440
407	846	310
408	848	366
409	290	403
410	322	132
411	829	324
412	448	414
413	68	400
414	660	659
415	56	585
416	986	167
417	124	445
418	638	184
419	260	760
420	889	594
421	244	408
422	32	557
423	420	210
424	127	20
425	916	29
426	769	169
427	685	41
428	450	449
429	741	834
430	890	326
431	737	477
432	370	53
433	781	668
434	853	384
435	386	247
436	485	604
437	685	122
438	918	995
439	265	263
440	817	106
441	625	555
442	877	310
443	471	83
444	1	669
445	86	282
446	963	539
447	256	65
448	935	107
449	597	203
450	150	121
451	409	152
452	209	228
453	249	677
454	99	787
455	700	876
456	502	906
457	777	173
458	808	190
459	346	885
460	1	340
461	549	573
462	401	524
463	489	421
464	497	665
465	935	689
466	9	121
467	108	304
468	847	714
469	321	294
470	700	195
471	276	703
472	603	13
473	72	880
474	415	896
475	274	742
476	804	891
477	112	806
478	166	368
479	417	677
480	21	159
481	934	602
482	406	336
483	163	795
484	709	762
485	860	770
486	149	435
487	366	898
488	219	161
489	883	999
490	935	469
491	18	349
492	4	570
493	783	746
494	17	516
495	419	103
496	259	916
497	227	880
498	910	111
499	799	964
500	339	148
501	195	919
DEMAND_SECTION
1	0
2	1
3	5
4	4
5	8
6	3
7	4
8	9
9	3
10	1
11	4
12	6
13	6
14	7
15	5
16	8
17	1
18	7
19	2
20	3
21	7
22	1
23	2
24	1
25	4
26	8
27	8
28	3
29	6
30	9
31	4
32	8
33	1
34	3
35	4
36	1
37	9
38	5
39	3
40	7
41	8
42	2
43	9
44	1
45	4
46	7
47	6
48	2
49	6
50	3
51	8
52	3
53	9
54	3
55	5
56	5
57	5
58	6
59	7
60	7
61	4
62	3
63	1
64	1
65	6
66	3
67	1
68	3
69	9
70	4
71	4
72	5
73	9
74	5
75	9
76	3
77	5
78	2
79	8
80	2
81	7
82	1
83	4
84	9
85	8
86	7
87	8
88	6
89	9
90	6
91	6
92	4
93	8
94	9
95	3
96	7
97	5
98	4
99	1
100	1
101	1
102	8
103	8
104	6
105	4
106	8
107	9
108	3
109	1
110	4
111	1
112	6
113	8
114	3
115	2
116	2
117	3
118	7
119	9
120	9
121	6
122	4
123	4
124	7
125	7
126	3
127	2
128	1
129	3
130	8
131	2
132	8
133	8
134	3
135	5
136	7
137	8
138	2
139	9
140	8
141	3
142	4
143	7
144	2
145	9
146	4
147	9
148	4
149	4
150	8
151	4
152	6
153	1
154	6
155	5
156	2
157	9
158	5
159	6
160	8
161	9
162	8
163	9
164	9
165	9
166	4
167	7
168	5
169	5
170	7
171	1
172	3
173	1
174	4
175	7
176	5
177	1
178	1
179	7
180	3
181	9
182	1
183	7
184	7
185	6
186	9
187	6
188	7
189	8
190	8
191	7
192	3
193	9
194	1
195	7
196	1
197	3
198	3
199	8
200	2
201	4
202	2
203	1
204	3
205	3
206	4
207	8
208	8
209	1
210	9
211	1
212	1
213	1
214	6
215	1
216	9
217	3
218	9
219	2
220	4
221	2
222	2
223	6
224	8
225	2
226	8
227	6
228	8
229	1
230	3
231	1
232	4
233	1
234	6
235	9
236	9
237	5
238	8
239	9
240	1
241	3
242	9
243	7
244	1
245	8
246	9
247	6
248	6
249	9
250	6
251	9
252	7
253	4
254	6
255	3
256	7
257	3
258	2
259	3
260	4
261	3
262	3
263	4
264	2
265	2
266	9
267	3
268	4
269	9
270	3
271	9
272	9
273	4
274	3
275	4
276	4
277	5
278	8
279	5
280	6
281	1
282	4
283	9
284	7
285	4
286	3
287	2
288	5
289	2
290	9
291	2
292	4
293	4
294	3
295	9
296	3
297	2
298	2
299	3
300	9
301	3
302	3
303	3
304	1
305	7
306	7
307	6
308	9
309	5
310	8
311	7
312	1
313	1
314	4
315	3
316	4
317	6
318	1
319	6
320	9
321	1
322	1
323	7
324	9
325	3
326	8
327	3
328	4
329	9
330	2
331	7
332	8
333	1
334	9
335	4
336	6
337	6
338	8
339	1
340	1
341	4
342	3
343	2
344	3
345	5
346	2
347	7
348	3
349	1
350	5
351	5
352	9
353	7
354	9
355	3
356	4
357	5
358	2
359	2
360	9
361	3
362	6
363	1
364	8
365	1
366	6
367	8
368	7
369	8
370	4
371	5
372	8
373	2
374	5
375	7
376	9
377	1
378	8
379	8
380	6
381	1
382	2
383	2
384	5
385	7
386	2
387	6
388	4
389	6
390	3
391	7
392	8
393	2
394	3
395	9
396	1
397	9
398	8
399	1
400	2
401	9
402	6
403	9
404	8
405	6
406	6
407	8
408	6
409	9
410	7
411	2
412	8
413	4
414	6
415	4
416	7
417	7
418	2
419	3
420	4
421	6
422	2
423	2
424	4
425	1
426	7
427	9
428	2
429	4
430	2
431	3
432	1
433	1
434	8
435	2
436	9
437	4
438	6
439	8
440	5
441	8
442	2
443	8
444	7
445	5
446	2
447	9
448	8
449	9
450	2
451	8
452	2
453	9
454	6
455	9
456	7
457	4
458	3
459	8
460	4
461	8
462	9
463	3
464	3
465	3
466	5
467	8
468	4
469	3
470	7
471	5
472	5
473	6
474	9
475	6
476	9
477	3
478	1
479	7
480	9
481	7
482	7
483	4
484	8
485	4
486	4
487	2
488	3
489	2
490	1
491	6
492	6
493	6
494	8
495	5
496	8
497	5
498	1
499	9
500	6
501	4
TIME_WINDOW_SECTION
1	0	3000
2	991	2715
3	1086	2510
4	237	2011
5	843	1616
6	488	1850
7	561	1770
8	327	832
9	1394	1676
10	1791	2629
11	363	1680
12	203	1963
13	1532	1853
14	860	2190
15	1544	2380
16	246	739
17	603	1280
18	873	1221
19	693	2236
20	279	2154
21	1266	2392
22	1562	1965
23	585	2080
24	1881	2769
25	769	1416
26	363	1202
27	1014	1247
28	1563	2586
29	1691	2412
30	1077	2188
31	2229	2674
32	782	1520
33	743	2252
34	604	2234
35	1457	2785
36	1760	2339
37	1088	2712
38	484	2202
39	1010	2309
40	1016	2683
41	905	2343
42	308	1812
43	860	1466
44	1311	2420
45	777	2210
46	478	1721
47	991	2416
48	740	2464
49	0	1728
50	1244	2167
51	1461	1871
52	1417	2937
53	760	2183
54	742	1876
55	1096	1501
56	2169	2485
57	1256	2480
58	917	2239
59	0	1698
60	1138	2198
61	1251	1700
62	2010	2729
63	796	1983
64	39	2027
65	1292	1897
66	595	1489
67	273	2153
68	1026	2390
69	1857	2658
70	0	1081
71	1251	2041
72	968	1505
73	1062	1573
74	194	1536
75	0	1523
76	490	1774
77	1422	1941
78	1413	1701
79	676	1458
80	879	1495
81	173	1440
82	1041	1468
83	1234	1568
84	1441	1795
85	1032	2615
86	1510	2180
87	0	1519
88	727	2171
89	1571	1837
90	0	1662
91	398	1878
92	216	1600
93	317	1606
94	159	2039
95	1732	2252
96	556	2472
97	782	1482
98	175	1942
99	1855	2811
100	803	1833
101	938	1319
102	939	1576
103	896	2868
104	619	2330
105	1347	2599
106	1142	2698
107	721	1639
108	67	1612
109	482	2356
110	1604	2792
111	0	1344
112	1217	2142
113	894	1802
114	1000	1506
115	782	1221
116	501	949
117	795	1683
118	651	2425
119	209	1389
120	896	2349
121	370	1694
122	903	1279
123	24	1797
124	1945	3000
125	1362	2274
126	856	1920
127	492	1441
128	494	1876
129	749	2371
130	778	1977
131	994	2595
132	309	1724
133	181	2060
134	1156	3000
135	411	933
136	1029	1427
137	0	1927
138	1433	2217
139	1644	2192
140	863	2596
141	185	1514
142	966	2392
143	0	938
144	1338	2354
145	1479	2102
146	1269	2351
147	1370	2458
148	179	1818
149	1236	1760
150	0	1419
151	240	2203
152	376	2371
153	0	1553
154	292	1892
155	0	1300
156	1049	2727
157	1612	2005
158	1085	2428
159	821	2356
160	1546	2682
161	1348	2565
162	392	2261
163	1275	1858
164	948	1749
165	1792	2604
166	874	1891
167	1114	2334
168	1506	1950
169	0	997
170	229	1322
171	339	1196
172	1008	1597
173	924	1413
174	325	2157
175	179	1593
176	762	2713
177	510	2043
178	62	1852
179	649	1984
180	1431	2036
181	624	2620
182	973	1639
183	830	1892
184	843	2300
185	902	1516
186	535	1282
187	841	1820
188	1251	1637
189	813	2462
190	306	1885
191	140	803
192	242	1909
193	1391	2492
194	0	1599
195	965	2411
196	1111	2253
197	796	2156
198	303	1848
199	1244	2499
200	1467	1934
201	1384	2024
202	1126	1397
203	83	1606
204	1637	2939
205	1045	1316
206	611	2311
207	250	1776
208	376	2230
209	391	1590
210	2020	3000
211	985	1998
212	843	2219
213	775	2521
214	359	2069
215	214	1611
216	746	1237
217	1506	1896
218	0	1275
219	806	2676
220	603	1967
221	1421	2298
222	1839	2538
223	473	1916
224	1155	1649
225	1313	2108
226	1018	2462
227	1514	2167
228	0	1734
229	772	2298
230	1035	2665
231	550	1562
232	627	2618
233	211	2112
234	1498	1749
235	498	2097
236	733	1408
237	546	1632
238	1737	2105
239	959	1901
240	1687	2015
241	880	1926
242	1274	2076
243	1172	2400
244	1827	2117
245	1317	1858
246	1357	2566
247	680	2255
248	1691	2500
249	926	2139
250	848	2255
251	0	1578
252	1087	2209
253	1132	1894
254	1360	1648
255	754	2399
256	1351	2067
257	0	1580
258	989	2264
259	475	1673
260	1360	1966
261	143	1863
262	1273	2006
263	1855	2567
264	332	2183
265	822	1942
266	899	1484
267	749	1500
268	1132	1917
269	630	1257
270	0	1887
271	560	1866
272	1236	2706
273	822	2211
274	675	970
275	436	2125
276	486	2307
277	465	1706
278	1957	2786
279	921	1392
280	1835	2370
281	639	2593
282	1003	2157
283	1014	1290
284	320	2315
285	1524	2139
286	249	1759
287	683	1527
288	793	2375
289	1277	1719
290	552	1374
291	1825	2195
292	1240	2272
293	521	1883
294	1254	2080
295	149	1820
296	554	1573
297	798	1382
298	542	2094
299	1602	2962
300	804	2423
301	753	2251
302	309	1841
303	160	1709
304	458	1303
305	1384	2157
306	772	2388
307	1135	1754
308	573	886
309	912	1248
310	1372	1621
311	1131	2554
312	119	1935
313	877	2133
314	522	1430
315	848	1053
316	830	2759
317	934	2618
318	532	1745
319	257	1848
320	851	2313
321	897	1613
322	1521	2014
323	1213	2058
324	693	2157
325	1261	1919
326	0	1198
327	0	1383
328	948	2281
329	549	1454
330	1104	2789
331	1682	1942
332	1741	2135
333	210	1326
334	1485	1775
335	1645	2576
336	1412	1801
337	389	1972
338	410	1865
339	204	1914
340	958	1547
341	924	1996
342	709	2105
343	1631	2342
344	1344	2412
345	946	1569
346	1753	2336
347	0	1503
348	970	2128
349	976	1566
350	1412	2291
351	1791	2795
352	0	1681
353	138	1290
354	996	2386
355	432	1826
356	0	836
357	910	1425
358	452	1762
359	1053	1448
360	975	2963
361	664	1772
362	1483	3000
363	677	1189
364	301	1754
365	0	1177
366	1549	1891
367	539	1886
368	574	1979
369	900	1692
370	1067	2617
371	518	1856
372	1719	2114
373	0	1603
374	1063	2044
375	0	792
376	482	1470
377	1707	2296
378	329	1524
379	985	2945
380	139	1397
381	137	2113
382	933	2151
383	1284	1579
384	1108	1438
385	1224	2750
386	44	1168
387	1256	2935
388	219	1051
389	1654	2202
390	557	1834
391	69	1590
392	1353	3000
393	1175	1677
394	383	1964
395	213	1510
396	1307	1533
397	1090	2437
398	762	2629
399	152	1772
400	120	1926
401	0	852
402	192	1882
403	835	1455
404	1929	2141
405	947	2791
406	264	2139
407	725	1353
408	715	1604
409	1000	1521
410	1444	2173
411	982	1997
412	319	1277
413	0	1399
414	1155	2471
415	1315	2303
416	662	1207
417	391	1508
418	1840	2101
419	1633	2033
420	997	2500
421	569	1130
422	205	1192
423	515	1067
424	307	2173
425	0	1771
426	480	957
427	1929	2217
428	157	2106
429	764	2678
430	1367	2559
431	735	1013
432	1918	3000
433	1201	1839
434	558	2104
435	1325	2442
436	211	2069
437	81	1210
438	939	1803
439	810	1391
440	789	2018
441	447	1269
442	1106	2502
443	1014	2187
444	746	2164
445	0	856
446	799	2560
447	2318	2896
448	1841	2175
449	1443	2562
450	1328	2343
451	0	1046
452	248	560
453	0	1831
454	1162	2259
455	598	2055
456	1312	2365
457	195	1995
458	1265	2993
459	1446	1872
460	776	2448
461	631	1623
462	1715	2774
463	321	1685
464	1530	2152
465	539	2028
466	0	895
467	0	1522
468	1169	2247
469	925	2572
470	0	1509
471	1449	1760
472	1954	2420
473	605	1995
474	599	1466
475	755	1988
476	640	1875
477	545	1854
478	1268	3000
479	1298	1567
480	520	984
481	989	2385
482	639	1483
483	1689	1911
484	402	1640
485	1146	1562
486	894	2618
487	1473	1734
488	1292	1596
489	342	2315
490	1723	2124
491	797	2356
492	1923	2233
493	12	1959
494	1249	1781
495	776	2144
496	178	1705
497	1000	1930
498	0	1799
499	678	2380
500	1038	2679
501	1566	2178
BACKHAUL_SECTION
3	4	6	14	16	30	36	39	46	49	55	58	64	66	67	68	69	70	75	84	90	91	101	108	120	122	125	129	134	135	138	140	141	154	156	161	163	167	168	171	172	189	192	194	206	219	220	225	227	235	239	255	261	266	270	276	277	279	286	291	297	318	328	332	343	345	351	360	365	367	371	376	377	379	381	383	388	401	407	417	420	422	424	427	429	431	443	446	456	461	462	471	473	477	479	485	486	487	491	497	-1
DEPOT_SECTION
1
-1
EOF
