NAME : n501-0021
COMMENT : "Generated by pyvrp_manuel (VRPBTW)"
TYPE : VRPBTW
DIMENSION : 501
EDGE_WEIGHT_TYPE : EUC_2D
CAPACITY : 100
VEHICLES : 500
SERVICE_TIME : 200
NODE_COORD_SECTION
1	553	136
2	386	213
3	142	382
4	362	303
5	811	810
6	57	894
7	69	863
8	629	535
9	873	185
10	151	643
11	120	748
12	577	39
13	406	148
14	814	925
15	249	806
16	415	967
17	741	272
18	6	599
19	206	367
20	681	403
21	888	945
22	4	290
23	915	211
24	665	353
25	918	315
26	520	103
27	195	464
28	27	248
29	72	125
30	359	659
31	142	889
32	498	832
33	275	351
34	309	668
35	410	804
36	835	166
37	341	203
38	3	340
39	305	591
40	757	357
41	862	180
42	176	457
43	935	307
44	208	883
45	151	5
46	217	905
47	105	432
48	376	379
49	580	130
50	500	933
51	363	630
52	912	544
53	731	952
54	68	272
55	797	600
56	255	894
57	54	262
58	279	573
59	213	80
60	341	440
61	927	581
62	157	588
63	679	836
64	919	539
65	887	269
66	478	190
67	85	909
68	531	417
69	668	473
70	992	221
71	841	598
72	406	111
73	364	626
74	141	558
75	717	146
76	422	266
77	718	92
78	693	507
79	36	622
80	147	195
81	479	337
82	609	937
83	3	57
84	422	341
85	943	245
86	92	794
87	976	656
88	792	292
89	40	530
90	281	939
91	669	177
92	420	529
93	142	574
94	968	544
95	155	668
96	174	488
97	359	881
98	928	111
99	137	247
100	165	526
101	758	628
102	643	45
103	538	938
104	625	583
105	83	564
106	250	545
107	779	806
108	578	525
109	746	186
110	800	921
111	696	541
112	866	771
113	682	364
114	850	635
115	285	837
116	59	162
117	694	130
118	102	531
119	338	890
120	847	570
121	645	795
122	706	163
123	534	121
124	901	246
125	806	831
126	507	36
127	835	199
128	536	865
129	316	927
130	204	753
131	221	509
132	519	42
133	98	135
134	907	103
135	356	379
136	296	86
137	442	638
138	4	394
139	1000	40
140	426	173
141	619	160
142	85	694
143	240	130
144	924	499
145	174	808
146	196	886
147	575	969
148	132	432
149	309	804
150	922	508
151	766	522
152	765	256
153	806	618
154	388	794
155	897	914
156	44	139
157	761	11
158	434	385
159	463	584
160	83	704
161	710	464
162	253	137
163	671	373
164	331	404
165	732	350
166	936	991
167	174	198
168	67	921
169	48	564
170	957	279
171	309	380
172	39	187
173	962	555
174	846	202
175	34	562
176	288	175
177	797	537
178	67	437
179	673	624
180	514	956
181	689	438
182	83	825
183	953	896
184	138	107
185	656	560
186	371	715
187	210	40
188	987	309
189	691	775
190	19	67
191	770	511
192	950	767
193	303	315
194	656	268
195	53	66
196	450	394
197	123	371
198	365	200
199	321	884
200	770	803
201	849	818
202	506	625
203	128	612
204	573	538
205	530	416
206	679	912
207	828	896
208	656	125
209	170	663
210	303	863
211	780	722
212	488	899
213	91	261
214	283	649
215	402	249
216	949	51
217	21	94
218	801	807
219	45	287
220	367	47
221	267	996
222	673	820
223	143	863
224	163	623
225	994	732
226	177	996
227	861	439
228	684	150
229	645	150
230	527	237
231	619	336
232	589	444
233	272	646
234	352	689
235	766	109
236	578	760
237	858	717
238	430	195
239	8	475
240	874	317
241	255	175
242	2	13
243	125	609
244	894	675
245	573	266
246	838	875
247	704	707
248	358	622
249	350	377
250	487	384
251	195	241
252	337	887
253	981	994
254	987	114
255	57	981
256	525	534
257	944	839
258	264	734
259	284	120
260	434	947
261	878	968
262	823	277
263	118	913
264	811	995
265	959	16
266	136	751
267	977	520
268	245	714
269	356	536
270	492	169
271	837	937
272	786	940
273	242	110
274	552	984
275	851	971
276	58	520
277	604	671
278	439	461
279	791	767
280	536	484
281	692	883
282	759	520
283	856	264
284	949	895
285	74	649
286	178	94
287	691	115
288	476	583
289	995	288
290	351	172
291	160	612
292	990	763
293	501	115
294	345	538
295	573	839
296	383	635
297	375	597
298	612	796
299	578	36
300	514	768
301	954	536
302	332	631
303	929	841
304	503	79
305	515	299
306	693	666
307	132	768
308	77	98
309	507	124
310	683	860
311	991	107
312	389	241
313	789	855
314	479	123
315	278	13
316	82	751
317	655	196
318	947	306
319	868	534
320	582	688
321	498	861
322	726	371
323	584	955
324	347	871
325	491	702
326	108	445
327	230	441
328	891	457
329	421	478
330	630	100
331	252	158
332	539	502
333	796	393
334	35	496
335	356	276
336	982	725
337	836	375
338	947	458
339	736	482
340	179	550
341	761	66
342	444	352
343	412	994
344	953	790
345	448	765
346	568	152
347	592	436
348	276	931
349	749	307
350	949	717
351	421	936
352	652	945
353	683	476
354	508	984
355	309	595
356	814	853
357	702	682
358	307	187
359	358	827
360	357	34
361	791	693
362	447	44
363	961	944
364	28	76
365	974	917
366	442	750
367	184	948
368	794	647
369	456	204
370	499	157
371	749	225
372	769	908
373	32	567
374	642	429
375	35	864
376	475	540
377	387	28
378	336	262
379	72	52
380	513	216
381	38	491
382	104	736
383	730	204
384	290	202
385	687	114
386	687	913
387	842	644
388	160	472
389	784	913
390	396	660
391	376	462
392	470	468
393	289	331
394	706	595
395	325	254
396	517	347
397	656	390
398	210	310
399	896	77
400	909	277
401	595	448
402	687	889
403	337	389
404	639	278
405	624	816
406	79	946
407	814	132
408	745	992
409	223	93
410	276	347
411	800	855
412	336	755
413	491	765
414	486	594
415	33	946
416	905	202
417	842	17
418	4	57
419	898	312
420	348	837
421	101	154
422	638	566
423	400	410
424	653	423
425	76	872
426	79	51
427	294	983
428	284	689
429	135	589
430	528	761
431	514	976
432	414	7
433	461	918
434	429	982
435	423	660
436	293	952
437	385	295
438	978	870
439	495	248
440	921	704
441	154	703
442	152	567
443	358	693
444	113	867
445	996	438
446	659	876
447	760	168
448	90	309
449	480	942
450	238	274
451	519	492
452	51	185
453	48	86
454	193	857
455	965	374
456	286	382
457	24	816
458	363	562
459	624	770
460	915	612
461	322	707
462	317	310
463	690	281
464	404	900
465	146	800
466	55	478
467	997	728
468	513	843
469	536	235
470	738	786
471	981	878
472	312	521
473	769	125
474	203	806
475	935	959
476	726	34
477	354	624
478	522	73
479	143	710
480	546	959
481	213	654
482	633	453
483	195	293
484	103	483
485	67	639
486	855	907
487	779	62
488	213	502
489	357	215
490	687	963
491	179	463
492	492	719
493	80	510
494	367	98
495	724	946
496	862	360
497	350	462
498	103	77
499	475	826
500	45	464
501	190	644
DEMAND_SECTION
1	0
2	3
3	4
4	3
5	1
6	1
7	3
8	1
9	1
10	6
11	2
12	4
13	1
14	1
15	6
16	9
17	2
18	3
19	8
20	3
21	9
22	4
23	2
24	9
25	2
26	1
27	6
28	2
29	2
30	2
31	6
32	6
33	6
34	7
35	5
36	4
37	8
38	5
39	8
40	7
41	4
42	9
43	3
44	1
45	7
46	6
47	6
48	3
49	7
50	6
51	1
52	2
53	1
54	5
55	4
56	6
57	1
58	4
59	6
60	4
61	7
62	9
63	2
64	8
65	2
66	1
67	1
68	3
69	9
70	1
71	1
72	3
73	5
74	4
75	9
76	9
77	7
78	4
79	7
80	4
81	9
82	9
83	3
84	5
85	6
86	1
87	6
88	3
89	9
90	5
91	1
92	5
93	5
94	4
95	6
96	1
97	9
98	1
99	8
100	4
101	9
102	9
103	1
104	5
105	5
106	9
107	4
108	5
109	5
110	3
111	9
112	7
113	4
114	1
115	1
116	3
117	9
118	3
119	7
120	2
121	9
122	3
123	2
124	5
125	7
126	2
127	6
128	6
129	5
130	5
131	8
132	1
133	7
134	7
135	2
136	1
137	1
138	5
139	8
140	4
141	1
142	8
143	4
144	9
145	8
146	2
147	9
148	5
149	2
150	8
151	4
152	7
153	9
154	4
155	3
156	1
157	4
158	2
159	8
160	9
161	7
162	7
163	4
164	4
165	3
166	6
167	7
168	9
169	5
170	8
171	2
172	4
173	7
174	9
175	2
176	8
177	9
178	4
179	6
180	9
181	9
182	1
183	2
184	9
185	5
186	9
187	6
188	4
189	7
190	8
191	9
192	5
193	5
194	6
195	2
196	4
197	1
198	4
199	3
200	1
201	6
202	5
203	3
204	7
205	4
206	8
207	5
208	4
209	1
210	4
211	5
212	4
213	5
214	1
215	9
216	5
217	5
218	4
219	1
220	2
221	6
222	6
223	3
224	6
225	3
226	5
227	1
228	6
229	6
230	4
231	1
232	7
233	4
234	4
235	9
236	3
237	9
238	9
239	4
240	6
241	2
242	3
243	2
244	5
245	2
246	6
247	2
248	5
249	9
250	7
251	2
252	2
253	3
254	3
255	1
256	5
257	8
258	1
259	9
260	5
261	5
262	1
263	2
264	9
265	9
266	7
267	3
268	5
269	9
270	1
271	2
272	7
273	1
274	2
275	5
276	2
277	3
278	5
279	6
280	6
281	2
282	7
283	5
284	8
285	1
286	4
287	2
288	8
289	3
290	4
291	7
292	2
293	6
294	8
295	2
296	7
297	7
298	9
299	5
300	3
301	8
302	5
303	9
304	7
305	1
306	9
307	8
308	4
309	5
310	9
311	5
312	2
313	6
314	8
315	9
316	1
317	3
318	6
319	5
320	5
321	2
322	3
323	1
324	9
325	3
326	7
327	8
328	1
329	5
330	3
331	8
332	2
333	5
334	1
335	1
336	5
337	9
338	5
339	6
340	2
341	3
342	3
343	6
344	3
345	4
346	6
347	7
348	3
349	6
350	2
351	7
352	3
353	6
354	9
355	3
356	1
357	3
358	8
359	3
360	3
361	5
362	5
363	9
364	2
365	9
366	9
367	6
368	1
369	3
370	6
371	4
372	3
373	6
374	6
375	2
376	3
377	5
378	8
379	5
380	5
381	4
382	9
383	9
384	1
385	2
386	5
387	6
388	7
389	7
390	3
391	1
392	1
393	2
394	7
395	6
396	9
397	4
398	5
399	3
400	3
401	6
402	5
403	1
404	2
405	6
406	2
407	7
408	1
409	6
410	5
411	2
412	8
413	6
414	1
415	2
416	8
417	9
418	9
419	5
420	1
421	5
422	8
423	4
424	3
425	8
426	4
427	2
428	5
429	2
430	5
431	6
432	6
433	6
434	6
435	3
436	2
437	4
438	4
439	3
440	9
441	5
442	8
443	8
444	8
445	4
446	5
447	6
448	2
449	9
450	3
451	3
452	9
453	6
454	7
455	8
456	9
457	8
458	6
459	3
460	6
461	5
462	8
463	7
464	2
465	3
466	2
467	2
468	8
469	8
470	7
471	2
472	6
473	9
474	3
475	7
476	8
477	5
478	6
479	2
480	3
481	2
482	5
483	2
484	4
485	2
486	8
487	6
488	9
489	5
490	7
491	4
492	5
493	2
494	5
495	8
496	7
497	8
498	1
499	2
500	7
501	9
TIME_WINDOW_SECTION
1	0	3000
2	566	1587
3	133	1829
4	655	1442
5	1265	2278
6	596	1724
7	845	2178
8	894	1685
9	1060	2075
10	66	1754
11	910	2573
12	57	705
13	1950	3000
14	944	2767
15	434	1042
16	717	1677
17	1643	3000
18	1102	2322
19	1029	1903
20	1390	1730
21	667	2222
22	1210	1532
23	1506	3000
24	0	1590
25	1708	2009
26	375	2183
27	454	1061
28	388	1883
29	690	1875
30	692	1900
31	1221	2446
32	1332	1800
33	0	1458
34	1540	2731
35	1081	1593
36	845	2234
37	0	1265
38	0	1554
39	1068	1339
40	1719	2999
41	1982	2237
42	866	2499
43	0	1352
44	892	1883
45	1320	2893
46	978	2512
47	267	1435
48	1031	2843
49	1652	3000
50	1330	2206
51	370	1674
52	1593	2687
53	976	2454
54	1068	1876
55	518	1401
56	372	1937
57	1572	2244
58	1642	2763
59	1577	1877
60	1409	2189
61	568	2395
62	448	1918
63	1051	2355
64	645	1988
65	1257	1508
66	1789	2699
67	751	1683
68	1499	3000
69	363	1212
70	677	1624
71	561	2218
72	1280	1487
73	654	2353
74	395	2195
75	0	1520
76	1576	2432
77	1600	1806
78	1592	3000
79	1618	2301
80	955	2816
81	1176	1803
82	956	2371
83	1015	2966
84	181	971
85	840	2829
86	1297	1947
87	1335	2453
88	993	2212
89	573	2516
90	918	2647
91	1332	2637
92	1603	2601
93	1444	2387
94	458	1543
95	32	1628
96	591	1939
97	829	2343
98	805	1708
99	432	1708
100	415	2274
101	335	1375
102	857	2424
103	780	1865
104	175	1209
105	863	2593
106	184	1415
107	1151	2154
108	931	2782
109	2121	2919
110	84	1973
111	1418	2037
112	380	2322
113	1317	1852
114	1569	2490
115	463	1510
116	487	1161
117	544	2451
118	1390	2883
119	677	2643
120	427	1303
121	1455	2172
122	2385	2633
123	2130	2523
124	1140	2857
125	1111	2555
126	0	721
127	835	1415
128	581	1206
129	32	1728
130	1326	2428
131	322	2294
132	1954	2856
133	961	2237
134	344	2248
135	685	1892
136	1165	1515
137	977	1203
138	345	903
139	569	1451
140	1335	3000
141	1955	3000
142	1217	2211
143	1206	1778
144	437	1207
145	1081	2765
146	1312	2530
147	46	1824
148	0	1490
149	638	2186
150	1098	1824
151	1151	2740
152	2045	3000
153	1089	2137
154	0	1811
155	1096	1321
156	490	2346
157	1610	1964
158	0	1327
159	1370	2050
160	1304	2368
161	1010	1450
162	1486	1861
163	1582	2813
164	1886	2563
165	1583	3000
166	799	2128
167	1795	2392
168	397	2018
169	958	1223
170	1099	2866
171	1301	3000
172	1133	1584
173	1013	2134
174	217	1653
175	359	1792
176	2033	2509
177	1446	2488
178	1170	1636
179	1023	1437
180	1220	2277
181	1506	2700
182	1111	2643
183	0	1764
184	1861	2215
185	992	2705
186	947	1970
187	829	2576
188	549	1360
189	259	1619
190	0	1543
191	194	1547
192	1018	2887
193	64	824
194	2209	2576
195	1431	2897
196	1096	2213
197	941	1181
198	0	1242
199	983	1552
200	725	1465
201	902	2416
202	1061	1428
203	1772	2176
204	1245	2295
205	0	1489
206	567	1706
207	1006	1563
208	0	1028
209	1169	1578
210	611	1298
211	45	1998
212	1433	2083
213	563	1092
214	1203	2885
215	1538	2546
216	1018	2462
217	837	2640
218	481	1975
219	1860	2367
220	1600	3000
221	512	1575
222	1473	2217
223	1050	2624
224	1159	1581
225	1232	2857
226	1088	2202
227	0	1624
228	1846	2209
229	786	2151
230	1038	2316
231	833	2568
232	1434	2588
233	441	2399
234	439	1103
235	1967	2197
236	1016	2137
237	1276	2637
238	1433	3000
239	1397	2069
240	860	1363
241	0	1057
242	1367	2974
243	751	2371
244	454	2082
245	311	1361
246	680	1174
247	1273	2747
248	1241	3000
249	1302	2780
250	36	1070
251	377	1325
252	302	2175
253	642	2432
254	570	1301
255	816	2653
256	488	699
257	957	2637
258	1686	2408
259	167	1946
260	428	1817
261	804	1420
262	1143	2369
263	1395	1824
264	1089	2669
265	1311	2452
266	885	2590
267	1622	2039
268	707	1658
269	73	1843
270	2039	2662
271	290	2112
272	250	1882
273	379	1738
274	857	1814
275	1124	2064
276	265	1490
277	0	1291
278	363	1774
279	137	1913
280	718	2083
281	777	1832
282	1316	1869
283	624	1841
284	1609	2019
285	798	2187
286	239	1400
287	1640	1972
288	1058	1652
289	1116	1436
290	803	2274
291	548	1908
292	746	2261
293	752	1125
294	1711	2079
295	1487	2643
296	241	1789
297	1086	1574
298	1345	2260
299	0	1245
300	483	1096
301	1247	3000
302	800	2536
303	509	2169
304	189	1718
305	0	1536
306	1097	2017
307	1327	1576
308	1158	1592
309	369	1682
310	115	2011
311	1445	2509
312	1302	3000
313	348	1623
314	1134	2730
315	1550	2799
316	1001	2828
317	0	1032
318	1571	2977
319	1157	2265
320	1160	1714
321	1020	1461
322	405	800
323	466	1333
324	633	1752
325	621	2430
326	713	1306
327	1289	3000
328	1079	1885
329	206	1721
330	1197	1771
331	193	539
332	1688	2846
333	981	1626
334	934	2619
335	737	2521
336	1709	2226
337	208	2062
338	1470	2419
339	625	1166
340	516	999
341	47	1923
342	607	1013
343	610	1717
344	679	1820
345	473	2027
346	510	843
347	231	1534
348	638	2467
349	374	1836
350	212	2152
351	415	1325
352	267	1882
353	611	2457
354	1141	1894
355	799	2526
356	2	1574
357	1225	1627
358	1993	2425
359	919	2365
360	623	870
361	672	1641
362	448	1104
363	1335	1880
364	1053	2331
365	1056	1274
366	1167	2097
367	419	1716
368	1666	2684
369	0	995
370	2216	2840
371	2063	2940
372	1610	1978
373	1331	1628
374	1048	2975
375	413	2397
376	1697	2544
377	1626	3000
378	1817	2127
379	407	1219
380	8	502
381	1674	1912
382	1244	2524
383	2009	2492
384	1516	3000
385	1245	1499
386	1032	2665
387	1140	2818
388	0	1666
389	870	1222
390	1356	2455
391	536	1652
392	1657	2886
393	1110	2584
394	1461	2630
395	1394	2230
396	636	2051
397	2038	2799
398	1128	2407
399	140	701
400	338	2254
401	0	1566
402	789	1962
403	1240	1821
404	1793	2284
405	1057	1275
406	1263	2205
407	466	2017
408	600	1942
409	1007	1948
410	1554	2895
411	252	1368
412	1824	2244
413	595	1694
414	1627	2060
415	1333	2332
416	146	730
417	96	1382
418	680	2006
419	604	1613
420	1432	1962
421	851	1120
422	1330	1645
423	966	2621
424	782	2102
425	644	2422
426	1189	2152
427	519	1489
428	483	1001
429	479	1416
430	1409	1872
431	966	1362
432	0	999
433	669	2361
434	680	1855
435	235	1834
436	763	2188
437	1298	1812
438	1239	1913
439	0	1767
440	864	2593
441	1128	2811
442	109	1819
443	86	1429
444	861	2484
445	592	919
446	921	2111
447	1571	2099
448	0	1150
449	1127	2613
450	1490	2535
451	130	2087
452	391	1603
453	753	2292
454	145	2093
455	435	776
456	532	984
457	1087	1472
458	0	1308
459	1551	2680
460	309	1654
461	757	1068
462	1761	2978
463	678	1399
464	246	2221
465	1316	1609
466	416	1628
467	1912	2195
468	792	1510
469	677	1810
470	681	1503
471	775	1336
472	514	1878
473	747	1752
474	1090	2900
475	441	1435
476	0	1218
477	691	1889
478	1402	2681
479	849	2228
480	1116	2075
481	498	1945
482	0	965
483	137	1859
484	0	1382
485	164	1807
486	779	2145
487	322	1205
488	1198	1860
489	2173	2432
490	896	2140
491	779	2397
492	284	1030
493	511	2110
494	302	1343
495	251	1598
496	20	1851
497	0	1100
498	1690	2584
499	1179	1530
500	1045	2421
501	1565	2416
BACKHAUL_SECTION
3	4	6	14	16	30	36	39	46	49	55	58	64	66	67	68	69	70	75	84	90	91	101	108	120	122	125	129	134	135	138	140	141	154	156	161	163	167	168	171	172	189	192	194	206	219	220	225	227	235	239	255	261	266	270	276	277	279	286	291	297	318	328	332	343	345	351	360	365	367	371	376	377	379	381	383	388	401	407	417	420	422	424	427	429	431	443	446	456	461	462	471	473	477	479	485	486	487	491	497	-1
DEPOT_SECTION
1
-1
EOF
