NAME : n501-0006
COMMENT : "Generated by pyvrp_manuel (VRPBTW)"
TYPE : VRPBTW
DIMENSION : 501
EDGE_WEIGHT_TYPE : EUC_2D
CAPACITY : 100
VEHICLES : 500
SERVICE_TIME : 200
NODE_COORD_SECTION
1	864	535
2	976	791
3	912	862
4	595	115
5	982	863
6	768	739
7	478	199
8	130	339
9	402	189
10	429	29
11	269	808
12	600	781
13	447	572
14	72	825
15	569	389
16	44	326
17	999	437
18	136	868
19	739	216
20	180	708
21	369	283
22	909	800
23	116	856
24	946	816
25	695	218
26	156	656
27	309	884
28	842	973
29	791	771
30	190	841
31	554	813
32	134	831
33	210	359
34	500	467
35	913	62
36	638	360
37	732	9
38	902	705
39	402	604
40	922	948
41	259	49
42	876	666
43	270	964
44	730	996
45	421	241
46	423	577
47	914	464
48	765	29
49	698	174
50	482	26
51	150	8
52	341	284
53	59	887
54	912	253
55	930	141
56	139	741
57	367	262
58	70	278
59	355	476
60	306	905
61	987	397
62	106	179
63	467	132
64	876	39
65	559	336
66	691	302
67	654	520
68	696	673
69	234	892
70	923	263
71	478	646
72	246	286
73	10	59
74	368	224
75	893	116
76	130	409
77	819	621
78	465	600
79	5	174
80	599	42
81	87	457
82	316	42
83	566	552
84	330	647
85	431	493
86	532	446
87	329	974
88	726	672
89	231	133
90	339	134
91	919	788
92	339	132
93	800	999
94	715	512
95	651	15
96	360	812
97	846	123
98	147	531
99	55	724
100	570	198
101	698	573
102	32	70
103	433	814
104	571	141
105	997	68
106	500	637
107	829	736
108	32	211
109	144	520
110	735	343
111	766	466
112	98	815
113	753	188
114	689	519
115	19	573
116	526	583
117	753	857
118	278	941
119	520	888
120	592	428
121	454	197
122	933	168
123	609	261
124	996	368
125	175	269
126	692	747
127	184	632
128	299	863
129	829	220
130	615	549
131	515	704
132	51	406
133	121	167
134	660	563
135	244	49
136	69	32
137	69	724
138	483	315
139	753	67
140	922	649
141	530	374
142	762	879
143	706	865
144	253	663
145	477	158
146	11	169
147	480	55
148	564	640
149	995	664
150	839	840
151	981	14
152	762	751
153	105	567
154	772	204
155	122	487
156	572	198
157	556	83
158	448	453
159	448	314
160	984	565
161	52	397
162	59	830
163	47	523
164	466	786
165	855	17
166	927	160
167	9	0
168	656	503
169	822	77
170	421	633
171	637	864
172	956	686
173	800	787
174	406	734
175	232	196
176	856	893
177	107	768
178	213	962
179	802	462
180	219	459
181	108	648
182	809	341
183	210	43
184	872	274
185	66	258
186	970	294
187	951	555
188	771	481
189	32	729
190	808	650
191	730	684
192	229	755
193	465	676
194	594	329
195	812	620
196	712	822
197	232	504
198	387	578
199	352	841
200	277	576
201	652	353
202	535	663
203	260	414
204	872	533
205	718	314
206	494	437
207	487	68
208	573	509
209	943	828
210	567	215
211	574	520
212	330	430
213	596	493
214	651	296
215	146	921
216	932	106
217	598	332
218	488	54
219	635	798
220	850	797
221	202	149
222	611	858
223	289	891
224	39	588
225	491	829
226	666	700
227	402	960
228	150	946
229	600	741
230	902	266
231	299	51
232	373	510
233	871	898
234	229	844
235	867	510
236	500	981
237	339	238
238	241	770
239	78	355
240	336	220
241	236	450
242	873	27
243	991	637
244	900	298
245	540	682
246	331	685
247	334	418
248	791	661
249	984	165
250	205	476
251	265	520
252	963	130
253	295	744
254	436	674
255	132	613
256	188	347
257	693	167
258	358	344
259	805	875
260	893	131
261	967	22
262	509	870
263	696	693
264	364	671
265	121	640
266	973	307
267	581	93
268	626	631
269	756	715
270	247	226
271	611	688
272	211	620
273	385	282
274	424	969
275	763	809
276	426	610
277	869	617
278	954	230
279	180	146
280	416	732
281	447	742
282	871	709
283	584	774
284	99	31
285	570	206
286	141	998
287	21	412
288	709	15
289	387	815
290	87	352
291	37	569
292	942	688
293	162	460
294	618	757
295	33	366
296	284	455
297	696	51
298	718	447
299	32	712
300	473	916
301	922	846
302	653	767
303	175	268
304	684	554
305	130	105
306	88	185
307	123	793
308	817	986
309	962	278
310	496	848
311	97	937
312	623	379
313	200	437
314	7	928
315	840	19
316	571	705
317	295	407
318	134	436
319	125	155
320	810	91
321	299	836
322	475	962
323	515	41
324	273	711
325	506	998
326	34	705
327	669	843
328	519	935
329	452	997
330	654	994
331	119	731
332	521	220
333	618	168
334	469	615
335	324	494
336	370	367
337	545	356
338	663	509
339	381	982
340	634	316
341	174	627
342	622	257
343	149	468
344	548	120
345	763	615
346	40	533
347	636	122
348	55	169
349	683	412
350	463	684
351	820	313
352	747	208
353	2	506
354	483	261
355	940	198
356	37	159
357	122	585
358	422	861
359	399	19
360	307	521
361	688	345
362	413	41
363	403	695
364	154	655
365	24	707
366	314	555
367	640	947
368	902	708
369	422	644
370	715	219
371	276	795
372	921	714
373	920	946
374	461	736
375	984	22
376	98	406
377	849	60
378	352	378
379	629	450
380	80	656
381	805	407
382	273	356
383	347	679
384	532	882
385	178	58
386	329	938
387	125	926
388	76	202
389	38	153
390	320	997
391	755	262
392	799	448
393	852	510
394	896	56
395	698	976
396	330	574
397	31	468
398	623	184
399	155	43
400	559	786
401	607	403
402	399	950
403	182	370
404	660	83
405	58	645
406	129	118
407	282	186
408	443	844
409	887	356
410	729	364
411	756	503
412	435	594
413	635	642
414	68	347
415	171	82
416	660	876
417	639	486
418	414	88
419	677	583
420	60	978
421	637	624
422	827	601
423	90	63
424	33	362
425	394	59
426	843	570
427	397	767
428	634	508
429	904	698
430	564	190
431	835	89
432	18	331
433	600	399
434	186	507
435	242	103
436	758	119
437	855	745
438	107	886
439	403	528
440	697	948
441	363	21
442	479	359
443	548	503
444	375	586
445	19	695
446	503	95
447	843	565
448	891	981
449	577	825
450	707	558
451	459	965
452	410	601
453	185	398
454	772	75
455	146	183
456	523	180
457	758	503
458	948	407
459	598	552
460	35	510
461	229	372
462	917	39
463	485	360
464	81	775
465	846	448
466	518	441
467	321	552
468	789	377
469	717	436
470	583	630
471	889	971
472	503	284
473	702	135
474	591	215
475	863	264
476	252	983
477	485	163
478	926	546
479	770	720
480	400	891
481	246	710
482	52	82
483	46	550
484	798	27
485	877	528
486	379	880
487	202	562
488	809	854
489	664	844
490	807	56
491	14	80
492	598	94
493	196	261
494	682	914
495	224	489
496	699	249
497	57	604
498	930	269
499	324	275
500	35	787
501	529	678
DEMAND_SECTION
1	0
2	3
3	2
4	7
5	1
6	4
7	6
8	8
9	4
10	8
11	6
12	5
13	3
14	4
15	7
16	8
17	3
18	1
19	5
20	9
21	7
22	9
23	3
24	3
25	7
26	6
27	3
28	8
29	3
30	5
31	1
32	8
33	6
34	6
35	3
36	4
37	3
38	3
39	3
40	5
41	1
42	3
43	1
44	6
45	4
46	3
47	3
48	7
49	9
50	7
51	4
52	5
53	8
54	7
55	2
56	3
57	4
58	2
59	2
60	4
61	6
62	4
63	3
64	2
65	9
66	1
67	6
68	6
69	4
70	9
71	3
72	2
73	9
74	3
75	8
76	4
77	5
78	3
79	1
80	5
81	1
82	5
83	8
84	4
85	8
86	7
87	1
88	7
89	3
90	4
91	8
92	1
93	2
94	4
95	1
96	1
97	6
98	7
99	9
100	1
101	1
102	5
103	2
104	6
105	8
106	9
107	6
108	3
109	9
110	8
111	7
112	5
113	2
114	4
115	6
116	6
117	2
118	6
119	6
120	3
121	5
122	4
123	1
124	6
125	1
126	3
127	6
128	1
129	6
130	3
131	3
132	3
133	6
134	5
135	7
136	6
137	7
138	1
139	1
140	3
141	6
142	5
143	7
144	9
145	6
146	1
147	1
148	1
149	7
150	2
151	3
152	3
153	7
154	6
155	3
156	6
157	7
158	6
159	2
160	4
161	6
162	1
163	1
164	1
165	4
166	5
167	4
168	3
169	5
170	8
171	1
172	7
173	8
174	8
175	7
176	1
177	8
178	3
179	7
180	9
181	2
182	7
183	7
184	2
185	9
186	5
187	9
188	8
189	9
190	1
191	4
192	9
193	2
194	1
195	1
196	9
197	4
198	8
199	3
200	7
201	4
202	5
203	4
204	8
205	6
206	4
207	4
208	9
209	6
210	7
211	6
212	9
213	3
214	2
215	9
216	2
217	9
218	8
219	9
220	1
221	8
222	9
223	5
224	2
225	6
226	3
227	8
228	9
229	5
230	8
231	8
232	4
233	1
234	1
235	9
236	2
237	9
238	5
239	8
240	9
241	3
242	2
243	5
244	5
245	1
246	1
247	2
248	1
249	5
250	9
251	6
252	3
253	1
254	3
255	1
256	2
257	9
258	2
259	9
260	5
261	6
262	4
263	4
264	7
265	1
266	7
267	5
268	7
269	8
270	3
271	5
272	9
273	3
274	1
275	4
276	8
277	7
278	4
279	5
280	9
281	3
282	3
283	5
284	9
285	5
286	8
287	5
288	5
289	7
290	5
291	4
292	2
293	5
294	4
295	5
296	3
297	4
298	8
299	6
300	4
301	5
302	8
303	2
304	7
305	7
306	5
307	3
308	5
309	5
310	1
311	2
312	9
313	9
314	5
315	8
316	7
317	9
318	9
319	6
320	9
321	6
322	2
323	1
324	6
325	4
326	8
327	2
328	2
329	8
330	6
331	4
332	4
333	9
334	1
335	7
336	2
337	9
338	2
339	1
340	3
341	3
342	2
343	5
344	6
345	9
346	8
347	6
348	8
349	2
350	2
351	2
352	4
353	4
354	8
355	2
356	5
357	8
358	4
359	9
360	9
361	2
362	8
363	3
364	7
365	3
366	8
367	2
368	5
369	4
370	5
371	1
372	1
373	3
374	6
375	6
376	3
377	2
378	7
379	2
380	8
381	2
382	2
383	8
384	9
385	1
386	7
387	6
388	1
389	4
390	1
391	4
392	8
393	1
394	6
395	8
396	6
397	3
398	4
399	4
400	8
401	8
402	3
403	9
404	3
405	8
406	3
407	6
408	5
409	3
410	3
411	2
412	4
413	9
414	4
415	3
416	9
417	4
418	2
419	7
420	4
421	1
422	5
423	2
424	1
425	4
426	8
427	6
428	4
429	2
430	6
431	1
432	3
433	5
434	9
435	9
436	8
437	6
438	8
439	9
440	2
441	8
442	1
443	1
444	3
445	4
446	9
447	6
448	7
449	7
450	1
451	3
452	4
453	7
454	8
455	2
456	7
457	9
458	5
459	5
460	8
461	4
462	2
463	9
464	1
465	1
466	1
467	5
468	6
469	4
470	2
471	4
472	1
473	6
474	7
475	6
476	8
477	9
478	4
479	1
480	4
481	1
482	2
483	6
484	6
485	8
486	4
487	9
488	3
489	4
490	9
491	7
492	6
493	5
494	9
495	5
496	7
497	7
498	4
499	4
500	1
501	3
TIME_WINDOW_SECTION
1	0	3000
2	1061	2301
3	203	1403
4	1207	1553
5	1885	2191
6	707	1462
7	620	1246
8	1002	1295
9	946	2884
10	520	2141
11	1602	2439
12	154	1535
13	1483	1960
14	1440	2288
15	0	1424
16	84	1913
17	690	2672
18	687	2581
19	890	1447
20	1077	1391
21	384	2229
22	598	2394
23	778	2431
24	700	1453
25	194	1162
26	700	2608
27	180	1219
28	1472	2602
29	921	2825
30	990	2544
31	0	1573
32	948	1813
33	1323	2465
34	231	874
35	1590	1910
36	1358	2008
37	882	1417
38	874	1521
39	1021	1675
40	1516	3000
41	517	1431
42	1686	3000
43	164	2003
44	765	2024
45	1620	2393
46	189	1088
47	0	895
48	190	2108
49	213	702
50	622	1985
51	1532	1760
52	1270	1702
53	849	2093
54	1049	2471
55	1001	2974
56	1542	1998
57	932	1289
58	1291	1866
59	366	1420
60	1038	1407
61	107	1478
62	553	2533
63	1494	2566
64	1704	2624
65	546	1977
66	83	1509
67	1052	1395
68	821	2349
69	453	1396
70	1041	1573
71	0	1588
72	1132	1885
73	302	1775
74	1785	2205
75	1526	2593
76	773	2655
77	814	1228
78	2067	2720
79	323	2066
80	0	1208
81	1449	2120
82	399	2054
83	428	1476
84	1200	2509
85	1817	2127
86	2217	2475
87	557	2354
88	255	1604
89	769	2069
90	796	1884
91	1841	2503
92	0	1607
93	623	1948
94	815	2035
95	259	2106
96	915	1746
97	1235	1912
98	319	2214
99	1413	1918
100	1066	2246
101	1289	3000
102	869	1481
103	2148	2387
104	0	1264
105	1122	2611
106	1180	2135
107	1320	2944
108	1057	1692
109	463	1116
110	0	771
111	991	2026
112	34	1750
113	2130	2380
114	1350	3000
115	860	1790
116	665	1772
117	521	1877
118	515	960
119	1223	2988
120	1405	2638
121	1547	2595
122	1294	2267
123	0	1373
124	1333	2004
125	481	1453
126	0	1760
127	1583	2482
128	1212	3000
129	1427	2412
130	1570	2344
131	1636	3000
132	730	1754
133	1783	2082
134	2223	2749
135	997	2366
136	1385	2099
137	958	1285
138	906	2903
139	1026	2888
140	1022	2601
141	1271	2684
142	289	1791
143	322	1413
144	511	1019
145	327	1135
146	594	1883
147	1363	2223
148	1311	1712
149	1439	2508
150	196	430
151	801	1696
152	553	898
153	871	1911
154	0	1515
155	1836	2110
156	234	774
157	1460	1959
158	0	1152
159	303	1725
160	321	2073
161	1110	1577
162	92	2076
163	333	1806
164	322	977
165	350	1635
166	1592	2193
167	943	1831
168	1186	1867
169	791	2568
170	1628	1873
171	1283	1850
172	1153	3000
173	1845	3000
174	960	2744
175	632	2562
176	246	696
177	975	1878
178	1141	2388
179	1217	1523
180	0	1497
181	1470	1942
182	562	816
183	985	1791
184	303	1982
185	1673	2230
186	0	1392
187	363	1170
188	149	388
189	1087	2722
190	30	317
191	1724	2223
192	131	1338
193	1493	2520
194	599	1110
195	0	1407
196	1381	1885
197	1412	1675
198	885	2145
199	883	1403
200	284	2177
201	0	1026
202	1716	2632
203	1057	1382
204	0	836
205	824	1693
206	1188	2739
207	0	1843
208	665	1532
209	1638	2724
210	191	769
211	1258	2479
212	458	1884
213	550	2303
214	1164	2951
215	312	1988
216	1440	2109
217	0	1390
218	1054	2573
219	1177	3000
220	1064	1646
221	1072	2867
222	1088	2848
223	985	1699
224	1073	2484
225	884	1093
226	154	1532
227	1080	2352
228	981	2418
229	141	2064
230	631	961
231	1100	1336
232	518	1760
233	1111	1849
234	729	1496
235	1391	1836
236	943	1222
237	312	2029
238	1412	2073
239	989	1608
240	0	1554
241	1076	2120
242	1522	2024
243	1471	1940
244	1248	2460
245	0	1386
246	591	1171
247	318	1196
248	749	1600
249	452	1848
250	1300	2095
251	1483	2103
252	1866	2558
253	1454	2267
254	1750	2431
255	469	2339
256	1319	1910
257	1221	2413
258	1347	2803
259	50	917
260	0	1327
261	1716	2199
262	1394	1866
263	115	861
264	862	2445
265	961	1862
266	1380	3000
267	1394	2577
268	535	865
269	111	378
270	720	2089
271	0	1095
272	597	1809
273	1187	1625
274	1157	2034
275	672	1537
276	1681	2609
277	1419	3000
278	1165	1621
279	749	2263
280	178	1119
281	1395	3000
282	1908	2883
283	228	1057
284	752	1522
285	2017	2425
286	807	1429
287	1057	1471
288	308	937
289	363	1786
290	104	1855
291	1172	2373
292	370	1560
293	381	1082
294	457	1440
295	691	1137
296	1461	2134
297	1381	2866
298	1101	2528
299	782	2161
300	1831	2558
301	797	2540
302	88	1821
303	964	2693
304	749	1752
305	1071	1430
306	485	1570
307	647	1646
308	1157	2109
309	1322	1594
310	1561	2423
311	1169	2252
312	463	1310
313	1000	1677
314	587	1775
315	1478	2299
316	249	1368
317	1050	2843
318	1516	2388
319	1244	1867
320	1956	2371
321	0	1714
322	1159	1867
323	419	2247
324	1244	1980
325	835	2475
326	294	1526
327	663	1458
328	254	1691
329	1598	1880
330	847	2312
331	926	1492
332	995	2909
333	1794	2649
334	276	581
335	1019	1609
336	1816	2535
337	2261	2544
338	1969	2198
339	1355	2356
340	1180	2069
341	922	2655
342	1476	2821
343	1201	2952
344	918	1347
345	66	2039
346	769	2158
347	680	1138
348	1122	1404
349	2040	2456
350	335	1183
351	1089	3000
352	738	1694
353	226	2057
354	0	1342
355	1173	1978
356	1007	2091
357	1209	2665
358	142	1632
359	1089	1335
360	526	921
361	1196	2872
362	1157	1892
363	491	2038
364	520	1441
365	986	2247
366	1209	2664
367	1070	2337
368	2201	2699
369	1643	2553
370	2141	2493
371	751	1323
372	1712	3000
373	1941	2172
374	1050	2229
375	745	2168
376	1004	1522
377	502	2141
378	999	2756
379	1615	2837
380	1500	1747
381	529	943
382	1022	1632
383	160	1288
384	1088	2416
385	395	2001
386	1179	1854
387	404	2377
388	793	1852
389	647	1181
390	541	2114
391	1363	3000
392	1228	1588
393	0	1649
394	68	1539
395	1541	2130
396	1057	2118
397	1488	1838
398	287	696
399	32	1857
400	1154	2522
401	2311	2681
402	1508	1855
403	1625	2356
404	245	1636
405	1007	2663
406	314	2101
407	1273	2610
408	980	1702
409	2004	3000
410	1327	3000
411	330	1165
412	660	2314
413	0	1491
414	1387	1851
415	1169	2335
416	163	1137
417	0	955
418	1027	2441
419	1677	3000
420	775	2238
421	1701	2098
422	1546	3000
423	523	2012
424	899	2480
425	1332	2683
426	368	2301
427	978	1395
428	2395	2630
429	1319	3000
430	1958	2585
431	1506	2348
432	822	2324
433	62	1355
434	1211	2100
435	102	1983
436	1768	2416
437	145	416
438	1013	2547
439	1285	2520
440	809	2447
441	652	2052
442	842	1556
443	658	889
444	1389	2966
445	911	2197
446	1344	2713
447	402	1425
448	982	1470
449	1514	2030
450	710	1265
451	3	1776
452	1850	2713
453	1167	2218
454	1195	1649
455	1387	1968
456	811	1225
457	1569	3000
458	2077	3000
459	1927	2824
460	1216	2234
461	31	1663
462	792	2327
463	548	1883
464	561	2506
465	391	1085
466	408	1770
467	1436	1660
468	460	2037
469	1228	2867
470	2292	2521
471	317	1707
472	1430	2181
473	1508	1940
474	1001	2711
475	1737	2293
476	1156	2360
477	21	1821
478	0	962
479	288	1678
480	297	2288
481	1433	2881
482	666	1738
483	434	2208
484	1368	1991
485	1345	3000
486	660	861
487	695	2654
488	482	1379
489	216	1584
490	558	962
491	1399	1947
492	1373	1786
493	1594	2197
494	0	1843
495	795	1852
496	1032	1344
497	0	1926
498	313	1013
499	1029	2621
500	598	2445
501	1602	2472
BACKHAUL_SECTION
3	4	6	14	16	30	36	39	46	49	55	58	64	66	67	68	69	70	75	84	90	91	101	108	120	122	125	129	134	135	138	140	141	154	156	161	163	167	168	171	172	189	192	194	206	219	220	225	227	235	239	255	261	266	270	276	277	279	286	291	297	318	328	332	343	345	351	360	365	367	371	376	377	379	381	383	388	401	407	417	420	422	424	427	429	431	443	446	456	461	462	471	473	477	479	485	486	487	491	497	-1
DEPOT_SECTION
1
-1
EOF
