NAME : n501-0017
COMMENT : "Generated by pyvrp_manuel (VRPBTW)"
TYPE : VRPBTW
DIMENSION : 501
EDGE_WEIGHT_TYPE : EUC_2D
CAPACITY : 100
VEHICLES : 500
SERVICE_TIME : 200
NODE_COORD_SECTION
1	697	537
2	909	610
3	829	468
4	891	441
5	780	285
6	779	80
7	291	65
8	111	388
9	550	647
10	140	404
11	850	443
12	573	844
13	275	518
14	395	413
15	710	784
16	110	126
17	640	993
18	753	392
19	462	388
20	185	686
21	836	570
22	380	42
23	670	442
24	809	401
25	344	554
26	6	318
27	863	888
28	851	340
29	190	20
30	997	218
31	112	412
32	102	266
33	300	839
34	739	670
35	766	51
36	294	6
37	683	155
38	225	996
39	417	181
40	405	265
41	794	224
42	49	924
43	535	139
44	59	935
45	875	540
46	734	264
47	61	462
48	769	300
49	693	27
50	971	597
51	348	556
52	108	262
53	591	472
54	481	240
55	442	106
56	914	313
57	363	480
58	435	624
59	156	614
60	539	870
61	579	539
62	520	475
63	504	953
64	202	716
65	805	602
66	426	872
67	519	538
68	370	543
69	859	587
70	599	484
71	657	808
72	655	228
73	412	527
74	83	870
75	753	364
76	743	840
77	2	603
78	537	934
79	486	406
80	657	622
81	19	163
82	197	4
83	99	841
84	640	483
85	18	387
86	756	952
87	370	97
88	428	69
89	787	96
90	758	921
91	315	280
92	713	127
93	861	394
94	132	271
95	661	706
96	979	507
97	986	447
98	66	492
99	960	31
100	371	902
101	603	539
102	513	183
103	55	477
104	644	997
105	880	773
106	173	436
107	396	817
108	292	874
109	7	488
110	774	970
111	696	863
112	547	481
113	773	615
114	915	844
115	158	69
116	935	749
117	954	868
118	31	168
119	603	735
120	849	665
121	757	147
122	817	732
123	911	588
124	596	771
125	233	647
126	154	391
127	288	520
128	274	568
129	299	88
130	783	577
131	753	821
132	570	884
133	461	430
134	116	544
135	923	395
136	515	604
137	254	114
138	701	27
139	690	765
140	501	44
141	105	762
142	821	529
143	879	551
144	622	119
145	448	420
146	407	217
147	845	719
148	549	687
149	59	504
150	33	637
151	348	968
152	141	670
153	490	213
154	735	44
155	812	807
156	44	598
157	834	191
158	799	978
159	889	989
160	669	223
161	843	20
162	712	704
163	986	314
164	188	695
165	900	955
166	668	349
167	519	53
168	399	303
169	382	208
170	295	0
171	360	382
172	827	250
173	398	16
174	67	613
175	654	596
176	298	475
177	127	353
178	271	831
179	594	748
180	544	435
181	365	346
182	861	856
183	924	499
184	50	53
185	570	554
186	703	709
187	65	269
188	279	81
189	704	688
190	486	720
191	642	363
192	58	496
193	710	549
194	780	517
195	447	374
196	235	97
197	874	552
198	915	510
199	948	716
200	992	631
201	866	751
202	508	758
203	46	440
204	32	29
205	476	668
206	815	172
207	56	508
208	924	31
209	158	556
210	182	630
211	962	238
212	583	598
213	207	496
214	360	632
215	158	189
216	915	827
217	863	333
218	440	650
219	671	680
220	283	845
221	867	921
222	864	468
223	374	48
224	455	977
225	731	573
226	550	360
227	359	735
228	573	196
229	727	147
230	215	192
231	238	352
232	155	158
233	353	383
234	155	677
235	229	503
236	800	945
237	131	274
238	397	341
239	965	644
240	377	839
241	332	398
242	37	437
243	373	881
244	92	541
245	994	251
246	27	623
247	562	513
248	408	480
249	530	965
250	772	691
251	102	621
252	261	877
253	69	101
254	896	549
255	713	170
256	199	540
257	408	684
258	420	536
259	739	569
260	372	82
261	531	735
262	405	750
263	353	779
264	570	952
265	334	76
266	887	140
267	550	511
268	246	644
269	410	514
270	86	66
271	797	214
272	231	646
273	619	145
274	588	794
275	812	880
276	17	303
277	583	54
278	154	473
279	382	707
280	0	892
281	920	960
282	371	634
283	360	681
284	653	267
285	964	929
286	900	905
287	155	823
288	393	823
289	994	957
290	469	650
291	168	678
292	183	63
293	398	731
294	436	549
295	927	453
296	610	535
297	268	636
298	2	552
299	4	582
300	3	832
301	227	516
302	871	167
303	259	873
304	569	569
305	496	777
306	97	718
307	338	681
308	15	98
309	532	413
310	672	997
311	917	701
312	961	200
313	871	925
314	424	916
315	924	807
316	962	928
317	307	956
318	77	151
319	901	977
320	5	76
321	943	619
322	555	17
323	22	105
324	509	306
325	219	413
326	211	979
327	718	558
328	355	852
329	708	623
330	709	800
331	756	819
332	516	904
333	916	223
334	660	662
335	691	117
336	193	7
337	224	937
338	789	403
339	845	911
340	338	865
341	631	97
342	232	694
343	482	110
344	127	381
345	987	589
346	579	954
347	887	500
348	829	686
349	296	507
350	661	732
351	139	132
352	660	351
353	408	390
354	729	543
355	844	232
356	784	317
357	978	889
358	464	408
359	836	512
360	411	714
361	883	686
362	241	722
363	617	492
364	196	719
365	36	378
366	565	721
367	49	871
368	687	414
369	723	258
370	184	88
371	33	698
372	90	603
373	238	825
374	532	291
375	13	357
376	40	252
377	153	581
378	437	825
379	574	430
380	535	298
381	93	648
382	960	471
383	67	682
384	521	994
385	534	269
386	731	241
387	957	179
388	616	706
389	913	956
390	935	467
391	922	845
392	799	467
393	198	465
394	723	961
395	319	179
396	932	678
397	940	648
398	388	268
399	68	380
400	685	246
401	983	87
402	92	944
403	877	29
404	816	591
405	625	327
406	256	519
407	660	21
408	757	152
409	536	471
410	97	683
411	317	710
412	42	729
413	669	803
414	53	498
415	476	889
416	229	899
417	477	656
418	741	297
419	537	340
420	58	945
421	833	319
422	130	588
423	812	736
424	865	465
425	292	242
426	38	315
427	280	623
428	566	294
429	542	928
430	434	165
431	172	656
432	121	698
433	842	130
434	212	363
435	401	908
436	286	254
437	162	970
438	587	554
439	534	472
440	632	1
441	465	260
442	970	26
443	404	844
444	133	856
445	803	794
446	697	825
447	360	654
448	584	516
449	398	501
450	654	609
451	239	725
452	419	156
453	145	110
454	698	742
455	252	119
456	573	439
457	386	453
458	167	252
459	796	777
460	464	291
461	772	993
462	26	905
463	126	345
464	795	773
465	710	974
466	782	750
467	280	313
468	892	210
469	511	790
470	857	468
471	465	886
472	81	563
473	930	27
474	797	692
475	641	133
476	599	157
477	341	923
478	302	933
479	213	508
480	932	423
481	963	659
482	958	242
483	336	495
484	290	618
485	520	83
486	951	296
487	937	653
488	616	117
489	367	170
490	645	384
491	569	509
492	714	358
493	428	51
494	950	222
495	52	617
496	978	979
497	767	675
498	32	512
499	243	562
500	689	836
501	301	286
DEMAND_SECTION
1	0
2	1
3	4
4	1
5	5
6	2
7	8
8	4
9	4
10	6
11	1
12	2
13	2
14	3
15	7
16	9
17	1
18	7
19	1
20	9
21	5
22	2
23	9
24	5
25	9
26	8
27	5
28	3
29	7
30	7
31	6
32	6
33	5
34	9
35	6
36	6
37	3
38	9
39	2
40	6
41	9
42	3
43	3
44	8
45	3
46	4
47	5
48	4
49	8
50	6
51	6
52	3
53	7
54	8
55	5
56	1
57	5
58	5
59	5
60	9
61	4
62	5
63	3
64	3
65	5
66	8
67	4
68	5
69	2
70	6
71	7
72	3
73	4
74	6
75	6
76	9
77	1
78	7
79	1
80	1
81	7
82	6
83	2
84	3
85	7
86	4
87	2
88	5
89	3
90	4
91	3
92	6
93	6
94	8
95	9
96	4
97	4
98	8
99	2
100	3
101	1
102	1
103	3
104	9
105	8
106	9
107	5
108	1
109	2
110	5
111	1
112	3
113	7
114	6
115	9
116	6
117	5
118	3
119	8
120	8
121	5
122	7
123	5
124	8
125	5
126	7
127	8
128	8
129	6
130	5
131	6
132	1
133	7
134	8
135	1
136	1
137	8
138	7
139	1
140	2
141	6
142	4
143	3
144	4
145	9
146	9
147	7
148	2
149	7
150	7
151	5
152	6
153	8
154	4
155	7
156	1
157	8
158	2
159	8
160	8
161	3
162	9
163	6
164	9
165	4
166	1
167	3
168	4
169	7
170	3
171	1
172	6
173	1
174	6
175	3
176	7
177	8
178	9
179	2
180	4
181	2
182	8
183	6
184	7
185	4
186	5
187	7
188	1
189	5
190	5
191	8
192	7
193	6
194	5
195	6
196	4
197	8
198	4
199	1
200	7
201	4
202	1
203	6
204	8
205	1
206	9
207	4
208	3
209	8
210	7
211	3
212	2
213	5
214	5
215	7
216	7
217	3
218	2
219	2
220	6
221	7
222	2
223	7
224	3
225	7
226	5
227	7
228	1
229	3
230	3
231	3
232	1
233	3
234	3
235	3
236	6
237	2
238	9
239	5
240	7
241	6
242	8
243	9
244	9
245	2
246	1
247	1
248	5
249	4
250	4
251	1
252	1
253	1
254	8
255	4
256	8
257	6
258	1
259	1
260	4
261	3
262	3
263	3
264	3
265	3
266	4
267	3
268	7
269	1
270	3
271	2
272	5
273	1
274	3
275	2
276	1
277	7
278	9
279	1
280	7
281	2
282	9
283	6
284	6
285	8
286	2
287	4
288	4
289	4
290	5
291	5
292	9
293	5
294	7
295	7
296	7
297	7
298	5
299	3
300	8
301	1
302	4
303	4
304	1
305	5
306	4
307	2
308	3
309	9
310	1
311	9
312	3
313	6
314	6
315	4
316	7
317	6
318	9
319	5
320	9
321	9
322	9
323	8
324	3
325	4
326	6
327	3
328	2
329	1
330	6
331	3
332	1
333	7
334	9
335	1
336	3
337	2
338	4
339	7
340	4
341	8
342	5
343	3
344	6
345	8
346	9
347	8
348	6
349	4
350	9
351	3
352	9
353	7
354	9
355	1
356	3
357	2
358	8
359	5
360	5
361	6
362	8
363	4
364	6
365	6
366	2
367	8
368	6
369	3
370	7
371	2
372	7
373	2
374	2
375	8
376	3
377	6
378	1
379	7
380	2
381	2
382	8
383	6
384	8
385	5
386	6
387	9
388	8
389	7
390	6
391	6
392	4
393	2
394	7
395	1
396	6
397	4
398	4
399	4
400	1
401	2
402	4
403	6
404	6
405	1
406	6
407	2
408	7
409	7
410	7
411	9
412	7
413	1
414	2
415	6
416	9
417	9
418	3
419	6
420	1
421	4
422	3
423	5
424	2
425	6
426	7
427	6
428	1
429	8
430	5
431	5
432	5
433	4
434	2
435	1
436	8
437	2
438	5
439	4
440	8
441	6
442	1
443	9
444	3
445	1
446	6
447	4
448	9
449	7
450	1
451	6
452	9
453	1
454	8
455	8
456	5
457	4
458	2
459	8
460	1
461	6
462	8
463	7
464	1
465	6
466	9
467	1
468	6
469	2
470	5
471	9
472	4
473	5
474	2
475	1
476	9
477	6
478	1
479	8
480	2
481	4
482	9
483	9
484	7
485	5
486	8
487	7
488	3
489	5
490	8
491	3
492	4
493	5
494	9
495	3
496	7
497	3
498	4
499	5
500	8
501	2
TIME_WINDOW_SECTION
1	0	3000
2	1729	3000
3	1753	2279
4	177	1166
5	96	1709
6	1134	1681
7	1260	2327
8	38	1735
9	336	1628
10	1330	2656
11	218	1919
12	1198	1818
13	887	1384
14	1061	2185
15	927	2139
16	187	2100
17	1549	3000
18	1004	2395
19	675	1345
20	1576	2804
21	1852	3000
22	1560	2442
23	554	2288
24	0	585
25	1457	1922
26	546	2445
27	83	1416
28	1683	3000
29	544	1873
30	1550	2285
31	1723	2663
32	223	2002
33	828	2521
34	62	1580
35	469	1401
36	1366	2155
37	788	1338
38	1358	2907
39	1108	3000
40	0	1361
41	1505	3000
42	1525	1837
43	1378	3000
44	537	1956
45	1941	2332
46	1312	3000
47	334	2007
48	0	1147
49	607	1980
50	685	1608
51	1546	1953
52	387	1223
53	617	1496
54	382	1494
55	958	2582
56	897	2447
57	32	1628
58	123	618
59	631	1839
60	309	1690
61	463	1076
62	1228	2441
63	414	1125
64	673	1163
65	1198	2854
66	645	2202
67	602	1057
68	895	2005
69	0	1413
70	1440	3000
71	1539	2900
72	744	1986
73	1529	3000
74	549	2417
75	80	640
76	1530	3000
77	907	1135
78	1282	3000
79	0	938
80	1686	3000
81	888	1594
82	227	2215
83	431	1247
84	597	1575
85	812	1738
86	579	2062
87	1496	2616
88	792	2448
89	2105	2477
90	474	2392
91	1006	2339
92	1240	2991
93	648	2187
94	928	1644
95	785	2564
96	1631	2024
97	574	2381
98	891	2149
99	0	1704
100	72	1812
101	391	1428
102	1231	2160
103	208	1482
104	75	1915
105	1142	1343
106	941	1379
107	1566	2066
108	1336	2446
109	551	2511
110	1435	1882
111	996	1436
112	0	1440
113	0	761
114	1097	2630
115	1231	2719
116	1445	2168
117	492	1082
118	997	1390
119	1581	3000
120	431	2044
121	885	2347
122	1	889
123	486	1461
124	814	2204
125	1423	2462
126	539	1314
127	1315	2671
128	0	1889
129	1619	1928
130	74	1230
131	0	949
132	1107	1960
133	957	2046
134	1013	1714
135	1456	3000
136	670	2434
137	183	1479
138	1118	1576
139	791	2079
140	291	1555
141	939	2788
142	0	833
143	1474	1852
144	0	1341
145	1163	2174
146	1355	2608
147	319	2206
148	525	978
149	1348	2487
150	1335	2349
151	1448	2176
152	1014	1697
153	140	1487
154	1492	2217
155	512	2395
156	1073	2228
157	1470	1874
158	984	2682
159	1075	1975
160	590	1059
161	1583	2073
162	567	780
163	945	1479
164	808	1967
165	0	1497
166	115	534
167	307	1605
168	1279	1521
169	1268	1675
170	322	2279
171	665	2571
172	1206	3000
173	1194	2560
174	954	2726
175	156	1322
176	521	813
177	1437	2940
178	1282	2480
179	1499	2388
180	1247	2468
181	842	2470
182	1475	2383
183	1420	3000
184	260	1599
185	3	1694
186	1495	2761
187	1259	1632
188	280	1510
189	1459	2594
190	1475	2251
191	186	2101
192	1548	2747
193	2009	2608
194	724	1336
195	27	1335
196	560	2380
197	1633	2329
198	1552	2487
199	1014	2228
200	894	2293
201	1798	2902
202	1833	2138
203	1048	2120
204	36	1813
205	0	1082
206	135	1291
207	0	1455
208	363	1558
209	2134	2336
210	1150	1917
211	1488	2738
212	533	870
213	1167	2058
214	517	1394
215	517	1498
216	516	2301
217	597	972
218	0	1265
219	298	812
220	1884	2440
221	499	1012
222	820	2293
223	233	1982
224	1596	1950
225	2521	2906
226	929	2734
227	235	1613
228	1217	1903
229	1857	2574
230	632	2250
231	620	1656
232	1354	1859
233	0	983
234	795	1249
235	448	1539
236	1203	1492
237	880	1218
238	1710	2389
239	1876	2602
240	539	2131
241	620	2014
242	184	1500
243	0	1768
244	26	1831
245	1792	2424
246	464	2109
247	20	1446
248	1030	2323
249	1227	3000
250	861	2289
251	314	2020
252	1471	2467
253	1615	2171
254	0	1455
255	1783	2681
256	1880	2300
257	1052	2924
258	1616	3000
259	0	1216
260	1523	2712
261	0	1561
262	645	1037
263	1479	2044
264	1568	2821
265	1065	1285
266	1334	3000
267	1643	2092
268	1692	2741
269	1663	2498
270	1460	1883
271	915	2784
272	1393	2119
273	750	1730
274	1024	1967
275	751	1805
276	1204	2358
277	1172	2972
278	2050	2277
279	1606	3000
280	81	1767
281	1284	3000
282	1376	2466
283	1180	2744
284	506	1667
285	452	1853
286	1607	2525
287	267	1744
288	563	2285
289	1558	2412
290	0	1138
291	790	2149
292	895	1196
293	282	660
294	1292	3000
295	1558	2245
296	465	1148
297	1647	2126
298	1854	2154
299	690	2016
300	450	2367
301	1058	2172
302	1683	3000
303	1725	2672
304	1849	3000
305	0	1386
306	281	1737
307	1345	2803
308	771	2342
309	979	2473
310	1041	2966
311	1368	2225
312	0	1697
313	1425	3000
314	102	1614
315	649	1803
316	1107	2228
317	104	1406
318	787	1401
319	292	1461
320	349	1894
321	296	626
322	1963	2166
323	0	1891
324	803	1051
325	862	1520
326	1695	2015
327	1326	1971
328	557	1092
329	1172	2409
330	1123	2888
331	206	1333
332	1274	2148
333	1085	2507
334	0	1054
335	881	1438
336	1208	1826
337	1341	1861
338	1135	2356
339	1481	2539
340	1815	2809
341	643	1686
342	1681	2828
343	746	2169
344	1086	1922
345	771	1660
346	597	2202
347	2244	2817
348	2299	2797
349	1354	1774
350	1898	3000
351	1423	2275
352	1498	2167
353	503	916
354	2171	3000
355	0	1512
356	65	1579
357	0	1393
358	1432	2301
359	877	1217
360	880	1945
361	1172	2333
362	305	1085
363	0	693
364	0	1610
365	234	1335
366	1432	3000
367	1198	1805
368	1227	1559
369	459	1453
370	861	1934
371	1326	2599
372	440	1528
373	1027	1944
374	0	1628
375	249	2248
376	1759	2310
377	1566	2711
378	639	1223
379	0	1477
380	378	2347
381	513	1657
382	472	1141
383	1202	2563
384	575	1805
385	850	1577
386	1471	3000
387	418	679
388	1343	2218
389	228	1907
390	1075	2519
391	1158	2307
392	0	1141
393	0	1419
394	0	1365
395	959	1493
396	1477	3000
397	703	1792
398	1190	2528
399	0	1628
400	1971	2464
401	460	1821
402	1030	1332
403	349	2294
404	1191	2810
405	1744	2429
406	1010	2863
407	1371	2271
408	610	1369
409	1564	2903
410	1075	2455
411	1777	2896
412	791	2617
413	0	1145
414	56	1797
415	163	1455
416	391	2038
417	1535	3000
418	576	2075
419	1900	3000
420	1691	2095
421	636	1913
422	1162	1594
423	776	1874
424	1807	2160
425	1168	2515
426	942	2034
427	1397	2808
428	1343	2526
429	814	2119
430	1520	2564
431	738	2119
432	1206	2070
433	0	1427
434	412	1223
435	1305	2452
436	770	2049
437	1380	2035
438	0	561
439	2067	3000
440	0	1538
441	365	625
442	211	1535
443	63	1940
444	800	1538
445	658	1879
446	626	1629
447	108	871
448	315	939
449	973	1459
450	0	1634
451	1449	2049
452	0	1440
453	385	1425
454	613	2592
455	1173	1566
456	1804	2490
457	979	1778
458	709	2091
459	1120	2207
460	281	1253
461	1443	2117
462	1342	1704
463	1076	1721
464	0	1324
465	247	1153
466	252	1556
467	644	1442
468	1489	3000
469	1153	1810
470	189	806
471	930	2457
472	0	1778
473	1171	1564
474	647	927
475	626	1034
476	0	1469
477	549	1070
478	683	1978
479	669	936
480	996	1924
481	759	2631
482	874	2547
483	1603	2975
484	983	1915
485	431	893
486	1143	2431
487	1855	2890
488	66	1748
489	0	1723
490	1968	2367
491	1252	1627
492	741	2411
493	399	1871
494	0	1214
495	574	1192
496	1354	2362
497	1304	2074
498	1868	2149
499	58	1730
500	47	759
501	367	2298
BACKHAUL_SECTION
3	4	6	14	16	30	36	39	46	49	55	58	64	66	67	68	69	70	75	84	90	91	101	108	120	122	125	129	134	135	138	140	141	154	156	161	163	167	168	171	172	189	192	194	206	219	220	225	227	235	239	255	261	266	270	276	277	279	286	291	297	318	328	332	343	345	351	360	365	367	371	376	377	379	381	383	388	401	407	417	420	422	424	427	429	431	443	446	456	461	462	471	473	477	479	485	486	487	491	497	-1
DEPOT_SECTION
1
-1
EOF
