NAME : n501-0014
COMMENT : "Generated by pyvrp_manuel (VRPBTW)"
TYPE : VRPBTW
DIMENSION : 501
EDGE_WEIGHT_TYPE : EUC_2D
CAPACITY : 100
VEHICLES : 500
SERVICE_TIME : 200
NODE_COORD_SECTION
1	711	682
2	211	539
3	534	294
4	786	546
5	549	922
6	474	799
7	785	325
8	447	737
9	177	876
10	973	741
11	226	541
12	684	497
13	988	762
14	614	167
15	306	701
16	700	464
17	264	912
18	546	246
19	444	793
20	132	63
21	267	824
22	251	18
23	426	84
24	985	51
25	676	518
26	93	925
27	603	867
28	578	124
29	13	891
30	750	94
31	447	411
32	424	713
33	244	9
34	477	791
35	253	303
36	974	129
37	141	764
38	86	637
39	976	974
40	169	30
41	285	833
42	233	867
43	474	940
44	608	265
45	820	957
46	181	21
47	457	193
48	117	677
49	925	461
50	432	649
51	508	667
52	162	569
53	831	782
54	812	700
55	783	99
56	522	988
57	637	799
58	881	608
59	758	812
60	470	464
61	311	989
62	550	467
63	133	148
64	919	409
65	648	382
66	732	242
67	398	655
68	954	603
69	178	46
70	218	295
71	131	535
72	522	364
73	999	129
74	369	316
75	270	65
76	323	736
77	382	299
78	373	336
79	622	368
80	807	812
81	534	838
82	656	78
83	756	60
84	981	401
85	609	299
86	382	559
87	108	148
88	659	350
89	479	899
90	907	455
91	816	565
92	838	316
93	263	935
94	837	850
95	27	657
96	361	74
97	271	107
98	365	702
99	348	196
100	928	56
101	221	28
102	35	626
103	237	806
104	587	219
105	238	660
106	683	968
107	440	485
108	998	73
109	660	376
110	875	520
111	269	349
112	47	174
113	26	106
114	911	530
115	528	521
116	852	644
117	320	855
118	698	491
119	621	423
120	214	937
121	62	288
122	192	469
123	97	537
124	648	987
125	877	189
126	226	978
127	870	511
128	36	74
129	374	698
130	235	370
131	682	942
132	130	839
133	122	839
134	904	174
135	941	108
136	83	734
137	834	79
138	619	788
139	960	7
140	977	659
141	519	904
142	429	125
143	874	617
144	749	199
145	381	134
146	5	368
147	975	1000
148	790	77
149	866	189
150	214	256
151	867	274
152	582	591
153	86	112
154	378	951
155	165	157
156	105	443
157	150	657
158	712	563
159	432	445
160	224	876
161	936	889
162	588	323
163	527	483
164	914	923
165	486	841
166	271	880
167	318	762
168	858	429
169	616	847
170	787	713
171	384	497
172	138	182
173	995	758
174	508	658
175	820	507
176	195	965
177	478	270
178	365	96
179	854	232
180	101	320
181	851	12
182	567	295
183	323	91
184	8	818
185	564	313
186	731	618
187	833	996
188	319	69
189	335	979
190	541	274
191	947	312
192	183	841
193	48	939
194	941	771
195	888	730
196	541	48
197	834	291
198	402	700
199	181	713
200	575	778
201	353	473
202	112	655
203	551	201
204	157	28
205	116	238
206	727	58
207	688	250
208	780	50
209	130	599
210	397	549
211	374	820
212	837	229
213	780	362
214	364	189
215	926	638
216	536	849
217	988	853
218	207	694
219	223	89
220	441	961
221	160	523
222	77	983
223	376	963
224	683	917
225	520	702
226	575	456
227	641	453
228	82	462
229	1000	135
230	782	706
231	316	410
232	196	721
233	411	695
234	247	702
235	217	870
236	511	31
237	88	886
238	607	582
239	881	299
240	966	877
241	373	741
242	873	688
243	841	562
244	577	399
245	16	623
246	664	284
247	630	180
248	970	878
249	702	671
250	958	90
251	900	581
252	484	690
253	571	910
254	675	895
255	891	4
256	676	239
257	616	265
258	765	584
259	959	174
260	556	305
261	416	274
262	414	575
263	304	815
264	537	306
265	93	228
266	965	259
267	387	967
268	801	394
269	504	553
270	17	95
271	100	261
272	888	743
273	969	966
274	195	959
275	707	197
276	314	783
277	998	338
278	581	707
279	8	112
280	431	543
281	18	737
282	473	243
283	704	534
284	872	969
285	579	401
286	907	322
287	224	640
288	283	822
289	48	28
290	892	164
291	50	370
292	629	175
293	944	251
294	763	543
295	19	751
296	289	414
297	240	727
298	875	153
299	312	109
300	229	988
301	612	717
302	756	77
303	981	651
304	337	495
305	199	961
306	999	325
307	35	53
308	878	783
309	258	128
310	939	627
311	524	624
312	710	756
313	658	277
314	301	794
315	773	735
316	145	668
317	449	723
318	245	237
319	430	810
320	723	384
321	31	762
322	335	707
323	563	491
324	189	365
325	342	932
326	515	144
327	692	418
328	91	880
329	100	826
330	90	668
331	417	152
332	505	896
333	878	675
334	204	36
335	630	241
336	378	843
337	118	984
338	141	485
339	96	585
340	518	116
341	477	460
342	971	85
343	189	37
344	926	203
345	922	125
346	966	487
347	729	626
348	592	677
349	609	240
350	709	667
351	401	585
352	976	535
353	724	307
354	861	915
355	646	182
356	616	650
357	517	250
358	856	172
359	660	770
360	72	627
361	537	754
362	220	204
363	199	965
364	593	993
365	756	807
366	699	662
367	525	563
368	722	780
369	600	514
370	917	348
371	494	314
372	191	118
373	161	442
374	452	107
375	203	721
376	194	78
377	774	579
378	18	196
379	440	333
380	488	514
381	893	203
382	491	831
383	210	588
384	490	106
385	895	15
386	462	673
387	146	899
388	904	133
389	11	71
390	237	842
391	131	244
392	669	767
393	434	669
394	665	212
395	664	118
396	64	23
397	495	249
398	415	206
399	75	57
400	212	73
401	758	508
402	615	385
403	735	923
404	594	351
405	585	82
406	752	242
407	36	517
408	884	499
409	569	361
410	248	314
411	775	663
412	688	251
413	794	771
414	834	334
415	757	754
416	560	339
417	658	303
418	518	590
419	842	766
420	137	192
421	912	754
422	647	501
423	917	548
424	97	646
425	307	978
426	594	475
427	425	66
428	807	444
429	968	713
430	10	125
431	44	818
432	204	32
433	910	613
434	178	529
435	331	392
436	90	211
437	921	390
438	99	908
439	740	883
440	562	840
441	116	862
442	527	946
443	405	745
444	338	299
445	613	979
446	252	962
447	241	41
448	653	343
449	180	441
450	181	921
451	705	15
452	818	469
453	164	250
454	979	483
455	693	486
456	905	250
457	698	204
458	642	9
459	649	324
460	913	498
461	439	334
462	671	89
463	554	807
464	624	409
465	703	169
466	511	979
467	304	839
468	175	127
469	528	596
470	415	998
471	228	604
472	774	207
473	288	210
474	472	657
475	519	441
476	605	651
477	851	854
478	559	281
479	875	830
480	628	745
481	435	113
482	5	438
483	349	388
484	323	209
485	363	568
486	912	244
487	871	918
488	491	212
489	599	192
490	690	798
491	601	731
492	384	855
493	199	689
494	751	963
495	299	5
496	964	813
497	874	549
498	529	813
499	672	868
500	806	736
501	757	537
DEMAND_SECTION
1	0
2	4
3	6
4	7
5	5
6	6
7	7
8	4
9	5
10	9
11	8
12	9
13	2
14	2
15	4
16	9
17	2
18	7
19	8
20	8
21	9
22	2
23	2
24	4
25	1
26	8
27	3
28	4
29	8
30	5
31	4
32	3
33	5
34	6
35	5
36	4
37	2
38	3
39	1
40	1
41	8
42	9
43	2
44	2
45	2
46	7
47	6
48	6
49	4
50	5
51	7
52	6
53	2
54	6
55	3
56	9
57	7
58	5
59	6
60	4
61	3
62	9
63	8
64	2
65	9
66	6
67	6
68	6
69	8
70	3
71	3
72	8
73	8
74	3
75	9
76	3
77	8
78	3
79	8
80	3
81	5
82	6
83	9
84	1
85	1
86	6
87	4
88	2
89	1
90	2
91	9
92	3
93	4
94	1
95	2
96	2
97	3
98	8
99	5
100	2
101	6
102	3
103	8
104	8
105	2
106	7
107	3
108	9
109	6
110	1
111	8
112	4
113	5
114	4
115	9
116	4
117	6
118	8
119	5
120	6
121	4
122	7
123	8
124	3
125	4
126	4
127	9
128	3
129	6
130	2
131	9
132	1
133	8
134	2
135	5
136	6
137	1
138	7
139	3
140	7
141	5
142	9
143	4
144	9
145	8
146	3
147	8
148	7
149	8
150	4
151	8
152	2
153	4
154	8
155	6
156	4
157	7
158	6
159	6
160	2
161	3
162	5
163	2
164	9
165	4
166	4
167	6
168	3
169	7
170	9
171	6
172	7
173	5
174	3
175	5
176	7
177	3
178	7
179	2
180	7
181	2
182	4
183	9
184	4
185	8
186	8
187	7
188	7
189	1
190	6
191	6
192	1
193	8
194	4
195	1
196	1
197	7
198	5
199	1
200	3
201	2
202	3
203	8
204	3
205	9
206	4
207	2
208	6
209	3
210	5
211	6
212	2
213	1
214	7
215	7
216	9
217	2
218	9
219	4
220	6
221	7
222	4
223	4
224	2
225	9
226	5
227	8
228	6
229	4
230	6
231	5
232	8
233	3
234	3
235	9
236	1
237	3
238	9
239	9
240	2
241	1
242	8
243	1
244	1
245	6
246	9
247	7
248	5
249	8
250	7
251	9
252	8
253	6
254	4
255	8
256	1
257	6
258	3
259	5
260	6
261	5
262	7
263	2
264	5
265	8
266	7
267	8
268	7
269	2
270	9
271	6
272	8
273	9
274	1
275	2
276	2
277	9
278	3
279	9
280	5
281	5
282	6
283	5
284	6
285	5
286	9
287	3
288	5
289	7
290	7
291	9
292	4
293	7
294	4
295	7
296	3
297	3
298	2
299	7
300	9
301	3
302	4
303	5
304	9
305	2
306	6
307	3
308	7
309	8
310	7
311	1
312	5
313	9
314	1
315	9
316	8
317	4
318	7
319	2
320	1
321	9
322	1
323	8
324	3
325	2
326	4
327	7
328	2
329	4
330	3
331	1
332	8
333	2
334	5
335	8
336	7
337	2
338	8
339	1
340	4
341	3
342	1
343	1
344	9
345	1
346	8
347	2
348	3
349	3
350	9
351	8
352	8
353	5
354	8
355	1
356	7
357	5
358	7
359	4
360	6
361	1
362	5
363	3
364	3
365	9
366	8
367	6
368	6
369	4
370	6
371	8
372	7
373	3
374	4
375	9
376	1
377	6
378	6
379	5
380	8
381	5
382	5
383	5
384	4
385	7
386	5
387	3
388	6
389	7
390	8
391	3
392	2
393	5
394	5
395	9
396	2
397	3
398	6
399	5
400	5
401	3
402	1
403	9
404	9
405	6
406	3
407	9
408	6
409	9
410	8
411	6
412	4
413	2
414	6
415	7
416	5
417	4
418	6
419	9
420	3
421	2
422	8
423	5
424	1
425	1
426	6
427	4
428	5
429	1
430	2
431	2
432	2
433	8
434	6
435	1
436	2
437	5
438	7
439	8
440	9
441	4
442	1
443	4
444	9
445	6
446	9
447	7
448	7
449	7
450	4
451	4
452	2
453	6
454	4
455	9
456	9
457	7
458	6
459	9
460	4
461	3
462	9
463	9
464	1
465	9
466	2
467	9
468	2
469	3
470	8
471	4
472	1
473	9
474	6
475	5
476	1
477	4
478	3
479	5
480	1
481	8
482	2
483	9
484	8
485	8
486	6
487	4
488	1
489	2
490	7
491	5
492	3
493	6
494	8
495	6
496	8
497	5
498	2
499	3
500	9
501	6
TIME_WINDOW_SECTION
1	0	3000
2	1840	2639
3	1369	1608
4	1374	2861
5	1589	3000
6	0	1373
7	761	2448
8	1732	2962
9	952	2268
10	938	1394
11	64	1565
12	222	576
13	457	1288
14	0	1953
15	1375	1586
16	1275	2706
17	0	1255
18	532	1203
19	1642	3000
20	410	1786
21	1819	2731
22	519	1204
23	1848	2167
24	795	2567
25	894	1641
26	853	2825
27	713	2481
28	471	1080
29	1605	2056
30	771	2463
31	0	1780
32	563	1693
33	733	2155
34	766	1047
35	241	1666
36	0	1690
37	954	2159
38	365	2171
39	1723	2350
40	471	2035
41	721	2184
42	773	1667
43	618	1063
44	1359	1772
45	1263	1614
46	842	2262
47	1661	2602
48	174	2095
49	1638	3000
50	1801	2122
51	1982	2981
52	913	1962
53	292	1819
54	962	2317
55	191	1736
56	0	1387
57	950	1851
58	0	903
59	894	2421
60	1526	2168
61	475	1233
62	0	1401
63	0	1755
64	198	1516
65	2128	2430
66	1577	2425
67	1321	1877
68	1141	2047
69	713	1047
70	1135	2453
71	569	2090
72	1747	2932
73	1113	2373
74	89	1890
75	516	1099
76	0	1073
77	366	1002
78	25	1272
79	136	1475
80	1668	3000
81	1941	2805
82	201	1956
83	71	1604
84	1021	1742
85	1871	2415
86	274	1856
87	160	1924
88	2011	2850
89	348	1874
90	734	1908
91	0	976
92	2115	2449
93	1496	2611
94	1417	2488
95	28	1795
96	1332	2229
97	498	1001
98	162	1831
99	403	1344
100	747	2273
101	1376	2488
102	0	1845
103	1321	1656
104	711	1175
105	0	1573
106	610	2173
107	1567	3000
108	1619	2569
109	0	825
110	0	1087
111	546	1340
112	461	1368
113	1442	1760
114	1126	2741
115	0	1109
116	1786	2959
117	2067	2381
118	1694	3000
119	31	1167
120	1560	2915
121	1277	1657
122	1253	1483
123	857	1859
124	1646	2023
125	194	1149
126	184	1666
127	1343	2098
128	700	2050
129	2295	2570
130	970	2879
131	569	2025
132	985	1666
133	1282	2296
134	1403	2674
135	705	1224
136	1796	2075
137	476	1761
138	1676	2568
139	1061	1563
140	1655	2840
141	934	2828
142	1056	1972
143	1020	2595
144	1086	2215
145	0	1581
146	656	1665
147	1529	2932
148	1580	2162
149	787	2706
150	1379	2474
151	0	1336
152	156	390
153	1168	2057
154	712	1701
155	509	2213
156	666	1980
157	0	1862
158	382	2060
159	18	1308
160	0	1438
161	1534	2406
162	543	1190
163	1123	2826
164	1097	2637
165	0	1459
166	97	1316
167	1352	2225
168	748	1970
169	1116	2615
170	0	1370
171	0	1403
172	98	1770
173	530	2504
174	1675	2327
175	1265	2740
176	1070	2386
177	99	1678
178	1066	2830
179	0	1577
180	154	1783
181	582	1838
182	739	2407
183	1154	1784
184	649	1499
185	1165	2214
186	644	1895
187	1579	2055
188	1627	2360
189	0	1755
190	889	2705
191	94	1373
192	68	1141
193	602	2236
194	1864	2354
195	157	1715
196	800	1903
197	613	1800
198	1118	1621
199	1285	2851
200	1659	2324
201	1590	1796
202	303	1988
203	824	1756
204	974	1373
205	949	2826
206	1562	2530
207	1220	3000
208	452	2251
209	1166	3000
210	315	1475
211	1228	2272
212	1912	2350
213	1120	2382
214	1673	2375
215	984	1766
216	0	1011
217	1128	1996
218	0	1808
219	402	1210
220	1002	2861
221	979	2048
222	399	1827
223	1460	1705
224	1743	2252
225	627	1453
226	1344	1974
227	1288	2447
228	894	1484
229	968	2203
230	364	2113
231	904	1589
232	1232	1509
233	317	1171
234	490	2275
235	597	2563
236	499	2200
237	256	1192
238	290	2017
239	1520	2564
240	502	786
241	763	2736
242	0	857
243	79	775
244	0	1654
245	988	2110
246	888	2112
247	714	1333
248	683	2488
249	365	1322
250	305	1796
251	598	2451
252	596	1796
253	63	913
254	713	953
255	826	2663
256	68	1836
257	1540	2721
258	332	553
259	165	1031
260	720	1166
261	1542	3000
262	1127	2672
263	0	1199
264	526	1066
265	760	2131
266	899	1725
267	1396	2199
268	253	867
269	1036	1814
270	691	1718
271	887	2139
272	1607	2284
273	205	1108
274	1211	1637
275	1326	1865
276	1343	1951
277	0	1266
278	824	2810
279	1126	1768
280	854	2846
281	705	2074
282	115	1908
283	473	1754
284	1147	1669
285	360	1416
286	0	1453
287	743	2612
288	765	2231
289	1167	1658
290	1110	2420
291	160	1765
292	0	1340
293	559	790
294	1900	2464
295	544	989
296	1163	1559
297	0	1627
298	1547	1851
299	11	1513
300	1185	2498
301	154	892
302	921	2446
303	1840	2582
304	576	1803
305	417	1942
306	1628	2476
307	1277	1800
308	0	1085
309	149	2144
310	803	1346
311	0	1935
312	352	1995
313	1679	2642
314	245	727
315	2053	3000
316	1889	2500
317	1157	1777
318	1139	1954
319	1731	2875
320	276	1736
321	1782	2087
322	1381	2019
323	1396	3000
324	1716	1923
325	2023	2609
326	565	2060
327	212	1032
328	371	1889
329	1873	2394
330	80	1683
331	1417	2697
332	390	1338
333	531	2159
334	327	1473
335	576	2218
336	2159	2615
337	1636	2567
338	1255	2370
339	1660	2359
340	1085	2125
341	360	2311
342	825	2460
343	0	1770
344	1305	2274
345	1187	2842
346	202	957
347	1508	2353
348	101	618
349	736	1867
350	655	1829
351	0	1645
352	1758	2007
353	753	1973
354	0	1538
355	646	891
356	0	1430
357	898	2784
358	350	777
359	682	1833
360	1285	2291
361	426	1195
362	1504	1994
363	765	1733
364	1557	2685
365	1493	2978
366	1608	3000
367	2209	2697
368	1916	2523
369	8	932
370	1054	2315
371	861	1076
372	691	918
373	1163	2588
374	371	1453
375	924	1987
376	681	1325
377	613	1692
378	801	1785
379	1441	2602
380	151	506
381	1310	3000
382	356	900
383	1289	1717
384	1581	2068
385	157	2010
386	587	2203
387	566	1629
388	1130	2467
389	146	1974
390	981	2334
391	673	2047
392	1854	2560
393	661	1583
394	564	2435
395	1649	2009
396	1581	2084
397	1729	2789
398	434	952
399	896	2383
400	1445	2031
401	1463	3000
402	1332	2397
403	0	720
404	892	1596
405	1112	2732
406	1535	2911
407	731	1699
408	846	1806
409	1168	1922
410	0	1730
411	1495	2491
412	1216	2784
413	147	1507
414	485	2138
415	1537	2078
416	0	1174
417	294	1347
418	1489	1713
419	1525	3000
420	671	1070
421	371	801
422	1166	2587
423	1744	2137
424	75	1285
425	1692	2633
426	1524	3000
427	1130	2852
428	138	1682
429	1254	2667
430	700	1936
431	1456	2584
432	739	1435
433	640	1796
434	1460	2368
435	1982	2262
436	1398	2266
437	870	2756
438	1265	2878
439	631	2117
440	1081	2223
441	0	1505
442	0	1718
443	1407	2798
444	1173	3000
445	1153	1560
446	1412	2246
447	989	2715
448	633	2093
449	1003	2308
450	1192	2189
451	934	1828
452	887	2021
453	845	2553
454	840	1093
455	1917	3000
456	614	1812
457	3	1580
458	1115	3000
459	1013	1870
460	336	1768
461	190	1088
462	573	806
463	719	2377
464	914	2474
465	1324	1627
466	1151	2558
467	757	1647
468	666	2518
469	998	1889
470	885	2704
471	994	2773
472	670	1703
473	1452	2110
474	897	1600
475	0	1165
476	1347	3000
477	667	918
478	640	1438
479	1147	1798
480	1235	1730
481	1061	2157
482	1049	2612
483	356	1655
484	940	1380
485	1231	1668
486	0	1248
487	267	479
488	0	1267
489	150	1215
490	158	1743
491	434	2098
492	155	1964
493	1881	2687
494	134	694
495	868	1126
496	416	703
497	1647	2308
498	616	1647
499	654	2623
500	602	2326
501	1092	2920
BACKHAUL_SECTION
3	4	6	14	16	30	36	39	46	49	55	58	64	66	67	68	69	70	75	84	90	91	101	108	120	122	125	129	134	135	138	140	141	154	156	161	163	167	168	171	172	189	192	194	206	219	220	225	227	235	239	255	261	266	270	276	277	279	286	291	297	318	328	332	343	345	351	360	365	367	371	376	377	379	381	383	388	401	407	417	420	422	424	427	429	431	443	446	456	461	462	471	473	477	479	485	486	487	491	497	-1
DEPOT_SECTION
1
-1
EOF
