NAME : n501-0019
COMMENT : "Generated by pyvrp_manuel (VRPBTW)"
TYPE : VRPBTW
DIMENSION : 501
EDGE_WEIGHT_TYPE : EUC_2D
CAPACITY : 100
VEHICLES : 500
SERVICE_TIME : 200
NODE_COORD_SECTION
1	790	438
2	939	605
3	879	966
4	401	29
5	137	848
6	649	975
7	597	206
8	76	60
9	375	955
10	744	918
11	737	761
12	52	534
13	76	698
14	512	375
15	369	4
16	338	495
17	697	22
18	670	729
19	599	932
20	513	794
21	322	677
22	585	129
23	689	655
24	646	621
25	587	930
26	502	594
27	81	660
28	775	382
29	170	362
30	109	46
31	516	220
32	280	695
33	75	390
34	256	809
35	817	344
36	688	647
37	493	20
38	333	312
39	256	267
40	774	79
41	717	226
42	879	942
43	474	374
44	62	541
45	462	771
46	163	947
47	857	708
48	499	887
49	373	184
50	727	85
51	580	33
52	180	899
53	210	768
54	566	123
55	124	603
56	256	449
57	105	358
58	939	164
59	744	189
60	310	748
61	899	467
62	843	506
63	930	877
64	179	932
65	897	464
66	767	184
67	326	885
68	486	785
69	58	315
70	636	95
71	776	279
72	929	858
73	542	337
74	666	832
75	71	408
76	990	802
77	130	161
78	516	502
79	456	247
80	951	658
81	339	20
82	597	105
83	675	226
84	244	400
85	707	638
86	35	434
87	563	688
88	403	602
89	369	343
90	136	383
91	595	116
92	644	134
93	585	963
94	987	149
95	705	292
96	273	342
97	107	809
98	775	170
99	485	514
100	221	66
101	383	207
102	206	358
103	389	122
104	764	452
105	697	988
106	899	537
107	40	204
108	317	412
109	628	909
110	519	572
111	307	949
112	238	3
113	380	83
114	774	616
115	182	956
116	522	335
117	78	505
118	515	224
119	751	889
120	991	760
121	296	322
122	277	903
123	903	311
124	103	208
125	81	990
126	500	357
127	207	197
128	631	511
129	297	721
130	585	62
131	670	65
132	34	424
133	157	111
134	221	96
135	267	22
136	843	759
137	408	607
138	323	869
139	839	262
140	997	227
141	843	571
142	972	335
143	851	585
144	400	46
145	931	526
146	928	192
147	342	106
148	383	942
149	810	810
150	836	294
151	29	412
152	907	745
153	940	890
154	499	422
155	873	986
156	165	547
157	446	302
158	544	942
159	921	204
160	898	745
161	308	422
162	22	585
163	762	898
164	609	141
165	752	805
166	814	560
167	875	423
168	764	290
169	390	800
170	690	917
171	951	230
172	265	843
173	793	752
174	893	676
175	929	610
176	606	642
177	309	768
178	391	70
179	432	816
180	609	7
181	271	446
182	301	285
183	41	37
184	67	339
185	290	957
186	933	650
187	679	833
188	113	302
189	234	80
190	380	306
191	361	14
192	445	67
193	730	419
194	654	893
195	512	38
196	212	117
197	565	339
198	937	156
199	287	670
200	556	910
201	132	759
202	490	425
203	177	642
204	662	167
205	461	701
206	798	876
207	389	283
208	629	99
209	354	531
210	672	34
211	26	744
212	715	15
213	644	325
214	719	452
215	459	29
216	343	46
217	389	388
218	410	60
219	256	617
220	814	118
221	214	263
222	478	538
223	536	190
224	910	919
225	1	389
226	944	808
227	132	156
228	769	264
229	927	807
230	956	55
231	253	887
232	147	540
233	9	82
234	958	728
235	62	193
236	223	102
237	791	814
238	539	533
239	108	824
240	717	756
241	172	496
242	714	505
243	634	965
244	146	271
245	246	676
246	224	921
247	39	711
248	479	970
249	31	27
250	560	414
251	469	225
252	563	464
253	219	239
254	793	699
255	521	647
256	584	934
257	792	320
258	432	864
259	869	634
260	564	855
261	466	652
262	15	387
263	320	639
264	583	690
265	214	35
266	445	469
267	601	95
268	419	327
269	741	183
270	927	462
271	922	999
272	204	112
273	980	384
274	624	897
275	422	178
276	574	156
277	863	366
278	480	627
279	150	590
280	530	578
281	329	709
282	2	240
283	57	901
284	837	43
285	724	158
286	603	66
287	855	621
288	315	916
289	669	19
290	618	125
291	624	53
292	676	69
293	243	305
294	464	467
295	812	249
296	465	596
297	197	127
298	305	78
299	207	783
300	393	757
301	315	369
302	531	485
303	852	757
304	194	744
305	6	632
306	110	980
307	771	349
308	724	779
309	180	311
310	313	916
311	440	171
312	11	869
313	703	122
314	658	956
315	911	201
316	88	242
317	857	530
318	541	648
319	535	802
320	110	441
321	754	478
322	51	494
323	969	919
324	700	744
325	189	164
326	363	463
327	44	738
328	409	638
329	424	132
330	975	16
331	106	474
332	585	277
333	389	906
334	396	469
335	521	937
336	166	662
337	550	44
338	550	401
339	210	176
340	549	800
341	201	23
342	84	949
343	734	170
344	371	587
345	655	821
346	41	258
347	242	166
348	774	699
349	8	300
350	743	239
351	357	507
352	867	571
353	758	900
354	573	85
355	486	424
356	854	963
357	482	142
358	728	703
359	122	504
360	213	228
361	894	381
362	346	557
363	613	632
364	140	901
365	937	267
366	225	328
367	231	161
368	709	848
369	773	488
370	922	985
371	119	193
372	67	607
373	719	165
374	334	754
375	204	913
376	299	603
377	205	852
378	415	38
379	73	171
380	846	265
381	478	402
382	87	746
383	623	992
384	950	254
385	290	165
386	369	625
387	884	677
388	447	866
389	927	584
390	236	372
391	803	759
392	477	592
393	763	23
394	17	540
395	334	861
396	311	579
397	829	294
398	300	709
399	826	131
400	406	316
401	105	981
402	34	515
403	653	275
404	954	689
405	231	311
406	651	224
407	169	354
408	414	672
409	241	958
410	773	96
411	221	966
412	61	243
413	418	923
414	957	256
415	186	250
416	230	291
417	230	720
418	677	806
419	849	139
420	390	31
421	729	615
422	469	110
423	920	151
424	86	687
425	958	265
426	783	494
427	8	368
428	178	415
429	669	494
430	470	644
431	193	445
432	924	179
433	255	875
434	626	228
435	310	305
436	994	516
437	896	649
438	812	673
439	358	277
440	239	499
441	64	261
442	526	687
443	443	402
444	509	680
445	508	679
446	222	762
447	504	188
448	63	979
449	738	613
450	909	441
451	185	963
452	348	437
453	411	211
454	526	83
455	416	146
456	511	430
457	920	893
458	640	94
459	387	837
460	160	547
461	232	848
462	646	450
463	423	100
464	149	426
465	723	851
466	606	610
467	444	848
468	697	706
469	137	452
470	118	711
471	207	34
472	997	736
473	205	278
474	934	698
475	871	955
476	645	690
477	877	725
478	507	793
479	687	956
480	676	96
481	189	327
482	643	592
483	668	453
484	113	92
485	478	723
486	720	696
487	565	787
488	445	226
489	121	738
490	280	137
491	517	891
492	206	300
493	441	69
494	592	880
495	85	953
496	820	46
497	777	654
498	969	214
499	690	594
500	690	892
501	809	227
DEMAND_SECTION
1	0
2	7
3	1
4	8
5	9
6	2
7	7
8	9
9	6
10	1
11	1
12	5
13	5
14	6
15	8
16	9
17	2
18	6
19	6
20	5
21	1
22	6
23	5
24	5
25	3
26	4
27	5
28	2
29	4
30	2
31	9
32	9
33	1
34	4
35	3
36	1
37	1
38	9
39	7
40	3
41	7
42	5
43	9
44	4
45	5
46	1
47	3
48	3
49	1
50	4
51	8
52	9
53	6
54	6
55	7
56	2
57	2
58	1
59	7
60	7
61	6
62	6
63	3
64	4
65	5
66	4
67	3
68	7
69	4
70	3
71	4
72	3
73	9
74	4
75	5
76	1
77	2
78	2
79	4
80	6
81	1
82	1
83	5
84	2
85	7
86	6
87	5
88	6
89	8
90	8
91	6
92	8
93	6
94	2
95	3
96	2
97	6
98	2
99	4
100	2
101	4
102	8
103	2
104	3
105	8
106	3
107	1
108	9
109	7
110	5
111	5
112	2
113	6
114	3
115	6
116	2
117	4
118	8
119	3
120	7
121	6
122	9
123	5
124	5
125	8
126	6
127	5
128	1
129	9
130	1
131	6
132	4
133	8
134	4
135	3
136	7
137	9
138	3
139	8
140	1
141	6
142	6
143	1
144	7
145	4
146	5
147	7
148	2
149	8
150	6
151	1
152	5
153	9
154	6
155	4
156	3
157	1
158	9
159	7
160	7
161	7
162	8
163	9
164	3
165	8
166	3
167	9
168	4
169	4
170	9
171	1
172	9
173	4
174	2
175	1
176	6
177	2
178	9
179	6
180	6
181	5
182	8
183	3
184	2
185	5
186	8
187	4
188	6
189	2
190	9
191	4
192	3
193	9
194	6
195	4
196	3
197	7
198	2
199	2
200	3
201	5
202	6
203	9
204	7
205	7
206	6
207	8
208	4
209	9
210	4
211	5
212	7
213	9
214	1
215	1
216	8
217	6
218	5
219	1
220	6
221	8
222	4
223	1
224	9
225	1
226	1
227	1
228	2
229	1
230	3
231	2
232	3
233	5
234	6
235	1
236	2
237	8
238	2
239	3
240	4
241	7
242	4
243	2
244	8
245	9
246	3
247	9
248	5
249	4
250	9
251	1
252	2
253	7
254	3
255	4
256	3
257	3
258	9
259	8
260	8
261	2
262	9
263	7
264	8
265	1
266	6
267	8
268	6
269	6
270	8
271	4
272	9
273	3
274	6
275	8
276	8
277	8
278	1
279	3
280	5
281	3
282	8
283	9
284	1
285	5
286	3
287	6
288	8
289	6
290	1
291	3
292	5
293	3
294	5
295	1
296	1
297	2
298	3
299	6
300	5
301	3
302	9
303	9
304	8
305	6
306	3
307	4
308	2
309	9
310	1
311	5
312	8
313	4
314	8
315	7
316	4
317	5
318	7
319	5
320	2
321	7
322	1
323	5
324	9
325	2
326	9
327	4
328	2
329	7
330	6
331	5
332	2
333	7
334	6
335	2
336	4
337	5
338	2
339	8
340	2
341	5
342	7
343	3
344	9
345	5
346	8
347	2
348	9
349	7
350	9
351	4
352	9
353	4
354	3
355	8
356	3
357	5
358	6
359	4
360	1
361	1
362	2
363	5
364	7
365	8
366	1
367	2
368	4
369	9
370	1
371	4
372	8
373	1
374	7
375	6
376	8
377	6
378	4
379	4
380	4
381	5
382	8
383	6
384	6
385	8
386	1
387	1
388	1
389	5
390	1
391	6
392	4
393	7
394	1
395	8
396	3
397	8
398	2
399	9
400	1
401	6
402	9
403	7
404	9
405	5
406	5
407	3
408	3
409	4
410	2
411	3
412	4
413	6
414	2
415	8
416	6
417	6
418	4
419	5
420	4
421	8
422	1
423	7
424	1
425	4
426	3
427	1
428	2
429	6
430	4
431	9
432	6
433	5
434	2
435	3
436	2
437	6
438	4
439	5
440	7
441	9
442	7
443	7
444	8
445	4
446	3
447	8
448	1
449	1
450	9
451	5
452	4
453	5
454	6
455	8
456	9
457	2
458	1
459	8
460	2
461	4
462	9
463	9
464	5
465	6
466	5
467	3
468	5
469	1
470	6
471	6
472	7
473	8
474	4
475	3
476	7
477	3
478	7
479	9
480	6
481	8
482	3
483	9
484	2
485	4
486	6
487	3
488	8
489	8
490	7
491	7
492	1
493	4
494	4
495	6
496	9
497	8
498	9
499	7
500	2
501	4
TIME_WINDOW_SECTION
1	0	3000
2	1651	2888
3	374	2190
4	132	1449
5	683	969
6	314	1360
7	185	876
8	785	1400
9	755	2061
10	1656	2681
11	632	2115
12	1125	1846
13	300	1328
14	225	1397
15	970	1699
16	1430	2040
17	1112	2413
18	21	945
19	722	1824
20	91	970
21	1512	3000
22	312	1430
23	0	1394
24	687	1195
25	658	1553
26	1283	1597
27	1214	2587
28	744	2184
29	920	2105
30	1409	1648
31	2089	2523
32	477	1145
33	765	1214
34	977	1425
35	1183	2690
36	280	685
37	997	1931
38	450	1739
39	451	1540
40	447	1530
41	1423	2543
42	478	1223
43	0	1047
44	690	1767
45	427	1326
46	1404	2170
47	0	1539
48	1599	2635
49	1156	2871
50	576	2252
51	0	1729
52	532	1646
53	1101	2073
54	1870	2688
55	1164	2393
56	493	1068
57	794	1183
58	1788	2809
59	378	1472
60	1319	2646
61	1334	3000
62	129	571
63	488	2347
64	484	2312
65	1938	3000
66	2034	2423
67	1056	2967
68	1911	2404
69	357	1576
70	1228	2180
71	578	2176
72	1553	2850
73	1213	2979
74	1405	2336
75	338	1633
76	2092	2661
77	1516	2562
78	1261	2747
79	0	1157
80	1954	3000
81	506	1619
82	796	1579
83	1224	1459
84	1489	2207
85	0	1432
86	759	2484
87	1420	2245
88	311	1119
89	598	2208
90	1596	2616
91	831	1051
92	1604	2416
93	434	900
94	1562	2518
95	1659	2416
96	1557	2762
97	226	1592
98	867	2403
99	1181	2963
100	764	1470
101	0	1338
102	372	1616
103	1475	2809
104	1806	2924
105	501	2246
106	1232	1644
107	711	1523
108	666	2473
109	1938	2388
110	1605	1830
111	374	2154
112	1236	2915
113	2028	2419
114	944	1805
115	1083	2477
116	1098	2633
117	1457	1759
118	1378	3000
119	1514	2217
120	632	1120
121	1521	1841
122	957	2703
123	0	1774
124	0	1524
125	839	1736
126	1252	1493
127	1237	2030
128	892	1460
129	1263	2875
130	1	1288
131	365	2044
132	215	1689
133	1043	2359
134	1315	2630
135	270	1614
136	83	595
137	0	1492
138	1222	2295
139	129	1328
140	724	1793
141	1360	2225
142	1331	3000
143	2223	2817
144	176	1465
145	1421	2210
146	146	604
147	880	2793
148	1550	1958
149	734	1126
150	564	967
151	1356	2318
152	1945	2393
153	0	1241
154	0	1172
155	1184	1886
156	1243	1521
157	0	1062
158	830	2090
159	0	1184
160	460	1785
161	530	2500
162	927	1722
163	719	1435
164	411	1574
165	0	1652
166	346	1385
167	792	2024
168	1170	2105
169	35	1159
170	1870	2364
171	996	1526
172	862	2856
173	239	1085
174	726	1899
175	1423	3000
176	86	2068
177	151	1650
178	1821	2389
179	667	1495
180	1101	2711
181	268	987
182	576	2295
183	655	1381
184	1712	2232
185	1419	1986
186	0	1536
187	440	842
188	875	1610
189	85	1795
190	479	1892
191	779	1801
192	278	1161
193	526	1121
194	791	1882
195	282	1834
196	683	1198
197	1088	2155
198	569	1466
199	1025	2230
200	951	1663
201	1251	1624
202	1359	3000
203	1129	1595
204	0	1110
205	308	2058
206	905	2081
207	0	1669
208	588	1065
209	1306	2965
210	719	1696
211	820	2039
212	278	1602
213	1436	2579
214	747	2049
215	708	1024
216	1342	2155
217	496	1103
218	1215	2458
219	1691	2529
220	1791	2792
221	980	2768
222	1983	2698
223	1028	1271
224	606	1834
225	636	1292
226	923	1832
227	584	1597
228	1241	1545
229	895	1305
230	1150	3000
231	1826	2164
232	1302	1864
233	955	2793
234	108	1073
235	635	2455
236	982	2258
237	354	1322
238	1288	1864
239	1098	1932
240	343	1657
241	1351	2458
242	0	1024
243	1378	1898
244	548	1745
245	470	1898
246	656	1947
247	299	2222
248	0	1988
249	1060	1519
250	2396	2702
251	1115	1824
252	1854	2140
253	1033	3000
254	335	1657
255	952	2271
256	2053	2342
257	0	1731
258	508	1761
259	62	743
260	1659	2493
261	1029	2101
262	489	2110
263	565	2348
264	715	1995
265	881	2330
266	1768	2717
267	523	1234
268	1196	2925
269	959	2526
270	1856	3000
271	90	2008
272	1636	1922
273	553	1689
274	737	1087
275	0	1448
276	0	1450
277	1278	2370
278	794	1747
279	1205	1924
280	1750	2926
281	1087	2622
282	768	1321
283	987	2322
284	896	2860
285	269	1076
286	1618	2358
287	1732	2738
288	787	2720
289	1657	2828
290	1211	3000
291	332	2053
292	624	1206
293	302	966
294	532	1215
295	1928	3000
296	1060	2524
297	1024	2718
298	1052	2749
299	109	1732
300	799	2183
301	203	1480
302	377	2084
303	0	1377
304	432	1812
305	903	1556
306	949	1977
307	1053	2889
308	507	1429
309	892	2508
310	1052	2693
311	351	796
312	1311	1659
313	209	695
314	1677	2751
315	777	1418
316	617	1444
317	1500	2570
318	1592	2698
319	722	2293
320	1546	2451
321	685	1547
322	1144	2703
323	1444	2145
324	1218	2801
325	1033	2637
326	1094	2278
327	1577	1926
328	390	769
329	678	2537
330	846	2837
331	1165	2243
332	254	1336
333	1471	1911
334	71	872
335	402	1265
336	96	2093
337	1622	2159
338	1108	2524
339	0	1734
340	550	1597
341	143	1942
342	1031	1387
343	339	903
344	42	895
345	819	1439
346	591	1587
347	595	1607
348	574	1746
349	1110	2067
350	1194	3000
351	2117	2510
352	0	1433
353	1741	2886
354	1949	2556
355	993	2932
356	764	1371
357	392	892
358	0	926
359	610	1065
360	1021	1311
361	1541	3000
362	0	1372
363	0	853
364	1002	1319
365	2080	2921
366	1612	2291
367	537	2424
368	808	2118
369	499	1507
370	967	2048
371	83	1569
372	823	2689
373	1328	3000
374	1840	2141
375	888	1708
376	934	1897
377	1153	2106
378	605	955
379	1145	1977
380	440	1791
381	1050	1572
382	657	1053
383	383	1519
384	638	1227
385	1340	2618
386	762	1530
387	1545	2371
388	495	1853
389	718	2608
390	1652	2761
391	780	2384
392	836	2061
393	1400	1716
394	1152	1961
395	1298	2598
396	152	1271
397	1522	3000
398	1748	2617
399	1497	2064
400	1053	1363
401	1199	1553
402	577	1919
403	1117	3000
404	1500	3000
405	1012	1804
406	77	571
407	0	1374
408	1062	1298
409	1366	1761
410	538	1501
411	1155	2854
412	540	2466
413	207	1768
414	761	1415
415	1136	1929
416	1571	2469
417	433	1546
418	999	2689
419	1274	2640
420	666	1787
421	1036	2667
422	30	1010
423	232	914
424	648	1439
425	1910	3000
426	1877	3000
427	178	1657
428	848	1782
429	469	1827
430	93	2054
431	1752	2059
432	1004	2492
433	1704	2462
434	961	1674
435	1442	2553
436	403	1781
437	0	935
438	0	1161
439	665	2504
440	583	1534
441	240	1821
442	922	1979
443	1184	1791
444	548	1243
445	21	1683
446	1214	1920
447	2268	2479
448	400	2131
449	1658	2834
450	2067	2426
451	489	2388
452	1365	2654
453	0	1265
454	1186	2205
455	82	1752
456	1555	2546
457	1748	2227
458	1257	2233
459	0	1662
460	0	1864
461	395	1721
462	284	1334
463	1712	2171
464	0	1810
465	540	2412
466	167	2088
467	321	1122
468	410	2304
469	1432	2325
470	684	1504
471	336	1308
472	595	2518
473	1348	2571
474	1383	2838
475	441	1025
476	1643	2994
477	1519	2406
478	1221	1886
479	216	1746
480	1048	1700
481	1438	2645
482	63	1039
483	1974	2620
484	323	2083
485	1540	2556
486	1140	1910
487	1792	2034
488	445	1094
489	823	1762
490	1527	2255
491	841	1249
492	1096	2248
493	354	2140
494	1113	2474
495	302	1483
496	896	2328
497	1107	1862
498	175	1164
499	366	1916
500	14	1761
501	1428	1648
BACKHAUL_SECTION
3	4	6	14	16	30	36	39	46	49	55	58	64	66	67	68	69	70	75	84	90	91	101	108	120	122	125	129	134	135	138	140	141	154	156	161	163	167	168	171	172	189	192	194	206	219	220	225	227	235	239	255	261	266	270	276	277	279	286	291	297	318	328	332	343	345	351	360	365	367	371	376	377	379	381	383	388	401	407	417	420	422	424	427	429	431	443	446	456	461	462	471	473	477	479	485	486	487	491	497	-1
DEPOT_SECTION
1
-1
EOF
