NAME : n501-0009
COMMENT : "Generated by pyvrp_manuel (VRPBTW)"
TYPE : VRPBTW
DIMENSION : 501
EDGE_WEIGHT_TYPE : EUC_2D
CAPACITY : 100
VEHICLES : 500
SERVICE_TIME : 200
NODE_COORD_SECTION
1	416	791
2	282	738
3	936	542
4	374	717
5	442	504
6	343	685
7	696	174
8	901	342
9	66	709
10	275	525
11	361	894
12	760	726
13	209	246
14	108	366
15	655	647
16	360	303
17	907	225
18	370	308
19	255	114
20	132	402
21	464	900
22	403	568
23	555	681
24	386	492
25	897	943
26	734	902
27	960	172
28	825	494
29	180	461
30	216	777
31	559	616
32	874	445
33	855	392
34	685	950
35	569	296
36	395	187
37	757	98
38	918	798
39	744	861
40	669	570
41	264	811
42	960	154
43	790	708
44	418	833
45	514	962
46	96	524
47	657	399
48	432	478
49	260	309
50	99	257
51	255	35
52	312	297
53	319	207
54	620	62
55	104	820
56	444	677
57	80	779
58	647	747
59	960	243
60	37	131
61	491	473
62	386	128
63	974	102
64	823	316
65	614	189
66	15	486
67	766	478
68	330	196
69	87	215
70	398	477
71	802	272
72	183	899
73	263	226
74	760	368
75	765	916
76	636	199
77	531	235
78	983	423
79	537	589
80	172	391
81	306	35
82	310	402
83	955	83
84	502	818
85	957	1000
86	595	476
87	683	859
88	486	489
89	2	893
90	968	699
91	337	507
92	865	825
93	633	816
94	851	444
95	794	795
96	878	65
97	734	205
98	960	650
99	866	634
100	274	60
101	274	253
102	254	218
103	78	365
104	781	502
105	615	122
106	55	79
107	925	689
108	78	297
109	973	858
110	149	72
111	949	983
112	417	982
113	391	457
114	187	716
115	690	360
116	787	693
117	90	806
118	510	456
119	439	407
120	910	386
121	583	886
122	448	820
123	442	434
124	676	802
125	504	283
126	463	811
127	113	183
128	721	673
129	941	840
130	4	423
131	341	635
132	902	116
133	810	622
134	519	990
135	169	728
136	369	843
137	370	621
138	61	783
139	549	44
140	518	223
141	899	617
142	452	316
143	4	670
144	290	207
145	603	122
146	98	263
147	420	787
148	275	139
149	493	233
150	951	639
151	24	647
152	108	20
153	773	42
154	185	992
155	370	607
156	703	565
157	383	875
158	303	709
159	855	710
160	786	842
161	412	951
162	604	493
163	693	245
164	915	762
165	939	617
166	75	761
167	436	178
168	965	362
169	55	819
170	538	821
171	96	996
172	579	659
173	293	330
174	216	84
175	847	88
176	555	782
177	497	895
178	766	826
179	741	325
180	139	262
181	898	607
182	333	954
183	594	360
184	899	857
185	847	499
186	622	931
187	684	461
188	456	806
189	112	167
190	198	813
191	230	25
192	729	815
193	251	252
194	270	278
195	685	596
196	559	217
197	829	682
198	22	127
199	985	360
200	468	47
201	469	403
202	375	620
203	734	865
204	369	411
205	466	580
206	483	101
207	84	522
208	309	49
209	944	337
210	178	328
211	140	279
212	88	623
213	94	272
214	737	842
215	418	434
216	513	320
217	468	468
218	441	295
219	872	806
220	177	86
221	905	683
222	725	178
223	409	699
224	804	838
225	608	650
226	993	414
227	194	509
228	848	711
229	808	915
230	456	316
231	341	128
232	968	349
233	144	132
234	662	158
235	682	634
236	649	162
237	786	545
238	239	167
239	75	957
240	36	741
241	409	607
242	576	0
243	295	976
244	560	226
245	329	760
246	199	542
247	890	143
248	291	244
249	353	440
250	697	324
251	788	299
252	444	812
253	283	641
254	473	274
255	655	65
256	607	91
257	364	94
258	335	515
259	170	452
260	153	212
261	620	865
262	84	879
263	365	263
264	314	174
265	821	804
266	898	510
267	194	123
268	472	322
269	290	957
270	66	87
271	700	454
272	851	174
273	173	133
274	783	549
275	970	144
276	637	408
277	326	65
278	259	593
279	276	866
280	808	72
281	610	391
282	951	862
283	473	215
284	704	177
285	930	767
286	107	353
287	105	160
288	80	241
289	757	99
290	398	866
291	827	181
292	420	306
293	553	459
294	3	393
295	474	611
296	945	311
297	101	657
298	522	985
299	339	844
300	414	942
301	692	334
302	428	64
303	466	248
304	372	824
305	919	686
306	97	679
307	610	533
308	404	715
309	386	419
310	444	956
311	193	884
312	816	180
313	281	286
314	318	258
315	742	774
316	135	353
317	960	250
318	766	680
319	513	682
320	179	467
321	671	685
322	329	518
323	581	370
324	322	210
325	66	412
326	964	408
327	424	543
328	961	397
329	693	657
330	45	122
331	508	548
332	589	912
333	774	395
334	318	44
335	610	392
336	674	705
337	489	377
338	12	498
339	247	505
340	367	1
341	256	428
342	79	277
343	378	727
344	504	793
345	953	644
346	286	376
347	132	315
348	191	981
349	514	771
350	55	907
351	233	873
352	869	561
353	365	22
354	422	295
355	749	714
356	118	918
357	575	208
358	246	37
359	614	613
360	68	874
361	846	755
362	888	365
363	549	219
364	373	796
365	786	881
366	397	65
367	339	280
368	151	634
369	1	810
370	472	699
371	515	112
372	467	27
373	45	502
374	904	598
375	116	119
376	240	181
377	333	568
378	73	546
379	820	646
380	669	305
381	569	689
382	816	828
383	37	684
384	225	2
385	977	877
386	843	566
387	881	667
388	265	991
389	605	333
390	942	345
391	942	796
392	712	701
393	959	167
394	923	399
395	663	508
396	809	663
397	394	850
398	463	81
399	740	432
400	490	243
401	731	68
402	491	303
403	860	242
404	6	41
405	108	367
406	611	887
407	108	171
408	244	735
409	349	774
410	139	193
411	783	394
412	351	397
413	269	403
414	789	979
415	158	556
416	137	833
417	165	259
418	202	884
419	829	32
420	785	951
421	972	418
422	177	564
423	37	1
424	711	542
425	443	380
426	454	374
427	628	416
428	737	566
429	111	812
430	357	288
431	557	473
432	815	173
433	93	855
434	381	135
435	305	350
436	496	309
437	582	849
438	253	822
439	809	42
440	805	924
441	713	698
442	149	52
443	810	679
444	785	381
445	287	18
446	349	805
447	547	908
448	392	398
449	36	466
450	795	721
451	242	950
452	550	605
453	844	89
454	760	809
455	801	960
456	483	529
457	360	763
458	536	605
459	642	914
460	548	127
461	200	793
462	728	381
463	376	296
464	548	457
465	363	371
466	456	325
467	253	54
468	215	620
469	500	218
470	169	407
471	280	468
472	571	53
473	877	740
474	691	203
475	454	328
476	956	42
477	602	451
478	120	990
479	644	745
480	16	505
481	429	745
482	983	222
483	588	430
484	694	325
485	258	79
486	632	382
487	477	216
488	629	606
489	786	845
490	128	221
491	884	425
492	476	736
493	907	321
494	422	187
495	637	884
496	287	960
497	277	342
498	839	77
499	950	926
500	334	246
501	605	383
DEMAND_SECTION
1	0
2	8
3	7
4	7
5	8
6	3
7	4
8	9
9	4
10	7
11	5
12	9
13	3
14	6
15	6
16	5
17	4
18	9
19	3
20	9
21	5
22	4
23	1
24	5
25	7
26	6
27	3
28	9
29	1
30	3
31	2
32	9
33	7
34	7
35	6
36	9
37	8
38	7
39	5
40	6
41	3
42	4
43	7
44	2
45	6
46	3
47	4
48	9
49	7
50	7
51	2
52	2
53	5
54	4
55	6
56	2
57	9
58	7
59	4
60	7
61	2
62	6
63	7
64	2
65	9
66	7
67	3
68	9
69	9
70	6
71	9
72	5
73	9
74	5
75	7
76	6
77	1
78	4
79	7
80	4
81	3
82	2
83	5
84	2
85	7
86	9
87	8
88	7
89	8
90	1
91	4
92	7
93	6
94	2
95	5
96	3
97	6
98	5
99	4
100	4
101	1
102	2
103	3
104	2
105	3
106	4
107	5
108	3
109	8
110	9
111	5
112	5
113	6
114	3
115	2
116	1
117	4
118	8
119	6
120	9
121	4
122	8
123	4
124	3
125	1
126	4
127	5
128	3
129	9
130	5
131	4
132	1
133	3
134	9
135	8
136	5
137	2
138	6
139	9
140	6
141	1
142	6
143	1
144	6
145	4
146	9
147	4
148	7
149	2
150	2
151	5
152	4
153	3
154	9
155	3
156	3
157	6
158	7
159	9
160	5
161	8
162	7
163	1
164	4
165	1
166	9
167	8
168	1
169	1
170	2
171	9
172	4
173	1
174	1
175	9
176	5
177	4
178	9
179	2
180	2
181	3
182	3
183	2
184	8
185	5
186	7
187	3
188	5
189	8
190	8
191	2
192	9
193	5
194	8
195	3
196	5
197	1
198	3
199	6
200	7
201	6
202	5
203	1
204	2
205	5
206	5
207	3
208	8
209	3
210	1
211	9
212	9
213	4
214	4
215	9
216	9
217	9
218	5
219	1
220	7
221	7
222	9
223	9
224	9
225	7
226	1
227	8
228	8
229	8
230	1
231	7
232	1
233	1
234	8
235	3
236	1
237	4
238	5
239	5
240	3
241	9
242	9
243	1
244	9
245	4
246	9
247	4
248	6
249	2
250	3
251	1
252	5
253	5
254	2
255	1
256	1
257	1
258	1
259	4
260	9
261	1
262	8
263	1
264	3
265	5
266	6
267	2
268	5
269	9
270	2
271	3
272	3
273	5
274	6
275	3
276	6
277	2
278	7
279	3
280	2
281	4
282	2
283	1
284	2
285	4
286	8
287	5
288	2
289	2
290	6
291	5
292	4
293	6
294	5
295	3
296	6
297	1
298	8
299	4
300	2
301	3
302	3
303	6
304	6
305	3
306	4
307	4
308	4
309	7
310	3
311	8
312	5
313	4
314	6
315	8
316	3
317	4
318	3
319	2
320	3
321	3
322	4
323	3
324	9
325	6
326	9
327	3
328	2
329	7
330	6
331	8
332	8
333	2
334	4
335	6
336	3
337	9
338	7
339	7
340	1
341	6
342	1
343	1
344	7
345	9
346	9
347	7
348	8
349	3
350	6
351	7
352	8
353	4
354	2
355	6
356	9
357	3
358	5
359	7
360	5
361	5
362	7
363	5
364	9
365	2
366	5
367	2
368	1
369	4
370	1
371	7
372	1
373	2
374	9
375	8
376	6
377	8
378	6
379	9
380	7
381	6
382	2
383	5
384	7
385	1
386	3
387	5
388	7
389	4
390	9
391	1
392	1
393	8
394	1
395	2
396	3
397	5
398	6
399	1
400	6
401	1
402	4
403	3
404	7
405	5
406	2
407	4
408	4
409	6
410	9
411	7
412	3
413	4
414	6
415	3
416	5
417	1
418	6
419	5
420	2
421	2
422	2
423	2
424	5
425	8
426	5
427	5
428	1
429	8
430	8
431	1
432	2
433	5
434	5
435	2
436	1
437	4
438	9
439	9
440	3
441	1
442	9
443	3
444	1
445	4
446	5
447	2
448	6
449	4
450	1
451	4
452	4
453	6
454	4
455	3
456	4
457	1
458	4
459	3
460	1
461	7
462	7
463	3
464	1
465	8
466	6
467	6
468	1
469	4
470	5
471	6
472	4
473	7
474	5
475	3
476	9
477	8
478	3
479	3
480	8
481	9
482	8
483	9
484	9
485	2
486	9
487	5
488	2
489	4
490	4
491	4
492	8
493	9
494	3
495	6
496	7
497	1
498	7
499	3
500	5
501	2
TIME_WINDOW_SECTION
1	0	3000
2	722	2443
3	1329	1566
4	1547	2852
5	1317	1728
6	0	1772
7	1144	1634
8	1316	2163
9	1566	3000
10	980	2350
11	862	1597
12	1476	1905
13	66	1445
14	0	1162
15	1349	1766
16	1553	3000
17	199	1745
18	1293	3000
19	634	2423
20	494	768
21	0	1608
22	852	2621
23	0	1327
24	1044	2579
25	406	2327
26	0	1652
27	586	2140
28	853	1175
29	608	1202
30	2080	2481
31	657	1207
32	622	1531
33	1269	2976
34	2096	2660
35	1280	2821
36	397	1877
37	295	1702
38	241	2178
39	1436	1860
40	344	2044
41	367	864
42	546	2049
43	1092	2868
44	2266	2901
45	0	1279
46	28	2011
47	1953	2261
48	1492	1816
49	1839	2151
50	19	1865
51	806	2031
52	327	2109
53	983	2388
54	833	1134
55	801	1176
56	1364	1670
57	0	1543
58	624	1550
59	805	2744
60	585	1290
61	534	1541
62	1281	2423
63	553	2173
64	1375	2097
65	1247	1692
66	753	1500
67	1080	1282
68	1368	2303
69	500	1063
70	0	1787
71	857	1879
72	2187	2552
73	994	2157
74	1697	2423
75	407	727
76	836	1036
77	227	1595
78	1396	2203
79	1051	2526
80	523	1166
81	1617	2332
82	194	1319
83	1131	2617
84	1384	3000
85	1187	2730
86	1452	1724
87	1179	2579
88	0	1610
89	1426	2545
90	1009	1484
91	1377	2581
92	719	2251
93	1696	2097
94	1926	2230
95	397	704
96	747	1794
97	1204	3000
98	1155	3000
99	779	1447
100	1338	2606
101	850	2147
102	1365	2286
103	516	2256
104	1080	2030
105	1502	2291
106	1176	1651
107	1645	2595
108	677	1772
109	1379	2673
110	610	1984
111	782	2595
112	533	884
113	468	1554
114	86	1592
115	267	1032
116	977	1664
117	1122	1367
118	0	1297
119	0	1340
120	1103	1951
121	892	2406
122	490	936
123	985	2778
124	1237	2534
125	1465	2744
126	0	566
127	596	2148
128	19	2011
129	1085	2447
130	1605	2145
131	134	1997
132	0	1925
133	1311	2570
134	744	1240
135	197	1731
136	363	1432
137	997	1254
138	1414	3000
139	373	2110
140	305	1074
141	1141	2987
142	1399	2362
143	0	1787
144	1386	2938
145	1130	1498
146	757	1296
147	868	1080
148	475	2209
149	979	1446
150	871	1102
151	1777	2627
152	738	1850
153	1328	1756
154	274	1253
155	0	651
156	218	1585
157	844	1493
158	670	1312
159	1264	2592
160	123	689
161	0	712
162	219	1451
163	1582	2172
164	684	1828
165	1606	1930
166	911	2906
167	1284	1715
168	7	1887
169	813	1062
170	29	1886
171	2257	2495
172	0	1212
173	960	1978
174	508	2432
175	867	2170
176	0	1179
177	1050	1822
178	1626	2263
179	1488	1939
180	505	1375
181	1429	2658
182	0	1358
183	1366	3000
184	568	2445
185	949	1383
186	1206	1737
187	1462	2823
188	0	1929
189	470	1569
190	909	2840
191	1035	2457
192	1064	2598
193	942	1463
194	276	1254
195	1105	2731
196	516	1860
197	1055	1750
198	235	2206
199	884	1612
200	270	1400
201	1629	2744
202	2250	2589
203	136	749
204	1657	3000
205	1761	3000
206	571	1472
207	535	2074
208	861	1672
209	850	1446
210	1229	3000
211	0	1558
212	545	784
213	1201	1682
214	0	1667
215	1685	2991
216	1448	2692
217	1444	2502
218	931	2711
219	714	2596
220	1361	2044
221	1038	1616
222	832	1107
223	1769	3000
224	391	1301
225	0	1325
226	202	2179
227	1671	2217
228	615	1697
229	0	1891
230	492	2315
231	1158	2322
232	1256	1507
233	225	1427
234	1128	1449
235	948	2390
236	707	2535
237	349	1861
238	754	1572
239	0	1530
240	1568	2134
241	16	1373
242	1014	2798
243	371	1427
244	466	707
245	420	2049
246	0	1321
247	978	1268
248	0	1668
249	576	1358
250	972	2773
251	1047	2837
252	148	1616
253	1690	2740
254	1273	2770
255	574	2010
256	0	1637
257	1278	2910
258	167	465
259	1070	1368
260	984	1696
261	1060	1311
262	1534	1936
263	359	2038
264	755	1629
265	612	2321
266	1493	1927
267	592	1685
268	801	1421
269	6	1063
270	893	2308
271	45	990
272	739	1055
273	1190	2552
274	2069	2614
275	793	1232
276	1497	1836
277	810	1391
278	500	1421
279	650	2361
280	438	1930
281	7	1164
282	476	2437
283	126	1705
284	310	2046
285	1014	1892
286	1300	1568
287	689	1533
288	782	1315
289	1154	2176
290	211	2137
291	1065	2593
292	281	907
293	593	2315
294	1256	2163
295	0	801
296	1364	2245
297	1096	1514
298	51	1394
299	1430	1958
300	1492	1893
301	972	2776
302	581	1410
303	460	711
304	760	1053
305	472	1335
306	79	1198
307	0	729
308	544	2235
309	1136	2695
310	0	1013
311	522	982
312	243	1356
313	561	1651
314	1534	2793
315	3	1120
316	814	1641
317	242	1404
318	684	1089
319	410	950
320	0	1350
321	1391	1737
322	1041	1285
323	1335	2701
324	0	1847
325	0	1545
326	124	1269
327	1657	3000
328	971	1430
329	1101	1803
330	1588	1820
331	1132	2865
332	407	2364
333	267	1159
334	1741	1997
335	669	2106
336	435	988
337	853	1595
338	1089	2421
339	1518	3000
340	302	1295
341	855	2305
342	497	2435
343	711	2620
344	1618	3000
345	150	1286
346	1497	1788
347	1365	2850
348	74	1489
349	1182	2136
350	1051	1424
351	534	2362
352	1606	2283
353	386	2024
354	1074	2445
355	915	2259
356	947	2515
357	663	2272
358	951	2251
359	1070	1418
360	1149	1461
361	139	1174
362	1169	1538
363	838	2556
364	0	1473
365	537	2511
366	376	1911
367	739	2478
368	1055	2833
369	718	1062
370	2318	2658
371	1165	1399
372	1597	2409
373	1237	1501
374	726	2073
375	341	1450
376	1298	2650
377	2038	3000
378	874	1795
379	718	1375
380	1410	2707
381	0	1352
382	1124	1924
383	394	1601
384	581	1254
385	1461	2971
386	1385	3000
387	916	2650
388	715	1741
389	483	1898
390	49	1743
391	635	1869
392	1280	2057
393	363	1447
394	1464	1973
395	1592	2937
396	957	1440
397	206	992
398	1307	1776
399	1670	2152
400	968	1984
401	485	1794
402	1559	2512
403	1460	2146
404	158	2005
405	1250	2734
406	1076	2076
407	517	1385
408	423	2258
409	943	1424
410	22	1454
411	1000	1848
412	233	892
413	523	1979
414	776	1471
415	1497	1892
416	1495	2774
417	1123	2199
418	1566	3000
419	871	1934
420	866	1583
421	1700	2267
422	0	1075
423	45	2006
424	192	1282
425	1015	2949
426	1040	2990
427	760	1014
428	1822	2836
429	418	2197
430	1770	2343
431	946	2939
432	803	1575
433	468	795
434	94	1814
435	296	1597
436	792	1094
437	0	1213
438	141	1801
439	536	1808
440	1096	2772
441	397	682
442	1470	1934
443	387	1659
444	0	1595
445	451	1164
446	1579	3000
447	176	760
448	813	2430
449	1001	1857
450	169	613
451	273	1089
452	401	1994
453	653	2369
454	1315	2028
455	672	967
456	41	613
457	88	905
458	1828	2029
459	783	1075
460	852	1356
461	0	980
462	891	2080
463	1128	2013
464	854	1088
465	1469	2183
466	1345	1788
467	1129	2451
468	1513	2037
469	615	988
470	569	1727
471	1323	2145
472	1449	1687
473	319	1050
474	914	2610
475	650	1940
476	814	2039
477	1188	2742
478	782	1986
479	1208	1470
480	1234	2210
481	1737	2750
482	541	2232
483	0	1830
484	563	1657
485	1632	1977
486	1689	2762
487	960	1578
488	1454	2407
489	238	1329
490	1209	2069
491	1275	2012
492	34	1987
493	813	2081
494	1612	2358
495	988	2907
496	1100	2346
497	0	1204
498	1396	1964
499	496	1871
500	407	2358
501	1043	2104
BACKHAUL_SECTION
3	4	6	14	16	30	36	39	46	49	55	58	64	66	67	68	69	70	75	84	90	91	101	108	120	122	125	129	134	135	138	140	141	154	156	161	163	167	168	171	172	189	192	194	206	219	220	225	227	235	239	255	261	266	270	276	277	279	286	291	297	318	328	332	343	345	351	360	365	367	371	376	377	379	381	383	388	401	407	417	420	422	424	427	429	431	443	446	456	461	462	471	473	477	479	485	486	487	491	497	-1
DEPOT_SECTION
1
-1
EOF
