NAME : n51-0021
COMMENT : "Generated by pyvrp_manuel (OVRP)"
TYPE : OVRP
DIMENSION : 51
EDGE_WEIGHT_TYPE : EUC_2D
CAPACITY : 40
VEHICLES : 50
OPEN_ROUTE : YES
NODE_COORD_SECTION
1	323	718
2	911	369
3	400	627
4	423	369
5	403	602
6	224	118
7	108	992
8	513	724
9	21	427
10	109	457
11	945	863
12	319	228
13	91	253
14	671	204
15	775	320
16	963	379
17	411	795
18	851	861
19	862	27
20	776	238
21	855	889
22	458	672
23	606	720
24	835	645
25	333	520
26	558	87
27	664	174
28	817	948
29	568	919
30	511	814
31	749	83
32	99	380
33	699	407
34	399	802
35	948	712
36	648	754
37	568	50
38	4	34
39	60	879
40	465	153
41	609	503
42	200	22
43	616	508
44	323	221
45	368	935
46	100	302
47	341	958
48	530	841
49	450	422
50	784	308
51	797	937
DEMAND_SECTION
1	0
2	2
3	5
4	5
5	3
6	3
7	5
8	4
9	4
10	7
11	1
12	9
13	6
14	6
15	3
16	1
17	5
18	1
19	6
20	3
21	4
22	3
23	9
24	1
25	7
26	1
27	2
28	4
29	6
30	2
31	3
32	1
33	6
34	7
35	2
36	3
37	7
38	7
39	8
40	1
41	6
42	5
43	8
44	5
45	7
46	7
47	9
48	7
49	1
50	3
51	1
DEPOT_SECTION
1
-1
EOF
