NAME : n51-0026
COMMENT : "Generated by pyvrp_manuel (OVRP)"
TYPE : OVRP
DIMENSION : 51
EDGE_WEIGHT_TYPE : EUC_2D
CAPACITY : 40
VEHICLES : 50
OPEN_ROUTE : YES
NODE_COORD_SECTION
1	533	32
2	165	242
3	208	424
4	681	403
5	600	382
6	19	564
7	522	160
8	19	623
9	362	600
10	391	377
11	299	980
12	55	376
13	364	324
14	754	945
15	912	257
16	282	698
17	768	81
18	273	264
19	451	324
20	113	416
21	384	538
22	309	267
23	946	356
24	798	173
25	283	703
26	599	123
27	887	364
28	500	432
29	882	621
30	733	391
31	999	695
32	747	403
33	86	861
34	55	6
35	547	403
36	140	885
37	550	268
38	822	677
39	110	417
40	69	221
41	590	639
42	307	324
43	73	191
44	468	518
45	781	832
46	936	597
47	130	359
48	60	462
49	762	557
50	728	922
51	760	396
DEMAND_SECTION
1	0
2	2
3	6
4	4
5	4
6	5
7	2
8	3
9	5
10	9
11	2
12	4
13	1
14	8
15	9
16	3
17	2
18	7
19	9
20	3
21	9
22	2
23	8
24	5
25	5
26	3
27	5
28	8
29	4
30	5
31	8
32	1
33	5
34	5
35	9
36	8
37	9
38	6
39	7
40	3
41	9
42	9
43	9
44	1
45	1
46	2
47	1
48	6
49	9
50	4
51	1
DEPOT_SECTION
1
-1
EOF
