NAME : n51-0050
COMMENT : "Generated by pyvrp_manuel (OVRP)"
TYPE : OVRP
DIMENSION : 51
EDGE_WEIGHT_TYPE : EUC_2D
CAPACITY : 40
VEHICLES : 50
OPEN_ROUTE : YES
NODE_COORD_SECTION
1	23	682
2	70	236
3	271	22
4	4	676
5	971	424
6	306	719
7	795	51
8	261	923
9	723	36
10	509	121
11	113	252
12	996	212
13	844	46
14	466	952
15	388	328
16	279	139
17	660	136
18	182	934
19	872	239
20	511	366
21	881	51
22	51	745
23	524	354
24	756	705
25	160	786
26	790	429
27	67	710
28	798	3
29	37	440
30	62	250
31	890	591
32	799	618
33	989	707
34	647	879
35	301	929
36	548	958
37	202	160
38	864	212
39	597	974
40	593	145
41	196	224
42	161	768
43	572	455
44	639	792
45	544	825
46	433	693
47	607	504
48	864	983
49	902	373
50	338	912
51	273	554
DEMAND_SECTION
1	0
2	9
3	9
4	9
5	1
6	1
7	6
8	4
9	6
10	5
11	2
12	2
13	3
14	4
15	6
16	3
17	4
18	2
19	8
20	4
21	5
22	1
23	2
24	9
25	2
26	8
27	6
28	3
29	5
30	2
31	9
32	4
33	2
34	2
35	1
36	3
37	2
38	1
39	7
40	6
41	7
42	7
43	6
44	9
45	2
46	8
47	7
48	4
49	7
50	5
51	7
DEPOT_SECTION
1
-1
EOF
