NAME : n51-0042
COMMENT : "Generated by pyvrp_manuel (OVRP)"
TYPE : OVRP
DIMENSION : 51
EDGE_WEIGHT_TYPE : EUC_2D
CAPACITY : 40
VEHICLES : 50
OPEN_ROUTE : YES
NODE_COORD_SECTION
1	889	549
2	309	471
3	423	852
4	710	710
5	497	183
6	533	107
7	511	991
8	428	978
9	189	893
10	688	282
11	7	275
12	735	983
13	98	275
14	678	376
15	74	332
16	659	14
17	314	794
18	738	286
19	965	580
20	739	457
21	310	933
22	32	675
23	281	342
24	882	44
25	433	330
26	867	121
27	402	301
28	872	893
29	510	701
30	1000	70
31	509	956
32	369	130
33	943	974
34	795	876
35	457	153
36	58	708
37	360	989
38	556	824
39	532	385
40	308	73
41	14	398
42	66	0
43	749	280
44	501	372
45	124	347
46	179	590
47	970	381
48	571	785
49	718	543
50	328	402
51	431	999
DEMAND_SECTION
1	0
2	2
3	9
4	4
5	1
6	9
7	8
8	3
9	4
10	2
11	4
12	6
13	5
14	4
15	3
16	7
17	1
18	9
19	1
20	9
21	5
22	4
23	7
24	9
25	5
26	3
27	5
28	6
29	8
30	3
31	4
32	2
33	7
34	2
35	7
36	6
37	1
38	8
39	8
40	6
41	2
42	1
43	4
44	9
45	4
46	3
47	2
48	2
49	9
50	7
51	2
DEPOT_SECTION
1
-1
EOF
