NAME : n1001-0035
COMMENT : "Generated by pyvrp_manuel (OVRP)"
TYPE : OVRP
DIMENSION : 1001
EDGE_WEIGHT_TYPE : EUC_2D
CAPACITY : 150
VEHICLES : 1000
OPEN_ROUTE : YES
NODE_COORD_SECTION
1	402	364
2	558	520
3	741	938
4	360	17
5	915	544
6	519	248
7	565	940
8	435	41
9	384	285
10	233	193
11	112	144
12	907	91
13	819	549
14	676	985
15	895	361
16	92	518
17	599	991
18	598	803
19	979	618
20	639	349
21	852	724
22	683	725
23	812	876
24	565	830
25	404	89
26	374	961
27	303	800
28	146	509
29	992	111
30	319	375
31	379	924
32	44	935
33	798	207
34	800	360
35	724	136
36	20	511
37	378	237
38	738	875
39	483	348
40	510	510
41	163	371
42	334	370
43	82	250
44	980	169
45	583	465
46	188	642
47	156	441
48	791	923
49	346	770
50	105	888
51	329	536
52	138	152
53	728	456
54	867	743
55	917	887
56	83	164
57	630	152
58	190	45
59	935	529
60	182	624
61	833	750
62	938	216
63	600	625
64	838	766
65	752	504
66	360	386
67	366	312
68	237	835
69	168	69
70	827	966
71	538	985
72	289	465
73	4	149
74	858	393
75	241	704
76	760	942
77	813	219
78	713	670
79	734	474
80	925	789
81	256	977
82	334	151
83	869	242
84	990	936
85	600	810
86	827	457
87	893	259
88	812	338
89	279	358
90	243	966
91	22	8
92	605	654
93	486	528
94	629	220
95	914	726
96	163	177
97	56	967
98	331	240
99	169	502
100	967	972
101	723	464
102	624	448
103	132	737
104	659	582
105	861	956
106	209	570
107	110	772
108	599	296
109	420	162
110	459	31
111	463	676
112	866	114
113	149	964
114	324	182
115	75	924
116	617	833
117	866	529
118	163	29
119	948	484
120	833	782
121	740	662
122	485	545
123	929	870
124	893	247
125	483	639
126	822	891
127	109	988
128	434	910
129	701	536
130	742	232
131	674	959
132	222	502
133	411	861
134	399	574
135	736	77
136	978	146
137	710	365
138	305	257
139	400	4
140	401	236
141	474	562
142	808	53
143	693	222
144	734	660
145	892	749
146	345	87
147	615	688
148	720	353
149	473	948
150	259	344
151	448	36
152	761	650
153	143	134
154	693	150
155	664	543
156	963	817
157	87	929
158	938	882
159	517	404
160	848	222
161	945	50
162	820	526
163	400	281
164	590	731
165	148	131
166	160	962
167	841	159
168	328	261
169	248	41
170	806	779
171	547	716
172	819	311
173	118	562
174	82	121
175	628	653
176	418	595
177	483	889
178	573	335
179	825	942
180	303	485
181	924	685
182	838	172
183	840	972
184	933	268
185	622	630
186	941	511
187	608	192
188	643	664
189	741	980
190	483	307
191	47	170
192	774	340
193	214	558
194	801	648
195	828	171
196	701	931
197	714	755
198	157	437
199	3	83
200	844	742
201	716	527
202	536	170
203	790	653
204	897	874
205	554	472
206	867	615
207	308	503
208	77	291
209	633	372
210	727	896
211	849	869
212	567	529
213	17	968
214	441	637
215	730	997
216	250	764
217	68	825
218	51	498
219	650	271
220	633	390
221	297	721
222	650	523
223	426	600
224	111	148
225	16	472
226	163	165
227	486	543
228	798	49
229	305	934
230	855	689
231	792	490
232	724	201
233	370	229
234	415	489
235	246	80
236	422	380
237	882	609
238	513	548
239	873	383
240	35	828
241	489	550
242	179	292
243	1	785
244	873	348
245	566	697
246	469	701
247	336	861
248	421	893
249	185	836
250	479	990
251	405	355
252	636	322
253	909	269
254	189	361
255	834	30
256	601	432
257	110	107
258	781	946
259	205	585
260	924	370
261	361	65
262	744	196
263	66	230
264	132	951
265	941	68
266	872	182
267	338	808
268	521	277
269	170	591
270	106	646
271	933	893
272	176	271
273	366	982
274	790	631
275	181	487
276	549	42
277	89	722
278	512	282
279	227	579
280	140	855
281	639	747
282	293	577
283	990	444
284	172	832
285	408	46
286	764	690
287	124	312
288	350	23
289	505	840
290	324	229
291	150	709
292	559	752
293	384	236
294	189	168
295	21	48
296	607	212
297	880	650
298	857	730
299	701	138
300	352	710
301	592	37
302	908	686
303	974	12
304	839	791
305	602	722
306	598	791
307	346	545
308	687	864
309	352	857
310	764	985
311	816	769
312	308	946
313	436	233
314	69	318
315	391	795
316	270	156
317	75	149
318	341	708
319	49	474
320	210	344
321	344	975
322	11	987
323	269	505
324	593	117
325	18	199
326	635	380
327	690	116
328	441	97
329	562	938
330	901	127
331	233	273
332	599	851
333	942	981
334	926	412
335	873	663
336	458	809
337	827	723
338	770	674
339	2	653
340	395	801
341	430	422
342	998	812
343	768	174
344	200	152
345	457	395
346	612	517
347	162	775
348	231	215
349	918	998
350	57	594
351	224	86
352	500	8
353	75	769
354	851	549
355	112	322
356	197	690
357	188	783
358	787	128
359	8	260
360	620	854
361	971	469
362	283	505
363	917	992
364	533	376
365	638	197
366	561	823
367	215	183
368	670	140
369	637	98
370	566	901
371	742	311
372	376	997
373	17	814
374	317	767
375	574	346
376	793	953
377	463	485
378	490	720
379	268	444
380	517	177
381	275	922
382	973	808
383	720	25
384	808	698
385	88	981
386	443	66
387	402	863
388	15	226
389	881	572
390	205	492
391	183	19
392	73	876
393	534	892
394	568	13
395	307	700
396	793	491
397	422	581
398	123	905
399	59	14
400	755	938
401	296	11
402	669	695
403	84	88
404	828	306
405	832	953
406	484	468
407	672	899
408	412	802
409	428	913
410	868	364
411	705	696
412	651	794
413	141	328
414	143	324
415	483	880
416	731	157
417	589	368
418	46	554
419	310	44
420	809	966
421	897	869
422	207	653
423	506	215
424	624	140
425	526	268
426	550	283
427	847	439
428	418	614
429	76	217
430	418	547
431	229	986
432	422	697
433	914	818
434	173	986
435	399	698
436	193	491
437	157	488
438	99	363
439	450	621
440	448	464
441	813	423
442	582	148
443	967	162
444	248	526
445	588	418
446	983	866
447	453	578
448	978	704
449	754	778
450	766	426
451	171	184
452	867	980
453	255	975
454	821	655
455	5	797
456	221	876
457	331	682
458	274	877
459	627	534
460	275	283
461	583	437
462	235	894
463	595	200
464	646	895
465	492	38
466	52	149
467	716	129
468	1000	497
469	239	0
470	275	810
471	537	567
472	845	756
473	145	584
474	192	248
475	942	593
476	743	320
477	321	390
478	470	439
479	886	104
480	650	588
481	857	794
482	617	1
483	337	347
484	217	763
485	223	216
486	227	315
487	994	146
488	358	881
489	454	748
490	480	318
491	411	867
492	496	139
493	821	454
494	625	741
495	971	433
496	748	767
497	464	338
498	261	526
499	933	415
500	559	122
501	868	59
502	228	508
503	968	445
504	104	605
505	37	960
506	402	112
507	817	201
508	784	752
509	104	504
510	528	595
511	113	711
512	280	393
513	764	420
514	9	583
515	659	634
516	554	1
517	368	564
518	337	878
519	937	662
520	848	894
521	477	238
522	648	399
523	946	185
524	466	627
525	970	750
526	833	31
527	859	502
528	918	278
529	370	801
530	746	812
531	421	529
532	323	525
533	423	556
534	795	654
535	63	332
536	653	940
537	243	320
538	721	875
539	22	5
540	883	762
541	692	532
542	89	652
543	26	963
544	883	117
545	206	669
546	61	962
547	142	507
548	325	779
549	654	170
550	361	714
551	611	366
552	913	632
553	825	90
554	748	954
555	922	964
556	964	690
557	440	428
558	320	244
559	220	363
560	746	774
561	834	311
562	261	215
563	370	483
564	676	602
565	102	951
566	1	478
567	409	532
568	479	490
569	176	749
570	427	615
571	822	36
572	26	978
573	403	593
574	804	986
575	765	131
576	150	728
577	336	799
578	414	443
579	780	568
580	141	865
581	649	850
582	846	353
583	675	925
584	273	356
585	178	667
586	41	53
587	834	508
588	117	29
589	181	860
590	35	942
591	307	182
592	760	731
593	154	963
594	899	486
595	380	117
596	403	116
597	470	832
598	786	424
599	311	515
600	842	242
601	644	18
602	115	515
603	296	77
604	801	703
605	989	827
606	721	653
607	22	978
608	104	159
609	609	209
610	20	807
611	833	999
612	591	523
613	612	670
614	759	501
615	990	480
616	472	327
617	209	254
618	729	954
619	239	433
620	649	856
621	869	952
622	627	150
623	225	342
624	711	603
625	15	358
626	173	512
627	158	178
628	927	963
629	904	18
630	843	951
631	899	223
632	896	307
633	271	935
634	357	919
635	747	171
636	237	291
637	794	789
638	12	346
639	324	142
640	163	771
641	142	615
642	531	179
643	367	35
644	919	979
645	542	258
646	595	612
647	441	804
648	5	133
649	590	395
650	321	517
651	262	195
652	294	366
653	688	859
654	876	813
655	912	233
656	431	312
657	102	472
658	426	280
659	786	972
660	464	582
661	708	951
662	944	311
663	277	27
664	154	930
665	546	566
666	450	908
667	617	156
668	5	882
669	237	133
670	550	376
671	430	807
672	718	278
673	116	617
674	724	520
675	999	525
676	54	197
677	79	883
678	910	13
679	495	281
680	594	507
681	324	471
682	527	736
683	52	175
684	42	437
685	557	824
686	88	335
687	242	834
688	617	162
689	512	320
690	551	591
691	169	42
692	525	828
693	372	378
694	35	412
695	312	833
696	305	531
697	641	415
698	577	269
699	496	434
700	179	267
701	411	328
702	686	226
703	785	473
704	373	402
705	815	551
706	623	101
707	530	344
708	726	785
709	666	674
710	898	873
711	806	670
712	333	702
713	177	985
714	910	942
715	348	393
716	435	662
717	455	951
718	74	803
719	792	214
720	346	288
721	831	118
722	673	941
723	961	404
724	470	979
725	277	371
726	959	883
727	149	824
728	826	956
729	991	771
730	425	419
731	608	321
732	698	3
733	197	933
734	164	784
735	84	597
736	267	865
737	11	232
738	17	113
739	72	739
740	66	377
741	621	903
742	291	437
743	865	545
744	846	332
745	875	485
746	233	263
747	516	32
748	524	740
749	908	65
750	312	775
751	314	727
752	622	156
753	854	773
754	195	973
755	696	555
756	695	197
757	674	713
758	20	727
759	801	890
760	482	78
761	807	710
762	939	93
763	544	113
764	213	52
765	572	395
766	89	304
767	789	934
768	423	927
769	332	625
770	919	605
771	316	417
772	139	249
773	663	684
774	346	761
775	13	466
776	768	926
777	966	546
778	513	891
779	89	579
780	114	513
781	674	812
782	900	494
783	940	616
784	331	157
785	331	698
786	39	760
787	584	638
788	707	759
789	986	913
790	992	352
791	644	75
792	302	832
793	553	146
794	387	833
795	281	190
796	174	755
797	305	509
798	703	619
799	780	729
800	945	365
801	109	199
802	53	519
803	987	696
804	69	697
805	305	366
806	212	746
807	663	471
808	687	312
809	628	425
810	290	676
811	659	753
812	813	224
813	942	360
814	657	245
815	791	450
816	528	493
817	604	181
818	536	362
819	827	150
820	771	782
821	486	761
822	141	624
823	45	33
824	433	328
825	94	512
826	6	759
827	843	566
828	788	125
829	366	311
830	716	637
831	334	841
832	431	641
833	727	220
834	254	104
835	335	89
836	965	581
837	766	315
838	582	15
839	698	867
840	212	870
841	651	516
842	893	169
843	509	752
844	234	62
845	570	671
846	676	983
847	239	570
848	567	595
849	637	317
850	398	226
851	912	879
852	787	61
853	611	844
854	148	616
855	99	761
856	309	839
857	17	947
858	662	43
859	670	872
860	538	945
861	375	577
862	162	340
863	429	329
864	161	809
865	347	907
866	920	949
867	247	876
868	383	320
869	522	688
870	275	978
871	348	614
872	780	898
873	77	421
874	732	578
875	98	741
876	499	550
877	617	679
878	306	786
879	667	745
880	690	426
881	276	665
882	638	213
883	211	107
884	386	633
885	679	420
886	822	367
887	366	30
888	687	823
889	786	64
890	860	665
891	645	67
892	646	235
893	900	497
894	649	727
895	75	114
896	606	192
897	669	899
898	891	979
899	574	375
900	65	320
901	713	922
902	49	258
903	274	710
904	542	677
905	899	484
906	691	314
907	784	135
908	453	638
909	953	718
910	108	811
911	229	666
912	521	594
913	642	430
914	155	82
915	874	825
916	848	139
917	242	985
918	674	564
919	665	2
920	697	95
921	851	117
922	882	222
923	622	797
924	404	626
925	225	981
926	680	758
927	161	536
928	454	229
929	490	421
930	95	389
931	377	101
932	565	421
933	373	346
934	974	261
935	769	248
936	243	343
937	706	457
938	521	629
939	400	571
940	36	407
941	500	839
942	928	669
943	368	654
944	864	964
945	805	903
946	970	78
947	726	271
948	714	830
949	923	905
950	947	174
951	918	348
952	58	156
953	745	881
954	818	96
955	361	787
956	705	939
957	959	150
958	579	41
959	2	779
960	600	790
961	673	372
962	914	953
963	58	518
964	757	502
965	184	250
966	944	199
967	384	636
968	350	970
969	404	502
970	888	943
971	843	340
972	596	639
973	419	48
974	855	857
975	9	160
976	881	853
977	978	382
978	434	399
979	265	524
980	902	52
981	379	468
982	655	444
983	828	591
984	800	358
985	767	716
986	680	361
987	837	322
988	491	779
989	161	695
990	864	125
991	703	468
992	578	722
993	563	266
994	178	870
995	902	50
996	632	379
997	761	611
998	358	698
999	56	489
1000	480	860
1001	193	602
DEMAND_SECTION
1	0
2	2
3	8
4	1
5	7
6	9
7	4
8	7
9	6
10	7
11	3
12	4
13	9
14	2
15	1
16	7
17	6
18	3
19	6
20	8
21	6
22	6
23	3
24	3
25	1
26	8
27	1
28	9
29	4
30	9
31	8
32	5
33	3
34	4
35	3
36	6
37	5
38	3
39	5
40	2
41	8
42	6
43	4
44	2
45	8
46	2
47	4
48	9
49	9
50	1
51	3
52	1
53	3
54	2
55	2
56	7
57	6
58	2
59	6
60	3
61	2
62	2
63	1
64	4
65	2
66	7
67	5
68	2
69	7
70	6
71	7
72	6
73	4
74	3
75	8
76	7
77	8
78	9
79	4
80	8
81	1
82	8
83	3
84	6
85	7
86	8
87	4
88	8
89	3
90	5
91	1
92	5
93	6
94	4
95	8
96	9
97	7
98	1
99	6
100	2
101	4
102	7
103	3
104	7
105	2
106	7
107	5
108	3
109	8
110	4
111	1
112	9
113	2
114	1
115	7
116	2
117	1
118	6
119	5
120	3
121	4
122	8
123	5
124	8
125	1
126	5
127	2
128	9
129	7
130	5
131	5
132	3
133	4
134	9
135	9
136	4
137	9
138	2
139	7
140	7
141	4
142	1
143	9
144	4
145	4
146	1
147	3
148	8
149	6
150	9
151	6
152	3
153	7
154	3
155	6
156	8
157	3
158	7
159	7
160	8
161	4
162	3
163	9
164	6
165	2
166	4
167	3
168	4
169	7
170	8
171	2
172	6
173	7
174	5
175	9
176	8
177	2
178	4
179	1
180	8
181	2
182	2
183	2
184	8
185	5
186	4
187	8
188	3
189	9
190	2
191	7
192	5
193	8
194	2
195	7
196	1
197	1
198	5
199	5
200	2
201	4
202	8
203	5
204	8
205	4
206	2
207	4
208	7
209	5
210	6
211	4
212	6
213	1
214	3
215	2
216	9
217	8
218	7
219	6
220	7
221	3
222	4
223	7
224	3
225	4
226	1
227	2
228	1
229	7
230	6
231	6
232	5
233	1
234	1
235	2
236	3
237	5
238	1
239	8
240	5
241	1
242	6
243	5
244	7
245	3
246	4
247	1
248	9
249	9
250	2
251	1
252	4
253	6
254	1
255	1
256	8
257	9
258	7
259	1
260	3
261	4
262	8
263	5
264	8
265	1
266	9
267	8
268	3
269	3
270	7
271	9
272	9
273	9
274	5
275	9
276	4
277	8
278	6
279	9
280	6
281	1
282	1
283	8
284	1
285	2
286	9
287	4
288	1
289	9
290	6
291	1
292	4
293	7
294	6
295	4
296	6
297	6
298	8
299	3
300	7
301	8
302	8
303	5
304	5
305	2
306	8
307	5
308	4
309	7
310	6
311	3
312	9
313	8
314	1
315	6
316	8
317	7
318	2
319	6
320	5
321	1
322	6
323	8
324	7
325	1
326	3
327	1
328	1
329	5
330	1
331	2
332	1
333	8
334	2
335	1
336	5
337	6
338	9
339	6
340	3
341	3
342	5
343	3
344	7
345	5
346	1
347	4
348	7
349	3
350	5
351	5
352	8
353	8
354	6
355	3
356	6
357	1
358	2
359	3
360	7
361	4
362	4
363	3
364	6
365	6
366	3
367	2
368	3
369	6
370	2
371	4
372	3
373	5
374	1
375	2
376	7
377	4
378	1
379	8
380	1
381	9
382	4
383	6
384	5
385	6
386	4
387	5
388	2
389	5
390	3
391	2
392	4
393	7
394	5
395	2
396	6
397	4
398	8
399	7
400	8
401	5
402	7
403	6
404	6
405	3
406	3
407	3
408	2
409	3
410	6
411	1
412	1
413	9
414	7
415	8
416	4
417	8
418	9
419	1
420	4
421	2
422	1
423	9
424	2
425	7
426	2
427	6
428	9
429	5
430	3
431	8
432	8
433	7
434	6
435	7
436	1
437	4
438	7
439	3
440	1
441	3
442	2
443	6
444	6
445	7
446	9
447	4
448	4
449	5
450	3
451	9
452	5
453	4
454	8
455	8
456	9
457	6
458	8
459	8
460	8
461	1
462	8
463	4
464	3
465	1
466	8
467	6
468	2
469	4
470	1
471	1
472	9
473	7
474	4
475	4
476	3
477	8
478	4
479	5
480	6
481	9
482	2
483	7
484	6
485	9
486	6
487	8
488	5
489	7
490	9
491	2
492	7
493	6
494	5
495	8
496	4
497	3
498	4
499	6
500	4
501	7
502	4
503	8
504	1
505	7
506	7
507	1
508	9
509	2
510	5
511	3
512	3
513	4
514	4
515	3
516	4
517	1
518	7
519	9
520	2
521	6
522	1
523	3
524	3
525	9
526	1
527	2
528	7
529	1
530	6
531	3
532	3
533	5
534	2
535	2
536	7
537	8
538	7
539	2
540	7
541	4
542	1
543	4
544	6
545	3
546	1
547	1
548	5
549	2
550	8
551	2
552	4
553	5
554	8
555	1
556	2
557	5
558	6
559	5
560	7
561	4
562	8
563	4
564	1
565	5
566	5
567	4
568	1
569	2
570	9
571	1
572	6
573	5
574	4
575	4
576	2
577	4
578	6
579	7
580	8
581	7
582	7
583	5
584	6
585	4
586	3
587	6
588	5
589	8
590	9
591	8
592	6
593	8
594	1
595	6
596	4
597	5
598	7
599	8
600	8
601	5
602	8
603	6
604	7
605	4
606	5
607	7
608	9
609	1
610	3
611	1
612	9
613	7
614	8
615	6
616	4
617	1
618	6
619	1
620	4
621	7
622	7
623	7
624	3
625	6
626	8
627	2
628	8
629	5
630	2
631	6
632	2
633	7
634	2
635	4
636	5
637	7
638	3
639	1
640	6
641	4
642	4
643	9
644	8
645	7
646	1
647	9
648	4
649	9
650	5
651	4
652	5
653	5
654	3
655	7
656	7
657	1
658	5
659	3
660	2
661	9
662	6
663	2
664	1
665	2
666	1
667	7
668	5
669	4
670	5
671	7
672	6
673	8
674	5
675	6
676	4
677	6
678	2
679	6
680	4
681	2
682	5
683	9
684	2
685	2
686	3
687	1
688	6
689	2
690	5
691	3
692	3
693	2
694	6
695	8
696	8
697	1
698	5
699	2
700	9
701	5
702	8
703	6
704	5
705	5
706	5
707	8
708	2
709	6
710	5
711	1
712	8
713	5
714	2
715	6
716	8
717	6
718	5
719	8
720	8
721	6
722	9
723	1
724	1
725	5
726	9
727	5
728	6
729	9
730	5
731	7
732	7
733	5
734	7
735	9
736	7
737	5
738	6
739	3
740	8
741	5
742	5
743	2
744	2
745	7
746	9
747	9
748	6
749	4
750	6
751	3
752	9
753	3
754	3
755	8
756	4
757	6
758	9
759	2
760	5
761	4
762	6
763	2
764	8
765	9
766	4
767	4
768	5
769	3
770	9
771	1
772	9
773	7
774	6
775	5
776	9
777	8
778	2
779	4
780	6
781	9
782	7
783	8
784	2
785	9
786	6
787	3
788	2
789	7
790	4
791	1
792	8
793	9
794	6
795	7
796	9
797	1
798	2
799	3
800	1
801	8
802	2
803	6
804	6
805	6
806	9
807	5
808	9
809	8
810	8
811	8
812	8
813	9
814	9
815	2
816	4
817	9
818	8
819	7
820	6
821	7
822	2
823	5
824	7
825	2
826	5
827	4
828	3
829	3
830	8
831	8
832	3
833	3
834	4
835	2
836	6
837	8
838	7
839	6
840	1
841	3
842	5
843	5
844	4
845	3
846	5
847	6
848	9
849	4
850	3
851	2
852	8
853	4
854	6
855	9
856	4
857	4
858	6
859	9
860	8
861	4
862	7
863	9
864	7
865	4
866	5
867	4
868	4
869	1
870	6
871	6
872	6
873	6
874	9
875	8
876	5
877	8
878	9
879	8
880	3
881	2
882	5
883	1
884	8
885	7
886	6
887	7
888	9
889	6
890	6
891	9
892	6
893	4
894	1
895	3
896	5
897	4
898	8
899	4
900	4
901	4
902	5
903	8
904	3
905	8
906	6
907	2
908	9
909	9
910	2
911	1
912	9
913	8
914	1
915	3
916	6
917	5
918	3
919	8
920	5
921	8
922	7
923	1
924	9
925	3
926	7
927	1
928	8
929	4
930	9
931	1
932	2
933	2
934	5
935	3
936	6
937	4
938	1
939	9
940	4
941	7
942	2
943	3
944	8
945	2
946	2
947	5
948	3
949	1
950	3
951	6
952	8
953	9
954	2
955	3
956	4
957	6
958	7
959	4
960	9
961	3
962	6
963	5
964	4
965	8
966	5
967	1
968	2
969	1
970	9
971	6
972	8
973	3
974	9
975	4
976	7
977	4
978	6
979	4
980	2
981	8
982	5
983	3
984	7
985	8
986	7
987	3
988	4
989	9
990	6
991	9
992	5
993	7
994	8
995	7
996	2
997	4
998	9
999	9
1000	1
1001	6
DEPOT_SECTION
1
-1
EOF
