NAME : n1001-0001
COMMENT : "Generated by pyvrp_manuel (OVRP)"
TYPE : OVRP
DIMENSION : 1001
EDGE_WEIGHT_TYPE : EUC_2D
CAPACITY : 150
VEHICLES : 1000
OPEN_ROUTE : YES
NODE_COORD_SECTION
1	816	309
2	702	831
3	602	966
4	141	308
5	970	139
6	371	816
7	964	834
8	305	335
9	595	397
10	589	533
11	970	536
12	189	183
13	401	683
14	109	471
15	658	336
16	596	381
17	826	939
18	665	330
19	511	485
20	831	671
21	171	499
22	971	35
23	286	328
24	978	459
25	472	924
26	86	431
27	853	84
28	901	182
29	657	867
30	238	245
31	617	209
32	846	777
33	710	267
34	453	171
35	823	866
36	162	508
37	494	675
38	48	650
39	480	860
40	571	405
41	822	23
42	515	181
43	276	263
44	15	457
45	286	622
46	759	276
47	508	666
48	553	825
49	416	234
50	152	662
51	337	6
52	461	783
53	671	361
54	547	123
55	868	945
56	710	523
57	656	864
58	575	368
59	138	562
60	548	373
61	993	886
62	186	78
63	665	749
64	384	306
65	64	813
66	688	675
67	557	635
68	13	628
69	940	673
70	373	881
71	823	404
72	801	758
73	337	851
74	249	378
75	837	18
76	56	900
77	990	353
78	51	426
79	563	205
80	814	682
81	721	881
82	835	281
83	376	810
84	577	599
85	456	151
86	33	466
87	327	680
88	434	234
89	429	817
90	954	1
91	540	386
92	857	354
93	214	421
94	805	352
95	544	976
96	235	390
97	211	393
98	342	824
99	545	271
100	386	785
101	47	158
102	287	987
103	689	344
104	295	919
105	272	704
106	24	193
107	284	390
108	820	5
109	46	999
110	68	757
111	541	405
112	772	139
113	519	327
114	998	757
115	624	315
116	761	636
117	639	577
118	832	166
119	590	863
120	821	141
121	90	748
122	912	535
123	477	522
124	367	881
125	496	358
126	572	710
127	260	404
128	324	921
129	547	651
130	397	296
131	231	522
132	878	731
133	42	881
134	315	854
135	825	938
136	77	212
137	952	715
138	570	247
139	200	912
140	546	709
141	560	969
142	34	308
143	903	792
144	417	274
145	511	273
146	914	611
147	332	130
148	480	187
149	377	741
150	948	834
151	446	397
152	485	436
153	808	92
154	795	443
155	732	396
156	499	16
157	318	543
158	603	989
159	287	957
160	260	90
161	502	702
162	577	732
163	707	153
164	513	675
165	79	915
166	865	689
167	518	539
168	348	652
169	386	339
170	279	856
171	758	893
172	926	317
173	131	68
174	853	923
175	748	805
176	21	43
177	558	786
178	865	940
179	214	701
180	800	191
181	489	168
182	368	902
183	594	620
184	235	483
185	838	457
186	575	234
187	52	824
188	115	926
189	947	743
190	735	783
191	230	734
192	176	24
193	240	124
194	800	718
195	495	829
196	252	990
197	681	757
198	833	187
199	627	274
200	850	246
201	496	233
202	61	665
203	114	110
204	837	17
205	555	135
206	776	970
207	912	613
208	391	620
209	824	887
210	281	931
211	474	531
212	111	877
213	117	114
214	282	865
215	452	682
216	870	894
217	549	382
218	147	935
219	161	280
220	252	514
221	20	890
222	49	148
223	427	853
224	299	489
225	347	62
226	347	198
227	94	956
228	250	715
229	851	451
230	522	320
231	585	948
232	613	162
233	325	994
234	443	955
235	471	297
236	36	773
237	869	866
238	7	150
239	44	391
240	973	97
241	572	50
242	260	717
243	485	373
244	665	434
245	784	520
246	95	333
247	825	73
248	667	879
249	895	382
250	873	626
251	31	71
252	798	547
253	637	4
254	301	115
255	876	79
256	393	679
257	276	707
258	162	707
259	287	238
260	253	976
261	618	662
262	993	182
263	324	623
264	649	86
265	937	354
266	1000	197
267	865	672
268	108	251
269	806	846
270	469	447
271	411	292
272	243	699
273	39	57
274	65	143
275	675	908
276	349	652
277	927	891
278	730	263
279	6	705
280	402	643
281	812	473
282	402	30
283	370	159
284	969	673
285	663	31
286	241	997
287	274	314
288	944	89
289	187	57
290	953	855
291	679	581
292	139	817
293	666	772
294	556	984
295	844	163
296	401	541
297	744	543
298	11	387
299	624	172
300	229	163
301	793	975
302	261	463
303	641	55
304	511	14
305	118	462
306	277	220
307	701	374
308	631	72
309	175	495
310	124	405
311	583	153
312	793	710
313	638	384
314	522	798
315	595	661
316	17	700
317	718	245
318	476	257
319	756	461
320	280	699
321	879	79
322	865	754
323	470	902
324	735	462
325	279	37
326	341	141
327	912	321
328	367	771
329	664	505
330	650	829
331	221	116
332	562	943
333	518	200
334	192	968
335	929	242
336	489	582
337	988	57
338	870	922
339	870	289
340	788	490
341	440	865
342	527	115
343	493	957
344	323	709
345	799	606
346	745	148
347	64	372
348	107	438
349	590	422
350	30	726
351	850	299
352	185	907
353	620	683
354	554	120
355	885	72
356	136	673
357	361	279
358	688	524
359	929	182
360	541	908
361	6	184
362	652	470
363	402	649
364	215	968
365	654	412
366	743	698
367	58	841
368	621	210
369	227	792
370	885	66
371	821	328
372	60	32
373	740	796
374	506	797
375	863	67
376	833	102
377	347	130
378	718	159
379	764	295
380	204	66
381	664	524
382	861	657
383	659	535
384	871	486
385	678	314
386	485	546
387	858	807
388	518	911
389	30	137
390	177	250
391	562	464
392	681	877
393	949	347
394	801	670
395	115	697
396	622	845
397	675	802
398	787	92
399	923	886
400	189	768
401	693	650
402	117	972
403	169	255
404	311	198
405	586	4
406	566	967
407	519	794
408	627	438
409	94	193
410	9	620
411	559	992
412	257	237
413	480	992
414	566	313
415	361	628
416	920	514
417	100	109
418	196	502
419	796	479
420	923	411
421	215	700
422	109	227
423	842	673
424	657	725
425	653	741
426	620	29
427	70	309
428	315	45
429	320	955
430	195	138
431	978	111
432	582	151
433	531	36
434	331	232
435	774	160
436	374	429
437	986	707
438	274	737
439	297	796
440	407	167
441	727	842
442	409	920
443	277	61
444	329	679
445	140	485
446	776	154
447	695	609
448	940	973
449	703	756
450	669	92
451	938	197
452	67	668
453	119	220
454	399	329
455	275	346
456	39	792
457	804	509
458	225	120
459	720	505
460	383	755
461	187	910
462	376	719
463	944	605
464	639	263
465	859	265
466	447	876
467	495	102
468	517	301
469	528	898
470	671	410
471	164	522
472	468	723
473	472	481
474	272	175
475	889	279
476	698	534
477	803	802
478	639	562
479	947	436
480	276	224
481	32	212
482	45	624
483	538	586
484	335	136
485	429	294
486	586	978
487	991	722
488	144	501
489	190	637
490	436	566
491	628	993
492	708	867
493	352	789
494	338	849
495	664	522
496	389	225
497	910	780
498	731	326
499	704	876
500	770	811
501	241	263
502	633	423
503	205	614
504	414	51
505	212	304
506	443	738
507	989	710
508	819	373
509	192	634
510	494	470
511	222	980
512	16	683
513	599	13
514	993	95
515	284	446
516	571	852
517	90	872
518	782	892
519	65	179
520	232	818
521	726	305
522	852	375
523	928	359
524	135	606
525	391	75
526	80	130
527	146	726
528	806	700
529	213	651
530	988	558
531	909	769
532	537	471
533	681	647
534	965	628
535	591	685
536	450	215
537	609	792
538	167	395
539	104	641
540	402	938
541	418	747
542	198	973
543	231	426
544	581	885
545	446	566
546	165	682
547	418	848
548	880	621
549	941	220
550	215	855
551	506	777
552	980	491
553	995	294
554	782	419
555	121	818
556	209	266
557	737	254
558	255	228
559	879	987
560	392	531
561	48	657
562	396	848
563	192	402
564	150	257
565	847	265
566	318	46
567	543	923
568	437	12
569	131	253
570	285	474
571	799	473
572	607	315
573	486	427
574	481	177
575	867	761
576	27	660
577	721	149
578	822	381
579	496	397
580	168	81
581	414	510
582	183	483
583	30	285
584	831	370
585	100	503
586	153	21
587	523	228
588	408	288
589	222	291
590	363	342
591	316	426
592	493	433
593	518	100
594	723	957
595	67	219
596	143	375
597	125	662
598	610	909
599	258	429
600	145	445
601	752	328
602	626	217
603	452	548
604	927	342
605	718	930
606	591	393
607	325	328
608	607	910
609	694	738
610	879	339
611	479	438
612	925	245
613	592	838
614	258	168
615	319	87
616	925	833
617	471	684
618	436	215
619	683	417
620	897	27
621	292	447
622	915	841
623	866	983
624	20	957
625	680	656
626	533	227
627	116	868
628	870	792
629	225	493
630	59	427
631	625	98
632	155	938
633	250	67
634	41	689
635	193	117
636	245	488
637	805	212
638	21	631
639	491	406
640	868	692
641	857	674
642	751	815
643	871	781
644	463	174
645	216	615
646	512	365
647	919	765
648	793	287
649	781	94
650	559	321
651	611	285
652	243	550
653	596	990
654	955	761
655	231	655
656	428	150
657	7	861
658	486	314
659	287	185
660	737	543
661	84	63
662	469	178
663	845	697
664	188	320
665	305	317
666	372	351
667	46	150
668	231	491
669	50	33
670	779	704
671	603	513
672	202	256
673	360	400
674	478	737
675	336	779
676	861	438
677	42	123
678	639	471
679	535	148
680	976	803
681	163	786
682	299	140
683	149	0
684	134	384
685	568	196
686	948	655
687	164	762
688	821	401
689	489	407
690	502	815
691	952	127
692	428	932
693	521	365
694	578	524
695	554	412
696	7	524
697	57	473
698	508	139
699	447	16
700	647	804
701	596	596
702	962	304
703	875	459
704	149	550
705	808	189
706	819	866
707	492	857
708	204	694
709	355	730
710	437	218
711	381	131
712	233	596
713	66	63
714	23	253
715	738	338
716	430	972
717	769	897
718	104	825
719	956	143
720	344	865
721	638	656
722	821	946
723	580	419
724	895	687
725	422	751
726	116	584
727	98	229
728	542	942
729	421	655
730	522	786
731	187	141
732	802	40
733	183	962
734	894	946
735	273	655
736	644	454
737	244	854
738	770	343
739	329	916
740	479	6
741	139	819
742	485	827
743	933	971
744	285	197
745	319	581
746	241	730
747	938	621
748	692	907
749	327	124
750	403	184
751	870	104
752	293	680
753	369	398
754	290	557
755	655	386
756	870	492
757	66	895
758	510	909
759	13	252
760	822	933
761	543	619
762	645	767
763	656	767
764	30	683
765	445	44
766	785	403
767	984	835
768	746	649
769	454	618
770	39	416
771	943	323
772	928	61
773	16	432
774	434	401
775	994	3
776	553	153
777	250	767
778	948	856
779	680	476
780	634	641
781	607	204
782	60	694
783	386	356
784	772	199
785	341	793
786	422	297
787	138	55
788	465	262
789	865	294
790	889	44
791	135	308
792	708	545
793	957	213
794	641	677
795	273	595
796	765	147
797	61	587
798	466	658
799	745	743
800	914	145
801	749	731
802	488	559
803	128	478
804	856	122
805	944	492
806	504	557
807	56	135
808	128	412
809	446	275
810	797	475
811	899	987
812	968	982
813	490	797
814	354	62
815	577	743
816	920	735
817	184	29
818	746	242
819	88	128
820	905	797
821	149	277
822	561	628
823	676	77
824	854	632
825	471	281
826	174	445
827	365	582
828	167	743
829	844	198
830	709	55
831	934	716
832	795	679
833	138	905
834	584	128
835	650	175
836	893	196
837	212	735
838	286	672
839	387	268
840	652	874
841	717	654
842	110	222
843	957	848
844	243	181
845	969	151
846	671	217
847	460	621
848	19	833
849	43	326
850	523	917
851	253	642
852	90	85
853	83	741
854	389	747
855	617	397
856	552	123
857	880	546
858	811	611
859	613	255
860	784	107
861	917	670
862	725	787
863	315	992
864	109	488
865	523	744
866	830	696
867	402	330
868	713	444
869	677	542
870	369	107
871	127	395
872	411	535
873	255	215
874	107	101
875	64	753
876	458	521
877	89	897
878	255	415
879	447	835
880	98	964
881	458	685
882	849	617
883	416	487
884	798	169
885	911	785
886	864	895
887	757	818
888	392	785
889	19	279
890	539	944
891	602	274
892	633	769
893	140	623
894	480	641
895	342	372
896	591	659
897	776	498
898	80	507
899	908	807
900	847	763
901	554	833
902	401	72
903	245	629
904	702	878
905	78	670
906	993	312
907	261	956
908	521	118
909	742	543
910	765	904
911	30	701
912	802	368
913	241	825
914	379	397
915	210	68
916	156	685
917	502	555
918	37	390
919	110	78
920	47	775
921	225	31
922	343	944
923	457	720
924	239	528
925	525	621
926	151	637
927	659	810
928	676	846
929	582	528
930	742	337
931	317	726
932	5	328
933	898	861
934	265	437
935	654	575
936	223	20
937	899	946
938	498	599
939	610	2
940	299	393
941	590	562
942	388	281
943	331	309
944	74	265
945	342	32
946	897	697
947	723	966
948	120	3
949	45	558
950	672	300
951	853	754
952	416	868
953	905	904
954	947	867
955	253	681
956	805	446
957	978	735
958	275	584
959	772	786
960	715	415
961	323	55
962	466	614
963	851	970
964	907	361
965	142	944
966	360	305
967	191	852
968	387	23
969	573	872
970	266	734
971	140	201
972	319	37
973	26	979
974	837	934
975	722	990
976	414	949
977	481	549
978	40	48
979	292	632
980	170	586
981	210	861
982	597	224
983	940	773
984	368	273
985	802	132
986	844	375
987	36	176
988	351	849
989	21	931
990	199	892
991	938	747
992	76	169
993	535	669
994	723	7
995	448	393
996	844	754
997	627	685
998	46	784
999	439	824
1000	83	465
1001	501	538
DEMAND_SECTION
1	0
2	2
3	5
4	1
5	9
6	4
7	6
8	7
9	9
10	1
11	1
12	9
13	4
14	1
15	8
16	7
17	1
18	4
19	6
20	9
21	1
22	3
23	3
24	3
25	7
26	7
27	7
28	3
29	8
30	6
31	4
32	9
33	6
34	9
35	7
36	1
37	1
38	5
39	5
40	8
41	6
42	2
43	4
44	5
45	1
46	8
47	2
48	7
49	4
50	5
51	6
52	1
53	3
54	9
55	5
56	6
57	1
58	3
59	9
60	3
61	4
62	4
63	6
64	5
65	2
66	3
67	5
68	9
69	5
70	9
71	1
72	6
73	9
74	7
75	7
76	3
77	5
78	3
79	5
80	7
81	5
82	4
83	3
84	4
85	7
86	8
87	3
88	4
89	8
90	8
91	5
92	7
93	7
94	8
95	5
96	3
97	6
98	9
99	8
100	7
101	2
102	6
103	5
104	9
105	1
106	4
107	6
108	1
109	8
110	8
111	1
112	6
113	6
114	3
115	9
116	6
117	3
118	2
119	3
120	2
121	3
122	3
123	5
124	6
125	9
126	5
127	6
128	1
129	5
130	2
131	7
132	3
133	3
134	1
135	3
136	3
137	7
138	6
139	1
140	6
141	8
142	8
143	3
144	4
145	6
146	9
147	3
148	7
149	5
150	6
151	1
152	9
153	5
154	9
155	6
156	5
157	2
158	5
159	1
160	1
161	2
162	1
163	9
164	3
165	1
166	2
167	8
168	7
169	4
170	4
171	1
172	5
173	5
174	9
175	5
176	4
177	7
178	1
179	4
180	2
181	9
182	8
183	7
184	4
185	2
186	3
187	6
188	3
189	9
190	2
191	2
192	1
193	7
194	8
195	4
196	6
197	9
198	6
199	5
200	7
201	4
202	2
203	6
204	3
205	3
206	8
207	5
208	2
209	2
210	5
211	2
212	5
213	4
214	6
215	4
216	5
217	3
218	9
219	3
220	1
221	3
222	2
223	6
224	3
225	6
226	6
227	5
228	9
229	3
230	5
231	4
232	2
233	6
234	9
235	9
236	3
237	8
238	5
239	4
240	1
241	6
242	2
243	2
244	9
245	7
246	4
247	3
248	7
249	3
250	3
251	9
252	9
253	7
254	9
255	4
256	5
257	7
258	5
259	2
260	2
261	9
262	5
263	8
264	9
265	6
266	2
267	7
268	7
269	1
270	2
271	6
272	5
273	6
274	5
275	3
276	4
277	1
278	8
279	1
280	1
281	6
282	1
283	7
284	6
285	4
286	4
287	1
288	7
289	9
290	1
291	4
292	8
293	2
294	6
295	8
296	5
297	9
298	7
299	7
300	2
301	2
302	8
303	9
304	9
305	8
306	5
307	5
308	1
309	9
310	3
311	7
312	5
313	6
314	2
315	4
316	5
317	5
318	5
319	8
320	8
321	9
322	3
323	5
324	5
325	7
326	6
327	9
328	4
329	1
330	6
331	2
332	8
333	6
334	6
335	1
336	2
337	9
338	5
339	4
340	6
341	1
342	7
343	2
344	9
345	3
346	2
347	1
348	3
349	6
350	9
351	7
352	1
353	6
354	8
355	5
356	1
357	7
358	3
359	2
360	5
361	2
362	1
363	9
364	7
365	3
366	6
367	8
368	4
369	7
370	9
371	8
372	2
373	9
374	4
375	9
376	7
377	4
378	6
379	3
380	4
381	9
382	6
383	7
384	4
385	2
386	2
387	3
388	1
389	8
390	9
391	5
392	8
393	9
394	1
395	3
396	7
397	2
398	1
399	8
400	9
401	6
402	2
403	7
404	5
405	3
406	6
407	9
408	9
409	4
410	8
411	5
412	1
413	9
414	9
415	1
416	8
417	1
418	4
419	8
420	6
421	4
422	3
423	6
424	6
425	2
426	4
427	3
428	8
429	1
430	2
431	3
432	3
433	3
434	6
435	5
436	7
437	5
438	8
439	2
440	6
441	7
442	5
443	2
444	5
445	7
446	3
447	7
448	3
449	9
450	3
451	4
452	7
453	4
454	6
455	6
456	2
457	9
458	5
459	3
460	9
461	4
462	2
463	4
464	9
465	2
466	1
467	5
468	7
469	4
470	7
471	4
472	9
473	9
474	3
475	7
476	1
477	2
478	4
479	4
480	6
481	1
482	6
483	5
484	3
485	7
486	6
487	3
488	7
489	7
490	1
491	2
492	7
493	5
494	9
495	5
496	1
497	1
498	5
499	2
500	1
501	7
502	9
503	8
504	2
505	8
506	7
507	2
508	3
509	3
510	1
511	9
512	1
513	4
514	4
515	1
516	3
517	2
518	9
519	6
520	9
521	6
522	6
523	2
524	3
525	6
526	4
527	2
528	7
529	4
530	4
531	5
532	7
533	7
534	2
535	3
536	6
537	1
538	4
539	7
540	1
541	1
542	8
543	8
544	8
545	6
546	8
547	1
548	9
549	9
550	1
551	1
552	3
553	6
554	1
555	6
556	3
557	3
558	7
559	4
560	2
561	4
562	8
563	4
564	5
565	3
566	7
567	7
568	9
569	2
570	5
571	2
572	8
573	4
574	8
575	7
576	5
577	3
578	8
579	4
580	8
581	4
582	6
583	8
584	7
585	9
586	7
587	2
588	7
589	2
590	8
591	1
592	7
593	8
594	1
595	8
596	6
597	3
598	3
599	5
600	4
601	7
602	5
603	4
604	6
605	7
606	8
607	4
608	9
609	5
610	1
611	7
612	6
613	9
614	7
615	1
616	2
617	4
618	7
619	4
620	5
621	2
622	2
623	1
624	1
625	5
626	3
627	8
628	3
629	8
630	3
631	3
632	2
633	8
634	7
635	3
636	8
637	3
638	3
639	2
640	5
641	2
642	8
643	5
644	7
645	5
646	5
647	4
648	5
649	5
650	4
651	1
652	4
653	6
654	5
655	1
656	6
657	5
658	4
659	6
660	2
661	8
662	6
663	5
664	2
665	3
666	3
667	9
668	4
669	4
670	3
671	7
672	4
673	5
674	1
675	1
676	9
677	7
678	5
679	9
680	9
681	3
682	8
683	6
684	3
685	7
686	8
687	8
688	6
689	5
690	3
691	7
692	7
693	6
694	1
695	3
696	2
697	1
698	5
699	4
700	1
701	5
702	3
703	9
704	1
705	6
706	4
707	8
708	5
709	8
710	8
711	5
712	5
713	8
714	4
715	9
716	4
717	9
718	5
719	4
720	4
721	5
722	5
723	9
724	9
725	7
726	5
727	9
728	3
729	6
730	5
731	7
732	5
733	4
734	9
735	8
736	7
737	8
738	1
739	2
740	7
741	2
742	9
743	4
744	6
745	2
746	8
747	8
748	2
749	3
750	2
751	6
752	9
753	8
754	9
755	8
756	5
757	3
758	1
759	8
760	5
761	6
762	6
763	4
764	7
765	6
766	9
767	9
768	6
769	7
770	4
771	6
772	1
773	6
774	4
775	3
776	8
777	9
778	4
779	9
780	6
781	8
782	7
783	9
784	4
785	9
786	2
787	2
788	8
789	4
790	7
791	7
792	6
793	4
794	5
795	5
796	6
797	9
798	1
799	7
800	9
801	7
802	3
803	4
804	6
805	1
806	3
807	6
808	7
809	4
810	3
811	9
812	1
813	6
814	4
815	8
816	9
817	1
818	4
819	2
820	2
821	3
822	6
823	2
824	8
825	8
826	7
827	3
828	1
829	5
830	2
831	6
832	3
833	8
834	8
835	5
836	1
837	8
838	1
839	9
840	4
841	7
842	1
843	6
844	1
845	3
846	4
847	6
848	2
849	4
850	4
851	3
852	7
853	9
854	5
855	5
856	8
857	5
858	6
859	1
860	4
861	6
862	2
863	9
864	7
865	6
866	5
867	4
868	8
869	9
870	4
871	6
872	2
873	1
874	2
875	8
876	6
877	8
878	2
879	1
880	3
881	3
882	3
883	6
884	6
885	5
886	8
887	3
888	1
889	2
890	7
891	8
892	3
893	9
894	1
895	2
896	3
897	5
898	2
899	6
900	5
901	1
902	5
903	9
904	6
905	8
906	3
907	9
908	7
909	1
910	2
911	7
912	7
913	5
914	7
915	8
916	5
917	1
918	5
919	4
920	6
921	2
922	3
923	2
924	1
925	8
926	6
927	9
928	2
929	8
930	1
931	3
932	4
933	4
934	3
935	5
936	4
937	1
938	6
939	4
940	4
941	9
942	1
943	5
944	6
945	6
946	2
947	1
948	9
949	3
950	6
951	4
952	5
953	6
954	8
955	6
956	5
957	1
958	6
959	1
960	2
961	6
962	4
963	8
964	7
965	6
966	1
967	1
968	9
969	3
970	5
971	7
972	8
973	3
974	5
975	7
976	6
977	7
978	7
979	9
980	8
981	6
982	2
983	8
984	4
985	2
986	8
987	7
988	6
989	4
990	5
991	4
992	5
993	6
994	5
995	9
996	2
997	4
998	6
999	4
1000	2
1001	8
DEPOT_SECTION
1
-1
EOF
