NAME : n1001-0037
COMMENT : "Generated by pyvrp_manuel (OVRP)"
TYPE : OVRP
DIMENSION : 1001
EDGE_WEIGHT_TYPE : EUC_2D
CAPACITY : 150
VEHICLES : 1000
OPEN_ROUTE : YES
NODE_COORD_SECTION
1	137	230
2	917	992
3	348	987
4	87	511
5	752	645
6	450	793
7	934	232
8	772	270
9	517	928
10	214	838
11	255	143
12	912	450
13	496	183
14	840	40
15	303	479
16	816	747
17	573	196
18	504	187
19	928	628
20	474	829
21	765	661
22	847	499
23	957	426
24	408	975
25	63	231
26	734	682
27	247	217
28	779	189
29	853	885
30	364	427
31	779	937
32	593	507
33	536	944
34	6	209
35	625	921
36	853	920
37	134	180
38	708	206
39	816	578
40	172	383
41	507	706
42	241	696
43	970	421
44	932	806
45	849	42
46	444	937
47	960	366
48	351	385
49	677	401
50	209	476
51	733	947
52	671	631
53	745	811
54	73	521
55	544	637
56	655	640
57	302	890
58	775	958
59	980	723
60	694	636
61	812	563
62	932	211
63	565	972
64	882	212
65	118	758
66	326	733
67	932	429
68	864	353
69	924	542
70	161	303
71	475	52
72	807	53
73	48	799
74	787	53
75	377	254
76	819	320
77	308	776
78	143	421
79	796	160
80	395	788
81	499	779
82	668	225
83	551	543
84	920	57
85	747	544
86	455	297
87	553	423
88	801	633
89	166	308
90	520	860
91	335	977
92	33	313
93	110	616
94	557	398
95	995	324
96	802	628
97	617	431
98	283	458
99	1	884
100	5	622
101	977	967
102	449	985
103	543	797
104	528	1
105	771	96
106	754	485
107	976	482
108	190	405
109	705	12
110	540	912
111	738	988
112	890	224
113	668	78
114	648	400
115	65	191
116	188	392
117	144	951
118	542	839
119	518	314
120	622	321
121	243	370
122	641	347
123	552	549
124	342	172
125	494	37
126	93	466
127	899	374
128	904	68
129	683	442
130	44	945
131	478	740
132	57	299
133	694	881
134	898	94
135	474	13
136	131	643
137	712	880
138	207	547
139	266	289
140	577	887
141	390	962
142	162	576
143	162	124
144	812	497
145	528	215
146	602	870
147	14	554
148	740	494
149	93	682
150	495	394
151	992	516
152	390	403
153	2	580
154	562	26
155	671	487
156	54	873
157	960	905
158	477	493
159	2	250
160	728	706
161	875	278
162	4	848
163	668	487
164	742	432
165	72	176
166	720	875
167	47	761
168	640	855
169	510	471
170	25	693
171	853	167
172	703	239
173	448	495
174	191	652
175	371	118
176	980	850
177	903	806
178	425	542
179	875	101
180	39	511
181	673	230
182	472	914
183	363	919
184	51	353
185	453	116
186	614	566
187	905	600
188	944	171
189	919	224
190	230	198
191	617	512
192	145	325
193	222	842
194	520	338
195	388	446
196	613	835
197	904	75
198	135	489
199	697	956
200	300	622
201	818	70
202	568	802
203	960	533
204	631	521
205	255	159
206	275	200
207	646	355
208	488	836
209	721	340
210	98	143
211	8	553
212	169	621
213	45	248
214	579	88
215	247	744
216	703	314
217	83	824
218	190	987
219	589	519
220	818	893
221	986	948
222	125	342
223	271	990
224	394	111
225	742	396
226	66	736
227	516	885
228	521	116
229	903	640
230	429	657
231	224	459
232	122	460
233	511	477
234	340	822
235	127	85
236	495	79
237	91	585
238	864	871
239	735	710
240	192	732
241	605	75
242	492	658
243	423	522
244	408	75
245	916	835
246	437	681
247	605	700
248	787	902
249	858	238
250	679	684
251	97	386
252	323	672
253	969	395
254	179	431
255	430	126
256	413	766
257	423	145
258	610	456
259	645	977
260	587	376
261	342	325
262	961	496
263	644	731
264	61	767
265	362	933
266	221	219
267	421	339
268	814	265
269	528	743
270	351	549
271	656	479
272	440	31
273	137	426
274	70	761
275	101	635
276	933	373
277	351	469
278	332	611
279	258	780
280	137	7
281	329	349
282	671	200
283	696	850
284	562	519
285	948	496
286	563	409
287	515	518
288	449	206
289	101	909
290	967	848
291	649	62
292	434	743
293	506	372
294	843	973
295	144	987
296	291	175
297	604	177
298	723	755
299	117	9
300	320	331
301	900	647
302	977	685
303	853	48
304	557	933
305	572	955
306	865	411
307	58	389
308	208	660
309	766	411
310	714	246
311	734	40
312	564	809
313	964	508
314	202	384
315	991	836
316	871	390
317	974	411
318	782	956
319	903	158
320	175	896
321	239	619
322	920	528
323	791	223
324	668	772
325	241	361
326	62	373
327	972	648
328	382	997
329	827	81
330	452	518
331	228	944
332	354	892
333	385	846
334	817	509
335	864	382
336	11	878
337	210	568
338	410	42
339	287	575
340	708	27
341	965	507
342	723	11
343	333	987
344	354	475
345	527	110
346	152	519
347	351	395
348	920	703
349	543	787
350	604	174
351	173	28
352	336	605
353	309	922
354	134	978
355	14	926
356	296	401
357	270	150
358	739	382
359	577	633
360	619	529
361	237	34
362	992	669
363	272	630
364	169	388
365	919	182
366	8	146
367	831	500
368	401	23
369	280	963
370	190	663
371	151	772
372	24	886
373	851	235
374	711	290
375	75	671
376	567	379
377	982	882
378	127	321
379	248	720
380	78	983
381	727	865
382	553	889
383	883	924
384	633	316
385	83	14
386	750	23
387	937	273
388	78	282
389	94	982
390	214	708
391	470	221
392	4	44
393	416	490
394	885	39
395	612	673
396	459	232
397	683	906
398	635	490
399	335	569
400	639	133
401	400	693
402	690	326
403	135	485
404	117	562
405	911	934
406	474	439
407	57	646
408	420	641
409	528	800
410	532	400
411	665	144
412	238	941
413	351	718
414	949	692
415	955	466
416	495	418
417	194	706
418	434	176
419	291	31
420	405	786
421	143	637
422	40	328
423	20	859
424	430	28
425	224	338
426	999	78
427	399	210
428	429	574
429	696	865
430	203	17
431	587	122
432	71	524
433	690	643
434	46	594
435	307	228
436	102	638
437	816	95
438	172	259
439	166	23
440	823	204
441	547	970
442	834	963
443	261	808
444	359	151
445	42	585
446	581	768
447	886	465
448	534	332
449	616	809
450	607	565
451	479	644
452	498	218
453	731	918
454	57	712
455	154	360
456	61	179
457	224	893
458	420	585
459	642	574
460	607	237
461	997	101
462	746	894
463	196	559
464	598	678
465	127	679
466	347	64
467	692	86
468	983	143
469	598	167
470	26	867
471	74	604
472	4	939
473	672	285
474	983	500
475	547	677
476	543	613
477	413	838
478	568	433
479	199	662
480	831	212
481	807	840
482	211	102
483	27	266
484	901	286
485	928	449
486	165	381
487	503	929
488	329	997
489	963	500
490	732	664
491	219	841
492	625	171
493	256	899
494	184	489
495	99	13
496	944	148
497	219	305
498	829	718
499	781	862
500	989	509
501	121	875
502	749	613
503	914	232
504	154	644
505	313	375
506	474	180
507	415	603
508	232	980
509	432	670
510	947	457
511	913	545
512	244	219
513	532	926
514	731	498
515	280	70
516	513	855
517	773	328
518	35	296
519	258	688
520	98	871
521	760	687
522	783	898
523	964	900
524	979	528
525	577	923
526	804	992
527	285	73
528	382	749
529	91	308
530	862	739
531	183	392
532	110	485
533	997	184
534	382	36
535	266	170
536	995	815
537	255	71
538	612	988
539	497	45
540	39	97
541	2	491
542	185	94
543	897	143
544	616	894
545	356	98
546	230	683
547	350	883
548	330	403
549	767	699
550	587	399
551	309	126
552	879	815
553	335	250
554	325	676
555	23	428
556	940	842
557	455	190
558	698	169
559	521	654
560	824	661
561	514	672
562	535	313
563	853	894
564	558	330
565	964	34
566	8	399
567	596	618
568	832	750
569	937	430
570	792	721
571	828	630
572	501	371
573	676	258
574	322	249
575	726	529
576	921	571
577	739	761
578	535	633
579	39	352
580	566	704
581	389	15
582	895	540
583	71	591
584	269	228
585	403	336
586	688	619
587	84	707
588	849	934
589	886	89
590	238	879
591	655	745
592	610	38
593	524	897
594	825	431
595	542	884
596	460	655
597	785	194
598	765	945
599	895	766
600	803	176
601	881	190
602	411	653
603	951	270
604	143	393
605	319	28
606	593	362
607	927	593
608	156	594
609	880	646
610	304	762
611	993	286
612	772	541
613	538	468
614	180	875
615	779	255
616	807	629
617	271	659
618	777	540
619	320	614
620	523	793
621	96	313
622	42	1
623	259	469
624	388	351
625	392	170
626	146	776
627	613	842
628	170	94
629	77	627
630	823	155
631	499	137
632	339	696
633	134	690
634	378	54
635	667	380
636	462	946
637	485	744
638	425	590
639	0	524
640	834	848
641	491	703
642	795	351
643	83	215
644	948	969
645	791	719
646	331	488
647	412	861
648	743	547
649	26	331
650	65	174
651	53	368
652	497	571
653	904	474
654	651	174
655	474	286
656	590	203
657	635	523
658	217	40
659	900	237
660	616	924
661	748	595
662	70	846
663	816	866
664	922	650
665	356	743
666	768	827
667	32	325
668	680	49
669	575	647
670	70	517
671	262	404
672	332	161
673	21	487
674	606	480
675	880	424
676	436	509
677	58	46
678	756	764
679	192	477
680	932	461
681	622	888
682	676	49
683	446	189
684	132	901
685	790	231
686	178	688
687	265	193
688	847	193
689	297	587
690	18	976
691	386	352
692	766	492
693	478	241
694	136	960
695	638	204
696	550	625
697	478	472
698	865	510
699	933	617
700	983	942
701	839	451
702	697	209
703	563	882
704	27	114
705	732	99
706	735	553
707	938	903
708	459	179
709	190	164
710	110	727
711	745	212
712	824	795
713	220	527
714	585	205
715	434	849
716	978	634
717	621	778
718	407	64
719	6	843
720	27	630
721	705	678
722	664	441
723	955	957
724	483	845
725	849	936
726	564	317
727	319	921
728	339	284
729	447	932
730	248	847
731	526	843
732	679	140
733	879	318
734	66	549
735	320	800
736	237	922
737	140	910
738	460	760
739	127	6
740	285	325
741	393	526
742	480	698
743	689	688
744	883	565
745	293	793
746	675	209
747	819	343
748	315	533
749	873	121
750	544	624
751	885	721
752	421	166
753	674	891
754	676	376
755	115	119
756	505	700
757	551	819
758	495	885
759	248	138
760	923	244
761	952	48
762	907	406
763	538	85
764	762	887
765	882	74
766	902	627
767	180	921
768	795	697
769	534	726
770	96	204
771	237	96
772	698	656
773	642	403
774	184	919
775	769	483
776	50	612
777	918	910
778	25	406
779	176	267
780	973	769
781	993	450
782	501	578
783	44	704
784	430	633
785	18	84
786	363	689
787	750	490
788	979	892
789	394	501
790	184	926
791	624	416
792	745	995
793	624	68
794	971	994
795	204	679
796	233	117
797	92	807
798	805	962
799	462	54
800	425	667
801	837	19
802	515	557
803	241	743
804	179	106
805	314	338
806	933	164
807	239	470
808	542	831
809	397	515
810	588	880
811	426	63
812	866	286
813	666	62
814	290	881
815	153	44
816	332	246
817	129	100
818	679	738
819	433	85
820	689	357
821	40	917
822	628	863
823	71	28
824	749	322
825	371	649
826	693	280
827	537	212
828	557	913
829	579	19
830	501	707
831	910	425
832	243	689
833	467	271
834	860	971
835	142	387
836	621	89
837	751	403
838	570	219
839	20	549
840	963	438
841	164	560
842	14	162
843	487	268
844	845	882
845	0	203
846	19	813
847	754	285
848	152	57
849	736	297
850	167	378
851	885	525
852	627	895
853	461	148
854	562	448
855	293	147
856	513	343
857	151	418
858	795	896
859	771	940
860	56	524
861	109	369
862	734	892
863	713	962
864	71	701
865	184	346
866	350	189
867	537	116
868	395	801
869	22	463
870	324	888
871	520	14
872	483	130
873	854	143
874	74	810
875	803	748
876	791	214
877	71	414
878	303	136
879	260	793
880	949	436
881	84	660
882	823	819
883	72	101
884	746	67
885	494	271
886	978	368
887	14	240
888	848	776
889	676	618
890	942	336
891	85	737
892	49	427
893	829	560
894	347	341
895	1000	588
896	814	519
897	633	389
898	832	57
899	276	774
900	111	930
901	204	71
902	12	699
903	994	444
904	929	121
905	638	451
906	468	503
907	181	306
908	797	299
909	503	197
910	808	325
911	512	622
912	290	680
913	439	579
914	338	630
915	571	836
916	777	31
917	81	450
918	575	23
919	156	657
920	148	527
921	79	502
922	792	661
923	921	217
924	128	988
925	622	267
926	26	285
927	509	78
928	262	279
929	530	974
930	28	907
931	20	407
932	643	209
933	44	834
934	153	790
935	809	745
936	116	182
937	788	55
938	652	405
939	799	671
940	440	937
941	910	533
942	70	344
943	860	543
944	157	980
945	90	891
946	726	454
947	463	207
948	617	429
949	369	147
950	555	460
951	612	0
952	615	229
953	499	473
954	786	122
955	771	944
956	568	217
957	607	780
958	723	200
959	388	536
960	427	540
961	995	560
962	454	274
963	334	972
964	7	128
965	421	318
966	131	994
967	506	61
968	669	332
969	892	96
970	688	402
971	465	392
972	544	796
973	170	354
974	210	874
975	634	546
976	241	266
977	106	391
978	651	122
979	410	616
980	864	233
981	664	20
982	876	983
983	591	186
984	876	199
985	269	786
986	317	22
987	247	38
988	290	607
989	99	458
990	499	630
991	702	703
992	82	85
993	922	210
994	87	645
995	518	822
996	605	420
997	886	437
998	765	167
999	690	798
1000	207	34
1001	81	141
DEMAND_SECTION
1	0
2	5
3	7
4	9
5	4
6	5
7	9
8	1
9	2
10	6
11	4
12	4
13	6
14	9
15	6
16	3
17	3
18	7
19	3
20	6
21	9
22	3
23	2
24	4
25	9
26	3
27	7
28	7
29	4
30	6
31	3
32	7
33	7
34	7
35	3
36	8
37	9
38	3
39	4
40	9
41	1
42	4
43	7
44	2
45	3
46	2
47	5
48	2
49	8
50	6
51	1
52	4
53	7
54	4
55	5
56	4
57	5
58	4
59	4
60	7
61	5
62	4
63	6
64	4
65	1
66	9
67	3
68	4
69	1
70	7
71	7
72	4
73	3
74	5
75	5
76	3
77	9
78	3
79	3
80	4
81	9
82	3
83	1
84	4
85	6
86	7
87	3
88	9
89	8
90	3
91	4
92	2
93	3
94	9
95	1
96	8
97	1
98	2
99	5
100	7
101	5
102	5
103	9
104	7
105	1
106	1
107	1
108	5
109	1
110	4
111	9
112	6
113	5
114	5
115	2
116	4
117	8
118	1
119	2
120	4
121	4
122	6
123	1
124	1
125	6
126	3
127	7
128	8
129	7
130	6
131	8
132	3
133	5
134	4
135	3
136	5
137	9
138	5
139	1
140	4
141	3
142	5
143	6
144	4
145	9
146	4
147	1
148	9
149	6
150	8
151	8
152	8
153	5
154	4
155	5
156	2
157	3
158	4
159	9
160	9
161	9
162	9
163	1
164	2
165	3
166	9
167	1
168	3
169	4
170	6
171	7
172	3
173	7
174	2
175	7
176	5
177	9
178	4
179	4
180	2
181	7
182	6
183	5
184	9
185	8
186	9
187	6
188	5
189	5
190	9
191	1
192	9
193	5
194	3
195	2
196	1
197	6
198	3
199	1
200	5
201	2
202	5
203	3
204	4
205	6
206	1
207	9
208	9
209	1
210	5
211	7
212	6
213	8
214	1
215	5
216	7
217	1
218	6
219	4
220	4
221	4
222	5
223	9
224	7
225	1
226	5
227	1
228	6
229	1
230	1
231	8
232	8
233	8
234	7
235	6
236	3
237	3
238	4
239	8
240	3
241	1
242	5
243	3
244	9
245	6
246	1
247	2
248	1
249	8
250	9
251	5
252	1
253	5
254	3
255	9
256	9
257	4
258	9
259	2
260	7
261	8
262	7
263	8
264	2
265	9
266	2
267	1
268	9
269	5
270	3
271	3
272	9
273	9
274	5
275	5
276	4
277	7
278	7
279	9
280	3
281	6
282	5
283	8
284	6
285	6
286	6
287	2
288	3
289	4
290	6
291	7
292	5
293	5
294	8
295	9
296	8
297	2
298	2
299	2
300	9
301	1
302	5
303	1
304	4
305	3
306	2
307	4
308	3
309	4
310	5
311	5
312	9
313	4
314	2
315	4
316	1
317	9
318	1
319	1
320	2
321	3
322	3
323	2
324	3
325	4
326	6
327	6
328	3
329	1
330	9
331	1
332	5
333	3
334	4
335	5
336	4
337	7
338	5
339	7
340	8
341	2
342	8
343	3
344	8
345	7
346	4
347	3
348	7
349	3
350	2
351	7
352	9
353	7
354	5
355	4
356	3
357	6
358	8
359	3
360	3
361	4
362	9
363	1
364	8
365	5
366	1
367	2
368	9
369	2
370	1
371	6
372	2
373	9
374	8
375	3
376	3
377	6
378	6
379	1
380	7
381	7
382	9
383	2
384	1
385	3
386	1
387	8
388	6
389	4
390	5
391	4
392	5
393	1
394	2
395	2
396	5
397	7
398	4
399	9
400	8
401	9
402	6
403	8
404	2
405	3
406	8
407	8
408	4
409	3
410	3
411	7
412	9
413	4
414	8
415	1
416	3
417	1
418	1
419	6
420	8
421	4
422	3
423	5
424	9
425	2
426	9
427	7
428	6
429	4
430	6
431	7
432	3
433	9
434	6
435	6
436	4
437	5
438	5
439	3
440	6
441	7
442	4
443	1
444	5
445	9
446	3
447	8
448	8
449	5
450	8
451	9
452	6
453	8
454	4
455	7
456	7
457	1
458	2
459	8
460	7
461	7
462	9
463	4
464	2
465	3
466	1
467	6
468	4
469	5
470	3
471	4
472	6
473	8
474	6
475	9
476	9
477	6
478	6
479	5
480	8
481	9
482	1
483	1
484	7
485	4
486	7
487	5
488	5
489	4
490	5
491	1
492	5
493	8
494	1
495	5
496	1
497	5
498	4
499	6
500	7
501	1
502	8
503	1
504	1
505	1
506	2
507	1
508	9
509	4
510	7
511	5
512	1
513	4
514	1
515	2
516	7
517	2
518	8
519	9
520	8
521	1
522	6
523	6
524	7
525	9
526	9
527	6
528	4
529	8
530	9
531	5
532	7
533	7
534	2
535	5
536	6
537	7
538	7
539	1
540	9
541	8
542	8
543	8
544	8
545	5
546	3
547	2
548	3
549	2
550	2
551	7
552	3
553	2
554	5
555	9
556	6
557	8
558	3
559	3
560	2
561	2
562	4
563	9
564	2
565	4
566	9
567	4
568	9
569	8
570	5
571	3
572	6
573	4
574	3
575	3
576	5
577	9
578	2
579	3
580	9
581	2
582	6
583	1
584	8
585	9
586	7
587	5
588	4
589	6
590	6
591	1
592	7
593	5
594	7
595	1
596	9
597	6
598	8
599	5
600	2
601	6
602	7
603	6
604	1
605	7
606	3
607	6
608	3
609	3
610	9
611	8
612	8
613	8
614	5
615	2
616	3
617	8
618	4
619	4
620	4
621	9
622	2
623	5
624	5
625	7
626	6
627	5
628	3
629	8
630	1
631	1
632	7
633	2
634	1
635	3
636	9
637	5
638	7
639	3
640	6
641	2
642	6
643	1
644	6
645	6
646	2
647	9
648	6
649	2
650	5
651	8
652	7
653	1
654	4
655	2
656	9
657	4
658	1
659	2
660	5
661	2
662	7
663	3
664	5
665	1
666	1
667	3
668	6
669	2
670	1
671	9
672	9
673	4
674	1
675	3
676	3
677	9
678	4
679	7
680	4
681	5
682	3
683	9
684	1
685	1
686	3
687	9
688	4
689	4
690	6
691	6
692	2
693	2
694	2
695	6
696	8
697	1
698	6
699	5
700	4
701	7
702	1
703	9
704	7
705	3
706	9
707	6
708	3
709	7
710	2
711	5
712	9
713	6
714	2
715	7
716	5
717	5
718	7
719	6
720	3
721	5
722	2
723	4
724	6
725	8
726	7
727	6
728	8
729	8
730	4
731	3
732	9
733	5
734	7
735	6
736	9
737	3
738	6
739	8
740	4
741	9
742	9
743	1
744	3
745	9
746	8
747	9
748	4
749	4
750	2
751	3
752	7
753	5
754	3
755	7
756	4
757	7
758	6
759	5
760	8
761	7
762	9
763	3
764	7
765	2
766	7
767	3
768	7
769	3
770	5
771	3
772	4
773	4
774	4
775	8
776	8
777	5
778	4
779	5
780	8
781	5
782	1
783	9
784	1
785	4
786	1
787	7
788	6
789	1
790	1
791	3
792	2
793	9
794	8
795	7
796	3
797	9
798	8
799	1
800	6
801	4
802	1
803	1
804	5
805	6
806	2
807	9
808	1
809	3
810	2
811	6
812	5
813	1
814	1
815	1
816	1
817	9
818	6
819	2
820	1
821	3
822	3
823	6
824	6
825	1
826	5
827	1
828	8
829	3
830	1
831	9
832	5
833	7
834	7
835	3
836	4
837	3
838	7
839	2
840	7
841	6
842	9
843	5
844	9
845	4
846	4
847	1
848	7
849	6
850	3
851	7
852	6
853	6
854	1
855	5
856	3
857	8
858	1
859	1
860	5
861	1
862	1
863	1
864	5
865	6
866	2
867	5
868	6
869	3
870	8
871	6
872	1
873	9
874	3
875	1
876	8
877	7
878	8
879	7
880	3
881	7
882	5
883	3
884	6
885	6
886	6
887	1
888	7
889	4
890	9
891	6
892	8
893	3
894	8
895	7
896	2
897	1
898	4
899	4
900	6
901	4
902	3
903	1
904	6
905	4
906	5
907	5
908	2
909	8
910	1
911	3
912	1
913	2
914	3
915	4
916	7
917	1
918	7
919	8
920	8
921	8
922	1
923	6
924	2
925	7
926	2
927	4
928	7
929	5
930	4
931	3
932	8
933	7
934	4
935	1
936	2
937	6
938	1
939	2
940	4
941	8
942	6
943	1
944	4
945	9
946	9
947	4
948	5
949	3
950	6
951	5
952	9
953	2
954	1
955	2
956	8
957	5
958	1
959	2
960	3
961	1
962	4
963	7
964	2
965	5
966	5
967	4
968	8
969	7
970	1
971	5
972	3
973	5
974	7
975	2
976	6
977	7
978	4
979	3
980	9
981	6
982	2
983	6
984	4
985	7
986	8
987	8
988	8
989	7
990	3
991	7
992	4
993	3
994	2
995	3
996	2
997	3
998	2
999	7
1000	4
1001	5
DEPOT_SECTION
1
-1
EOF
