NAME : n1001-0024
COMMENT : "Generated by pyvrp_manuel (OVRP)"
TYPE : OVRP
DIMENSION : 1001
EDGE_WEIGHT_TYPE : EUC_2D
CAPACITY : 150
VEHICLES : 1000
OPEN_ROUTE : YES
NODE_COORD_SECTION
1	555	22
2	363	672
3	33	226
4	773	546
5	955	301
6	882	111
7	608	254
8	957	258
9	238	967
10	499	528
11	656	117
12	682	683
13	852	872
14	80	608
15	753	727
16	258	980
17	331	115
18	280	852
19	677	902
20	821	233
21	453	758
22	744	577
23	669	350
24	321	896
25	323	445
26	789	752
27	318	372
28	788	46
29	879	375
30	916	583
31	293	512
32	789	22
33	768	292
34	808	41
35	98	992
36	966	235
37	849	484
38	798	137
39	638	764
40	527	413
41	790	41
42	34	689
43	538	884
44	347	186
45	660	348
46	829	254
47	287	448
48	194	300
49	523	316
50	704	355
51	295	252
52	246	137
53	295	755
54	621	176
55	623	804
56	391	772
57	150	245
58	619	896
59	230	104
60	239	665
61	763	766
62	362	120
63	935	871
64	196	852
65	615	144
66	438	936
67	62	388
68	136	387
69	986	557
70	567	168
71	487	841
72	325	20
73	695	281
74	870	503
75	467	982
76	595	37
77	932	514
78	0	997
79	35	61
80	200	685
81	141	577
82	7	565
83	346	888
84	61	162
85	8	703
86	56	492
87	518	182
88	182	341
89	898	973
90	313	133
91	593	945
92	142	201
93	77	662
94	243	419
95	362	476
96	831	958
97	205	211
98	765	690
99	196	516
100	376	643
101	726	396
102	185	351
103	305	85
104	802	808
105	126	607
106	816	551
107	686	763
108	305	699
109	311	674
110	590	540
111	889	336
112	127	246
113	716	434
114	685	199
115	337	1000
116	494	892
117	943	682
118	754	310
119	245	90
120	233	904
121	705	256
122	91	872
123	864	842
124	528	956
125	680	374
126	940	114
127	633	317
128	996	932
129	548	855
130	1	779
131	664	716
132	415	747
133	735	314
134	893	870
135	764	550
136	9	577
137	916	740
138	799	816
139	71	716
140	970	584
141	445	808
142	195	541
143	39	482
144	403	709
145	768	171
146	243	59
147	884	847
148	240	778
149	922	863
150	626	333
151	656	141
152	551	711
153	874	42
154	704	241
155	25	67
156	517	808
157	90	552
158	952	860
159	662	250
160	958	468
161	858	324
162	491	984
163	603	853
164	491	453
165	566	520
166	456	321
167	158	89
168	169	22
169	127	319
170	654	417
171	699	184
172	317	496
173	909	853
174	294	56
175	626	125
176	983	7
177	770	380
178	48	495
179	297	652
180	34	235
181	746	34
182	643	471
183	962	726
184	416	390
185	353	28
186	648	731
187	66	81
188	733	659
189	922	375
190	660	832
191	578	689
192	158	339
193	887	846
194	183	171
195	694	580
196	898	373
197	219	52
198	972	744
199	699	182
200	4	151
201	412	810
202	38	957
203	775	329
204	841	52
205	223	456
206	896	744
207	591	70
208	960	368
209	910	322
210	943	378
211	778	349
212	385	217
213	897	856
214	544	951
215	678	71
216	264	495
217	171	934
218	435	539
219	760	295
220	469	372
221	235	711
222	438	959
223	188	730
224	343	92
225	14	911
226	836	560
227	616	65
228	370	491
229	220	512
230	968	522
231	220	197
232	776	891
233	344	398
234	991	893
235	13	1
236	148	832
237	183	686
238	148	519
239	599	913
240	197	953
241	736	784
242	561	835
243	637	601
244	119	568
245	923	882
246	681	500
247	319	671
248	374	189
249	424	286
250	30	941
251	76	810
252	548	219
253	715	989
254	794	888
255	703	419
256	57	620
257	670	133
258	905	107
259	460	929
260	680	708
261	827	443
262	185	43
263	623	29
264	799	87
265	359	157
266	740	721
267	406	539
268	278	530
269	602	943
270	253	257
271	312	454
272	323	949
273	677	582
274	805	919
275	95	582
276	738	888
277	86	757
278	854	123
279	675	924
280	866	641
281	260	25
282	970	326
283	875	514
284	147	128
285	191	839
286	221	634
287	220	417
288	257	634
289	15	858
290	924	934
291	551	109
292	291	16
293	248	783
294	178	253
295	618	979
296	948	816
297	167	536
298	739	488
299	131	557
300	934	520
301	48	820
302	649	564
303	443	929
304	414	727
305	710	933
306	876	643
307	565	137
308	316	530
309	938	337
310	915	818
311	317	911
312	846	965
313	160	136
314	149	925
315	261	413
316	369	351
317	912	114
318	585	824
319	906	636
320	847	109
321	660	413
322	488	947
323	573	28
324	546	682
325	316	146
326	184	756
327	293	655
328	913	501
329	247	223
330	557	666
331	777	166
332	199	961
333	115	44
334	955	465
335	445	101
336	259	673
337	290	6
338	749	299
339	529	389
340	567	428
341	911	463
342	267	543
343	324	197
344	439	515
345	155	263
346	695	976
347	603	214
348	793	416
349	460	673
350	22	624
351	20	934
352	272	94
353	159	82
354	735	795
355	330	423
356	480	534
357	191	537
358	443	664
359	712	871
360	936	529
361	590	148
362	12	156
363	943	824
364	853	238
365	945	193
366	396	906
367	390	760
368	197	597
369	514	985
370	17	878
371	272	160
372	320	247
373	836	409
374	937	667
375	505	350
376	657	281
377	67	222
378	997	57
379	466	317
380	262	118
381	505	894
382	341	295
383	865	508
384	23	724
385	934	667
386	817	472
387	186	211
388	128	543
389	645	710
390	131	272
391	217	638
392	800	94
393	975	996
394	780	290
395	995	330
396	63	963
397	89	523
398	716	919
399	172	16
400	817	821
401	273	992
402	379	740
403	35	475
404	538	432
405	297	75
406	538	556
407	547	433
408	240	698
409	956	126
410	522	28
411	803	287
412	944	409
413	317	338
414	916	705
415	830	703
416	284	546
417	41	104
418	776	41
419	284	905
420	768	827
421	107	246
422	444	776
423	535	902
424	632	675
425	320	881
426	304	101
427	793	644
428	32	346
429	387	602
430	86	878
431	382	20
432	926	595
433	976	380
434	519	412
435	687	433
436	760	723
437	454	907
438	98	474
439	119	620
440	286	973
441	905	584
442	242	188
443	922	262
444	959	101
445	812	951
446	149	444
447	620	195
448	450	223
449	795	729
450	61	995
451	606	182
452	901	740
453	785	456
454	761	996
455	15	362
456	151	641
457	446	272
458	254	237
459	860	322
460	207	145
461	831	139
462	488	926
463	66	745
464	729	178
465	586	416
466	76	431
467	237	913
468	804	974
469	568	884
470	360	606
471	331	520
472	75	754
473	754	873
474	340	984
475	301	40
476	917	341
477	953	314
478	297	91
479	868	901
480	487	21
481	219	315
482	104	669
483	600	303
484	593	889
485	916	460
486	737	568
487	767	294
488	981	169
489	476	25
490	983	387
491	859	497
492	507	474
493	381	824
494	682	477
495	467	898
496	42	945
497	453	688
498	37	232
499	270	142
500	969	137
501	210	704
502	89	818
503	616	508
504	420	69
505	570	751
506	629	371
507	829	567
508	844	460
509	563	747
510	526	778
511	909	304
512	828	904
513	55	891
514	129	862
515	98	786
516	1	43
517	526	677
518	335	713
519	459	747
520	274	181
521	357	732
522	46	535
523	675	753
524	398	317
525	926	865
526	804	142
527	870	473
528	621	303
529	124	57
530	282	368
531	800	796
532	891	703
533	890	499
534	149	3
535	930	97
536	100	163
537	737	485
538	541	191
539	35	908
540	900	702
541	836	744
542	836	503
543	440	240
544	265	846
545	577	846
546	842	299
547	627	490
548	476	209
549	14	366
550	115	559
551	881	503
552	969	769
553	148	501
554	756	862
555	824	56
556	925	121
557	30	295
558	848	918
559	561	713
560	33	372
561	768	80
562	991	866
563	579	867
564	762	404
565	90	220
566	843	334
567	60	151
568	730	344
569	883	955
570	316	685
571	816	405
572	485	492
573	779	545
574	198	866
575	474	644
576	126	788
577	323	224
578	102	289
579	717	777
580	658	462
581	817	423
582	664	775
583	406	30
584	654	657
585	478	187
586	903	400
587	366	130
588	254	571
589	616	804
590	52	636
591	796	611
592	460	279
593	890	508
594	275	153
595	38	547
596	83	994
597	39	16
598	631	44
599	388	970
600	952	651
601	403	584
602	870	713
603	698	812
604	619	670
605	182	375
606	788	444
607	982	479
608	112	803
609	838	932
610	446	912
611	742	150
612	892	297
613	999	709
614	705	411
615	242	263
616	775	346
617	403	912
618	756	566
619	139	497
620	757	360
621	590	392
622	661	707
623	459	672
624	149	723
625	197	64
626	912	149
627	207	913
628	535	13
629	390	188
630	838	810
631	575	502
632	468	191
633	984	878
634	80	566
635	17	494
636	94	739
637	138	606
638	313	944
639	944	315
640	988	924
641	217	71
642	682	450
643	544	532
644	486	4
645	343	619
646	44	992
647	159	384
648	685	819
649	835	729
650	239	790
651	47	555
652	335	135
653	359	756
654	301	917
655	204	893
656	705	333
657	623	220
658	993	240
659	932	294
660	6	349
661	259	413
662	656	253
663	886	265
664	558	715
665	810	884
666	844	444
667	144	371
668	824	368
669	576	757
670	117	29
671	325	257
672	124	87
673	18	898
674	796	804
675	114	831
676	370	219
677	738	473
678	334	891
679	282	329
680	407	904
681	258	80
682	305	197
683	880	204
684	92	949
685	365	243
686	160	969
687	119	500
688	940	264
689	985	848
690	928	372
691	746	326
692	542	278
693	92	819
694	830	65
695	281	712
696	962	441
697	890	165
698	92	234
699	408	962
700	622	382
701	720	259
702	111	399
703	497	996
704	384	280
705	424	608
706	88	893
707	738	636
708	520	960
709	146	209
710	750	116
711	170	686
712	295	452
713	466	408
714	879	501
715	424	758
716	588	316
717	675	522
718	111	43
719	418	777
720	699	448
721	204	87
722	607	550
723	373	481
724	666	112
725	877	560
726	743	621
727	644	863
728	640	409
729	339	349
730	954	333
731	83	863
732	267	837
733	284	962
734	163	449
735	142	453
736	951	86
737	144	239
738	871	157
739	176	876
740	975	956
741	345	352
742	450	27
743	160	149
744	666	207
745	736	705
746	165	935
747	305	240
748	206	920
749	124	135
750	253	409
751	128	604
752	563	746
753	749	297
754	264	461
755	47	612
756	186	659
757	581	894
758	648	546
759	811	574
760	889	874
761	552	805
762	591	936
763	223	60
764	979	65
765	135	380
766	782	284
767	160	606
768	334	63
769	635	728
770	349	721
771	488	434
772	550	203
773	656	504
774	9	315
775	758	734
776	911	929
777	7	929
778	354	426
779	346	181
780	572	995
781	466	873
782	779	219
783	839	538
784	809	696
785	459	587
786	552	533
787	512	848
788	555	22
789	545	490
790	80	391
791	504	89
792	839	879
793	742	301
794	332	603
795	99	336
796	735	957
797	383	232
798	145	921
799	833	657
800	758	481
801	473	762
802	479	349
803	296	323
804	782	761
805	977	174
806	483	295
807	894	84
808	623	218
809	128	909
810	198	774
811	563	614
812	735	647
813	918	683
814	168	538
815	610	916
816	75	71
817	103	84
818	403	411
819	267	600
820	266	86
821	276	285
822	578	183
823	692	864
824	122	535
825	100	572
826	208	875
827	727	283
828	131	680
829	450	56
830	65	758
831	686	106
832	760	137
833	662	486
834	783	714
835	218	702
836	246	540
837	726	888
838	686	552
839	834	602
840	440	504
841	63	402
842	482	136
843	215	546
844	892	699
845	335	95
846	596	617
847	244	825
848	242	536
849	211	533
850	921	670
851	897	698
852	971	988
853	250	276
854	783	734
855	823	217
856	769	991
857	186	318
858	489	882
859	905	339
860	49	763
861	799	999
862	327	865
863	143	178
864	650	203
865	826	242
866	28	50
867	31	87
868	732	691
869	384	754
870	607	367
871	918	221
872	650	388
873	436	993
874	26	61
875	934	872
876	475	388
877	46	19
878	946	174
879	447	338
880	870	630
881	193	381
882	850	716
883	501	808
884	794	206
885	201	71
886	50	765
887	483	101
888	274	721
889	234	298
890	711	367
891	520	845
892	328	401
893	643	359
894	982	94
895	181	223
896	423	880
897	115	518
898	934	211
899	67	30
900	491	272
901	810	846
902	864	221
903	830	423
904	959	282
905	295	510
906	645	562
907	663	544
908	356	555
909	535	651
910	1	214
911	185	283
912	566	602
913	595	952
914	399	819
915	714	958
916	453	865
917	408	792
918	326	670
919	995	597
920	823	598
921	498	833
922	6	919
923	296	148
924	119	630
925	54	52
926	495	981
927	839	126
928	307	136
929	955	299
930	132	780
931	487	482
932	727	867
933	42	14
934	44	631
935	986	26
936	492	855
937	280	993
938	254	262
939	595	46
940	522	199
941	705	59
942	431	609
943	771	346
944	45	145
945	28	846
946	937	970
947	553	230
948	188	707
949	568	243
950	210	704
951	338	703
952	387	733
953	366	353
954	636	291
955	27	71
956	288	227
957	955	870
958	346	274
959	613	545
960	587	60
961	604	675
962	425	470
963	473	684
964	778	871
965	36	660
966	925	560
967	719	480
968	797	787
969	157	534
970	44	310
971	801	508
972	526	296
973	914	772
974	542	698
975	743	789
976	705	370
977	356	160
978	106	63
979	632	22
980	572	161
981	780	829
982	507	199
983	668	180
984	848	432
985	310	141
986	897	184
987	458	379
988	512	312
989	64	137
990	709	880
991	768	494
992	378	564
993	841	858
994	741	200
995	998	892
996	983	518
997	895	232
998	687	350
999	779	318
1000	197	857
1001	517	976
DEMAND_SECTION
1	0
2	2
3	2
4	6
5	4
6	9
7	3
8	4
9	2
10	7
11	3
12	8
13	5
14	2
15	2
16	9
17	3
18	3
19	5
20	2
21	5
22	5
23	8
24	8
25	4
26	2
27	2
28	4
29	3
30	1
31	9
32	2
33	8
34	8
35	6
36	5
37	1
38	3
39	3
40	4
41	9
42	5
43	6
44	2
45	4
46	1
47	8
48	5
49	1
50	4
51	2
52	2
53	1
54	6
55	4
56	4
57	7
58	9
59	5
60	6
61	1
62	2
63	4
64	4
65	1
66	5
67	7
68	2
69	3
70	1
71	3
72	3
73	2
74	8
75	2
76	5
77	5
78	1
79	1
80	1
81	1
82	8
83	7
84	2
85	1
86	6
87	7
88	4
89	7
90	1
91	3
92	4
93	7
94	7
95	4
96	3
97	8
98	7
99	5
100	2
101	5
102	2
103	3
104	9
105	2
106	7
107	1
108	4
109	3
110	3
111	3
112	9
113	1
114	8
115	5
116	3
117	3
118	1
119	1
120	5
121	5
122	3
123	1
124	2
125	5
126	1
127	9
128	1
129	3
130	1
131	6
132	6
133	4
134	4
135	7
136	8
137	1
138	1
139	5
140	5
141	1
142	9
143	9
144	2
145	7
146	5
147	8
148	6
149	3
150	8
151	6
152	9
153	6
154	7
155	4
156	8
157	8
158	8
159	5
160	1
161	6
162	2
163	9
164	9
165	2
166	6
167	4
168	2
169	8
170	5
171	3
172	1
173	1
174	1
175	9
176	9
177	1
178	8
179	1
180	3
181	5
182	5
183	2
184	1
185	7
186	9
187	7
188	8
189	4
190	5
191	3
192	3
193	9
194	5
195	6
196	8
197	1
198	6
199	7
200	3
201	5
202	7
203	9
204	4
205	6
206	6
207	1
208	5
209	5
210	5
211	7
212	6
213	2
214	6
215	7
216	4
217	9
218	4
219	9
220	1
221	2
222	8
223	5
224	8
225	1
226	4
227	4
228	8
229	6
230	5
231	5
232	3
233	3
234	2
235	7
236	9
237	5
238	9
239	6
240	5
241	7
242	5
243	4
244	7
245	2
246	6
247	1
248	4
249	1
250	3
251	2
252	2
253	5
254	6
255	2
256	1
257	5
258	3
259	5
260	9
261	6
262	8
263	7
264	4
265	7
266	9
267	1
268	2
269	8
270	8
271	5
272	4
273	7
274	6
275	5
276	5
277	2
278	4
279	8
280	3
281	3
282	4
283	7
284	9
285	8
286	9
287	9
288	8
289	6
290	7
291	2
292	5
293	7
294	8
295	4
296	5
297	7
298	2
299	6
300	3
301	3
302	3
303	9
304	5
305	7
306	2
307	7
308	8
309	7
310	5
311	8
312	6
313	9
314	8
315	9
316	2
317	5
318	1
319	6
320	9
321	2
322	6
323	7
324	6
325	8
326	7
327	4
328	9
329	5
330	6
331	6
332	7
333	1
334	5
335	9
336	9
337	3
338	4
339	1
340	8
341	5
342	2
343	7
344	6
345	9
346	7
347	1
348	7
349	3
350	4
351	3
352	4
353	3
354	6
355	6
356	3
357	8
358	9
359	5
360	1
361	2
362	9
363	8
364	3
365	6
366	3
367	2
368	1
369	8
370	2
371	8
372	1
373	8
374	3
375	8
376	8
377	3
378	5
379	1
380	6
381	9
382	6
383	8
384	8
385	9
386	7
387	7
388	6
389	5
390	4
391	9
392	1
393	1
394	2
395	2
396	7
397	1
398	5
399	3
400	2
401	5
402	1
403	4
404	4
405	3
406	5
407	6
408	1
409	2
410	5
411	4
412	3
413	7
414	7
415	6
416	5
417	7
418	1
419	8
420	6
421	4
422	7
423	7
424	6
425	3
426	8
427	6
428	2
429	4
430	7
431	3
432	8
433	8
434	8
435	3
436	7
437	5
438	1
439	7
440	6
441	5
442	8
443	8
444	7
445	3
446	8
447	5
448	2
449	8
450	7
451	9
452	9
453	4
454	7
455	2
456	7
457	2
458	8
459	9
460	7
461	2
462	9
463	6
464	6
465	6
466	4
467	4
468	4
469	8
470	7
471	3
472	7
473	4
474	4
475	6
476	4
477	6
478	1
479	1
480	5
481	3
482	2
483	1
484	6
485	9
486	4
487	3
488	1
489	2
490	6
491	5
492	9
493	1
494	1
495	2
496	6
497	5
498	1
499	4
500	8
501	2
502	6
503	9
504	3
505	8
506	3
507	8
508	1
509	7
510	5
511	2
512	8
513	5
514	5
515	8
516	9
517	9
518	7
519	1
520	7
521	3
522	4
523	3
524	2
525	2
526	8
527	5
528	3
529	4
530	3
531	4
532	1
533	5
534	9
535	9
536	9
537	3
538	5
539	8
540	2
541	5
542	1
543	5
544	2
545	9
546	2
547	3
548	4
549	4
550	3
551	2
552	6
553	6
554	1
555	8
556	3
557	2
558	5
559	4
560	4
561	3
562	1
563	8
564	3
565	1
566	5
567	7
568	2
569	5
570	5
571	2
572	4
573	7
574	8
575	7
576	5
577	1
578	9
579	8
580	1
581	1
582	4
583	4
584	7
585	4
586	9
587	9
588	7
589	1
590	2
591	8
592	3
593	5
594	6
595	5
596	2
597	3
598	3
599	9
600	6
601	1
602	4
603	6
604	5
605	3
606	4
607	1
608	9
609	1
610	2
611	7
612	9
613	4
614	5
615	4
616	3
617	9
618	4
619	3
620	7
621	4
622	7
623	6
624	9
625	3
626	9
627	2
628	3
629	1
630	8
631	9
632	6
633	9
634	6
635	2
636	4
637	3
638	4
639	6
640	9
641	6
642	8
643	7
644	5
645	4
646	3
647	9
648	4
649	6
650	5
651	3
652	4
653	5
654	1
655	1
656	5
657	2
658	3
659	1
660	6
661	1
662	4
663	9
664	1
665	9
666	6
667	2
668	2
669	3
670	9
671	8
672	7
673	5
674	9
675	7
676	5
677	3
678	4
679	9
680	6
681	9
682	2
683	2
684	1
685	2
686	2
687	5
688	4
689	6
690	8
691	3
692	7
693	9
694	3
695	3
696	3
697	9
698	5
699	8
700	2
701	6
702	2
703	5
704	4
705	5
706	8
707	5
708	2
709	7
710	2
711	1
712	3
713	2
714	9
715	5
716	3
717	5
718	3
719	8
720	1
721	4
722	8
723	8
724	5
725	7
726	4
727	6
728	9
729	3
730	5
731	3
732	8
733	7
734	4
735	9
736	4
737	8
738	2
739	8
740	5
741	4
742	7
743	4
744	3
745	4
746	1
747	3
748	6
749	9
750	4
751	1
752	2
753	5
754	7
755	4
756	2
757	8
758	7
759	3
760	4
761	9
762	1
763	6
764	4
765	5
766	8
767	7
768	2
769	6
770	2
771	3
772	1
773	2
774	8
775	4
776	9
777	6
778	3
779	1
780	1
781	6
782	9
783	3
784	2
785	4
786	3
787	2
788	6
789	2
790	1
791	1
792	5
793	8
794	1
795	1
796	2
797	8
798	3
799	8
800	6
801	3
802	6
803	4
804	4
805	1
806	6
807	5
808	3
809	7
810	9
811	4
812	9
813	6
814	1
815	3
816	4
817	4
818	4
819	6
820	1
821	1
822	8
823	2
824	4
825	6
826	9
827	7
828	9
829	6
830	2
831	6
832	2
833	9
834	7
835	7
836	1
837	6
838	7
839	5
840	2
841	1
842	1
843	1
844	8
845	1
846	5
847	5
848	5
849	9
850	1
851	1
852	4
853	5
854	6
855	2
856	5
857	6
858	2
859	2
860	7
861	6
862	6
863	2
864	4
865	4
866	7
867	6
868	9
869	3
870	2
871	7
872	3
873	7
874	9
875	2
876	9
877	6
878	9
879	6
880	5
881	7
882	7
883	9
884	1
885	4
886	9
887	2
888	5
889	6
890	9
891	8
892	9
893	9
894	2
895	5
896	6
897	5
898	8
899	3
900	1
901	3
902	4
903	4
904	3
905	2
906	8
907	2
908	5
909	8
910	7
911	2
912	7
913	8
914	7
915	2
916	7
917	3
918	2
919	4
920	8
921	5
922	1
923	8
924	9
925	5
926	2
927	4
928	4
929	7
930	2
931	8
932	6
933	4
934	1
935	5
936	7
937	6
938	4
939	5
940	6
941	2
942	4
943	5
944	6
945	8
946	5
947	7
948	5
949	7
950	3
951	8
952	2
953	3
954	6
955	5
956	9
957	8
958	9
959	5
960	5
961	5
962	7
963	8
964	7
965	5
966	4
967	2
968	7
969	7
970	6
971	2
972	5
973	7
974	3
975	6
976	3
977	5
978	5
979	8
980	4
981	7
982	6
983	6
984	9
985	8
986	5
987	2
988	5
989	9
990	4
991	5
992	8
993	9
994	4
995	5
996	8
997	8
998	6
999	6
1000	2
1001	2
DEPOT_SECTION
1
-1
EOF
