NAME : n1001-0025
COMMENT : "Generated by pyvrp_manuel (OVRP)"
TYPE : OVRP
DIMENSION : 1001
EDGE_WEIGHT_TYPE : EUC_2D
CAPACITY : 150
VEHICLES : 1000
OPEN_ROUTE : YES
NODE_COORD_SECTION
1	297	661
2	271	182
3	724	697
4	305	321
5	795	283
6	491	992
7	988	672
8	707	414
9	716	367
10	758	750
11	125	750
12	750	897
13	541	672
14	378	270
15	861	597
16	518	562
17	919	109
18	332	866
19	840	466
20	37	492
21	303	734
22	113	731
23	599	441
24	985	322
25	519	638
26	948	454
27	437	962
28	27	658
29	654	186
30	910	825
31	480	644
32	86	412
33	401	54
34	768	442
35	122	194
36	918	161
37	69	183
38	363	193
39	833	531
40	798	909
41	449	976
42	197	814
43	26	722
44	932	924
45	640	228
46	419	818
47	165	639
48	406	568
49	632	259
50	90	746
51	375	418
52	787	79
53	345	369
54	694	822
55	979	236
56	377	591
57	883	451
58	843	268
59	245	26
60	736	777
61	254	690
62	894	239
63	831	767
64	945	116
65	309	24
66	798	98
67	44	174
68	654	225
69	655	398
70	240	84
71	537	399
72	477	306
73	421	675
74	963	925
75	490	503
76	949	869
77	421	226
78	639	973
79	826	892
80	174	4
81	818	708
82	839	667
83	40	547
84	15	284
85	156	861
86	180	766
87	819	289
88	785	641
89	587	935
90	371	990
91	526	43
92	254	285
93	978	169
94	59	201
95	318	597
96	225	557
97	740	920
98	393	526
99	588	867
100	552	32
101	148	392
102	58	776
103	654	781
104	524	469
105	275	940
106	395	427
107	338	932
108	836	216
109	288	655
110	418	812
111	487	49
112	877	711
113	746	248
114	399	690
115	901	943
116	374	704
117	547	781
118	631	810
119	782	964
120	529	426
121	251	63
122	883	881
123	968	404
124	660	982
125	149	544
126	404	4
127	315	343
128	781	397
129	788	706
130	430	821
131	781	896
132	257	380
133	616	215
134	757	720
135	216	410
136	165	872
137	568	837
138	761	411
139	363	813
140	745	532
141	46	186
142	124	912
143	163	868
144	392	629
145	284	42
146	296	576
147	399	174
148	846	691
149	938	701
150	633	688
151	371	21
152	150	846
153	771	586
154	484	691
155	300	16
156	150	378
157	439	645
158	538	408
159	329	398
160	210	115
161	42	871
162	451	560
163	167	467
164	275	372
165	202	455
166	895	930
167	956	951
168	525	565
169	143	98
170	528	63
171	714	225
172	27	64
173	654	880
174	838	244
175	844	569
176	126	138
177	547	815
178	490	791
179	960	769
180	841	383
181	964	63
182	598	939
183	280	3
184	8	792
185	559	701
186	23	642
187	807	590
188	161	848
189	689	589
190	852	169
191	489	242
192	38	349
193	171	743
194	688	988
195	623	232
196	32	349
197	317	886
198	96	604
199	190	949
200	999	429
201	406	391
202	580	880
203	137	283
204	601	619
205	722	483
206	831	919
207	470	600
208	248	835
209	556	101
210	81	972
211	388	761
212	688	890
213	494	419
214	290	866
215	161	541
216	14	346
217	375	936
218	626	305
219	787	785
220	704	460
221	242	194
222	203	874
223	216	137
224	686	272
225	460	417
226	547	865
227	699	160
228	236	276
229	390	943
230	250	722
231	300	71
232	712	18
233	1	567
234	307	844
235	924	33
236	815	681
237	783	595
238	984	758
239	188	439
240	694	206
241	509	894
242	59	17
243	877	5
244	247	132
245	615	938
246	139	752
247	283	912
248	235	633
249	291	174
250	652	223
251	11	352
252	574	463
253	467	95
254	877	835
255	108	730
256	114	218
257	924	889
258	761	506
259	57	84
260	410	616
261	36	252
262	314	640
263	212	866
264	608	85
265	907	150
266	878	640
267	24	811
268	748	752
269	380	796
270	203	431
271	685	24
272	463	269
273	673	826
274	20	963
275	391	734
276	481	842
277	325	473
278	458	456
279	719	822
280	367	328
281	250	231
282	904	876
283	666	727
284	308	185
285	948	909
286	375	132
287	596	630
288	409	563
289	862	563
290	355	841
291	886	72
292	747	703
293	909	956
294	340	970
295	685	362
296	308	639
297	985	486
298	595	424
299	33	846
300	857	363
301	498	269
302	899	908
303	605	573
304	971	175
305	701	298
306	693	197
307	925	819
308	387	872
309	315	676
310	996	592
311	564	516
312	136	825
313	93	12
314	914	989
315	506	668
316	68	319
317	639	235
318	448	396
319	482	305
320	483	560
321	246	429
322	388	342
323	348	715
324	86	209
325	688	111
326	805	35
327	314	830
328	2	495
329	27	678
330	156	7
331	230	999
332	820	248
333	394	518
334	802	396
335	707	536
336	143	711
337	247	238
338	179	554
339	835	155
340	446	343
341	481	957
342	834	864
343	716	613
344	684	876
345	707	68
346	902	214
347	817	425
348	115	223
349	837	783
350	952	635
351	208	642
352	879	221
353	420	31
354	712	307
355	775	961
356	350	777
357	352	155
358	516	456
359	21	354
360	22	889
361	536	789
362	446	35
363	846	861
364	808	502
365	960	15
366	553	757
367	110	985
368	555	8
369	848	769
370	916	937
371	833	739
372	211	863
373	944	63
374	391	954
375	149	253
376	946	22
377	985	752
378	551	798
379	801	855
380	504	405
381	734	36
382	853	228
383	806	314
384	170	531
385	348	968
386	93	60
387	548	732
388	534	31
389	840	396
390	732	938
391	834	658
392	442	802
393	359	998
394	134	370
395	24	914
396	427	80
397	851	516
398	489	64
399	755	264
400	894	29
401	114	48
402	603	175
403	335	114
404	732	518
405	122	755
406	385	72
407	59	953
408	101	442
409	906	801
410	198	718
411	854	331
412	974	645
413	515	375
414	689	518
415	793	141
416	790	997
417	529	486
418	851	402
419	884	778
420	11	906
421	361	237
422	706	843
423	855	898
424	313	667
425	710	855
426	795	945
427	95	294
428	995	792
429	396	842
430	136	737
431	228	723
432	487	671
433	29	274
434	861	731
435	731	859
436	331	619
437	494	162
438	626	161
439	341	599
440	703	916
441	920	362
442	924	725
443	353	395
444	968	914
445	296	799
446	414	40
447	80	618
448	406	625
449	469	393
450	723	799
451	176	243
452	133	416
453	269	285
454	18	587
455	591	761
456	262	642
457	802	431
458	631	532
459	429	220
460	13	328
461	583	244
462	327	359
463	440	265
464	542	826
465	848	171
466	868	283
467	148	748
468	452	496
469	90	864
470	861	247
471	660	305
472	209	715
473	581	828
474	939	880
475	542	748
476	594	1
477	233	17
478	224	136
479	105	32
480	447	398
481	944	22
482	419	81
483	768	93
484	647	503
485	518	34
486	260	98
487	950	254
488	256	182
489	607	969
490	493	911
491	859	410
492	785	528
493	860	855
494	189	395
495	245	933
496	306	204
497	583	252
498	865	833
499	434	104
500	875	545
501	840	677
502	270	506
503	331	233
504	401	786
505	11	926
506	90	682
507	548	364
508	586	403
509	394	946
510	157	720
511	189	602
512	202	953
513	652	687
514	247	495
515	722	686
516	719	911
517	695	601
518	267	658
519	159	577
520	723	707
521	650	938
522	913	622
523	989	183
524	909	863
525	612	363
526	921	639
527	887	813
528	222	388
529	630	681
530	791	658
531	558	392
532	945	702
533	938	5
534	208	935
535	801	74
536	190	772
537	480	440
538	202	622
539	306	521
540	911	752
541	387	689
542	221	739
543	775	713
544	559	926
545	462	912
546	604	97
547	724	991
548	994	57
549	820	510
550	972	23
551	710	973
552	532	850
553	859	878
554	748	593
555	235	111
556	57	660
557	312	121
558	192	18
559	327	610
560	261	694
561	755	339
562	904	61
563	444	367
564	988	760
565	316	587
566	283	735
567	463	814
568	886	249
569	941	297
570	882	486
571	766	948
572	717	913
573	77	230
574	142	670
575	145	15
576	944	39
577	220	133
578	351	75
579	355	35
580	446	245
581	751	377
582	353	968
583	947	104
584	999	753
585	506	338
586	236	474
587	30	65
588	759	475
589	36	230
590	122	152
591	88	649
592	311	301
593	568	807
594	437	227
595	121	946
596	885	148
597	945	708
598	652	529
599	412	789
600	793	951
601	656	481
602	74	220
603	540	277
604	805	361
605	797	328
606	47	648
607	100	587
608	762	53
609	602	676
610	43	280
611	243	255
612	266	947
613	276	586
614	450	358
615	877	901
616	418	253
617	906	604
618	214	429
619	899	168
620	184	787
621	62	336
622	509	971
623	654	997
624	1	272
625	203	175
626	137	601
627	516	68
628	806	240
629	146	393
630	543	299
631	191	756
632	606	613
633	818	120
634	27	224
635	981	242
636	656	708
637	424	829
638	403	14
639	370	238
640	695	159
641	361	585
642	888	167
643	585	758
644	994	21
645	229	270
646	891	917
647	571	131
648	470	1
649	754	800
650	711	91
651	963	864
652	573	912
653	777	469
654	970	482
655	746	76
656	182	158
657	686	148
658	953	892
659	357	45
660	697	71
661	399	442
662	609	871
663	879	915
664	367	607
665	507	51
666	55	812
667	447	380
668	721	808
669	520	681
670	390	779
671	197	378
672	145	512
673	106	179
674	757	969
675	720	961
676	980	483
677	305	170
678	147	512
679	624	293
680	41	286
681	261	877
682	525	567
683	848	675
684	255	291
685	779	597
686	914	180
687	236	190
688	92	999
689	852	889
690	336	466
691	45	399
692	376	315
693	591	106
694	51	989
695	7	101
696	254	194
697	62	885
698	273	586
699	486	485
700	120	254
701	452	85
702	30	933
703	976	801
704	101	568
705	38	857
706	180	904
707	196	832
708	785	48
709	40	547
710	576	332
711	196	662
712	66	488
713	427	997
714	348	205
715	335	960
716	351	339
717	371	225
718	58	607
719	657	11
720	437	310
721	778	581
722	364	148
723	226	634
724	930	27
725	740	429
726	391	316
727	411	875
728	724	44
729	884	273
730	498	681
731	641	898
732	731	597
733	489	627
734	9	866
735	343	807
736	252	260
737	213	202
738	549	589
739	162	943
740	219	864
741	152	142
742	648	851
743	360	140
744	717	957
745	249	232
746	785	86
747	216	524
748	667	851
749	412	80
750	811	299
751	577	76
752	271	86
753	6	325
754	428	967
755	62	867
756	782	348
757	817	114
758	798	43
759	349	403
760	263	955
761	991	773
762	72	230
763	995	111
764	389	14
765	925	96
766	50	366
767	687	180
768	650	318
769	510	835
770	820	288
771	518	685
772	412	243
773	650	752
774	936	756
775	783	734
776	564	529
777	857	107
778	307	486
779	318	225
780	876	113
781	374	46
782	765	450
783	44	391
784	307	172
785	432	184
786	547	402
787	456	546
788	833	929
789	737	390
790	346	585
791	206	769
792	292	908
793	171	863
794	470	631
795	416	513
796	985	218
797	763	182
798	933	546
799	892	260
800	983	468
801	766	255
802	1	598
803	544	626
804	881	975
805	399	4
806	390	742
807	927	779
808	647	821
809	252	36
810	915	447
811	420	235
812	98	350
813	942	117
814	904	857
815	701	556
816	136	236
817	877	367
818	688	650
819	223	183
820	749	607
821	986	98
822	32	832
823	867	330
824	184	474
825	916	604
826	440	476
827	563	152
828	715	783
829	315	99
830	830	432
831	524	617
832	383	688
833	267	134
834	344	815
835	443	330
836	798	762
837	635	881
838	258	685
839	598	695
840	673	677
841	338	52
842	999	971
843	115	522
844	79	529
845	640	465
846	873	866
847	275	690
848	724	195
849	906	191
850	90	873
851	66	948
852	139	456
853	881	697
854	969	563
855	578	524
856	107	626
857	504	93
858	157	782
859	111	558
860	718	713
861	969	954
862	412	847
863	696	678
864	971	100
865	182	226
866	304	674
867	295	423
868	591	796
869	962	711
870	798	744
871	743	115
872	461	245
873	981	318
874	273	649
875	371	366
876	843	734
877	943	588
878	335	400
879	319	517
880	932	806
881	959	687
882	344	520
883	40	318
884	687	176
885	931	276
886	832	441
887	625	624
888	729	731
889	532	602
890	998	619
891	363	616
892	556	19
893	261	962
894	414	847
895	71	980
896	582	50
897	246	730
898	844	641
899	128	841
900	647	305
901	687	142
902	444	1
903	668	714
904	986	789
905	995	638
906	708	347
907	824	689
908	145	610
909	467	977
910	128	254
911	730	130
912	405	618
913	154	119
914	919	953
915	290	512
916	46	965
917	574	269
918	536	376
919	449	622
920	496	379
921	69	697
922	129	762
923	621	41
924	781	271
925	731	665
926	705	449
927	451	625
928	263	979
929	120	798
930	227	477
931	748	347
932	554	997
933	69	978
934	997	90
935	200	789
936	213	871
937	555	679
938	704	284
939	731	548
940	200	829
941	746	327
942	125	141
943	153	338
944	629	985
945	428	930
946	326	824
947	823	427
948	392	340
949	837	456
950	700	630
951	967	367
952	547	616
953	311	311
954	359	765
955	59	405
956	802	201
957	529	337
958	160	645
959	871	481
960	816	885
961	20	524
962	618	510
963	197	428
964	38	198
965	318	660
966	575	226
967	969	975
968	746	922
969	805	807
970	404	833
971	24	353
972	892	789
973	871	384
974	616	526
975	635	378
976	530	336
977	741	54
978	392	349
979	808	907
980	805	951
981	951	326
982	436	922
983	581	900
984	709	930
985	900	39
986	170	369
987	303	920
988	14	989
989	821	731
990	122	176
991	408	149
992	421	92
993	297	256
994	341	339
995	228	650
996	116	810
997	711	441
998	453	825
999	985	813
1000	685	94
1001	456	259
DEMAND_SECTION
1	0
2	4
3	5
4	5
5	8
6	2
7	5
8	8
9	3
10	3
11	3
12	7
13	9
14	1
15	2
16	4
17	4
18	3
19	8
20	3
21	9
22	5
23	1
24	1
25	4
26	2
27	4
28	2
29	2
30	5
31	8
32	4
33	9
34	3
35	9
36	8
37	6
38	1
39	9
40	9
41	4
42	5
43	4
44	6
45	6
46	4
47	6
48	8
49	8
50	3
51	1
52	5
53	1
54	9
55	8
56	3
57	3
58	1
59	3
60	9
61	2
62	6
63	6
64	2
65	9
66	8
67	7
68	8
69	9
70	6
71	2
72	4
73	5
74	1
75	2
76	4
77	7
78	5
79	4
80	4
81	5
82	3
83	5
84	5
85	9
86	9
87	5
88	5
89	2
90	5
91	9
92	1
93	8
94	7
95	8
96	4
97	7
98	6
99	6
100	2
101	2
102	4
103	1
104	3
105	5
106	8
107	8
108	8
109	9
110	9
111	5
112	7
113	3
114	1
115	5
116	2
117	4
118	8
119	6
120	7
121	6
122	6
123	2
124	5
125	5
126	9
127	7
128	8
129	1
130	4
131	3
132	8
133	1
134	9
135	6
136	3
137	6
138	1
139	8
140	6
141	6
142	4
143	8
144	6
145	1
146	1
147	9
148	5
149	1
150	6
151	9
152	7
153	4
154	1
155	9
156	3
157	6
158	2
159	5
160	2
161	1
162	9
163	7
164	1
165	9
166	7
167	3
168	5
169	1
170	4
171	9
172	1
173	7
174	9
175	1
176	4
177	8
178	8
179	2
180	7
181	6
182	8
183	3
184	6
185	4
186	4
187	9
188	8
189	3
190	3
191	5
192	9
193	8
194	2
195	4
196	9
197	4
198	8
199	7
200	9
201	3
202	9
203	5
204	9
205	7
206	8
207	2
208	2
209	3
210	2
211	8
212	4
213	3
214	7
215	4
216	5
217	5
218	1
219	3
220	7
221	3
222	9
223	2
224	5
225	9
226	2
227	8
228	7
229	5
230	7
231	3
232	6
233	8
234	4
235	4
236	5
237	1
238	7
239	4
240	3
241	3
242	9
243	4
244	5
245	5
246	4
247	5
248	9
249	5
250	1
251	7
252	2
253	5
254	3
255	4
256	3
257	8
258	7
259	5
260	5
261	2
262	4
263	9
264	7
265	2
266	9
267	2
268	3
269	2
270	2
271	9
272	4
273	8
274	2
275	6
276	4
277	5
278	9
279	2
280	7
281	5
282	4
283	7
284	3
285	4
286	9
287	2
288	9
289	4
290	5
291	3
292	9
293	7
294	2
295	9
296	2
297	4
298	9
299	4
300	7
301	6
302	1
303	8
304	8
305	5
306	3
307	6
308	4
309	8
310	4
311	3
312	1
313	8
314	4
315	6
316	8
317	2
318	1
319	4
320	8
321	9
322	2
323	3
324	8
325	7
326	4
327	7
328	6
329	4
330	9
331	7
332	3
333	1
334	7
335	2
336	2
337	6
338	2
339	3
340	3
341	7
342	9
343	1
344	1
345	6
346	9
347	2
348	9
349	7
350	5
351	2
352	9
353	6
354	6
355	7
356	8
357	3
358	6
359	7
360	6
361	2
362	9
363	6
364	4
365	8
366	7
367	4
368	5
369	2
370	3
371	7
372	5
373	2
374	5
375	1
376	7
377	8
378	8
379	2
380	3
381	5
382	5
383	1
384	9
385	9
386	8
387	2
388	1
389	7
390	7
391	5
392	5
393	3
394	5
395	7
396	8
397	4
398	6
399	6
400	5
401	1
402	2
403	8
404	1
405	7
406	9
407	3
408	4
409	5
410	9
411	9
412	4
413	7
414	1
415	9
416	2
417	8
418	2
419	6
420	6
421	3
422	4
423	4
424	9
425	4
426	2
427	4
428	5
429	4
430	2
431	7
432	7
433	5
434	5
435	5
436	3
437	8
438	5
439	3
440	8
441	5
442	8
443	5
444	1
445	3
446	1
447	6
448	1
449	2
450	5
451	3
452	5
453	6
454	8
455	2
456	5
457	1
458	7
459	5
460	9
461	8
462	1
463	2
464	8
465	1
466	1
467	2
468	4
469	3
470	6
471	4
472	6
473	1
474	2
475	2
476	8
477	1
478	7
479	6
480	4
481	6
482	4
483	9
484	6
485	5
486	3
487	7
488	6
489	1
490	2
491	4
492	8
493	8
494	7
495	3
496	2
497	2
498	8
499	6
500	6
501	3
502	6
503	6
504	2
505	9
506	6
507	6
508	7
509	4
510	9
511	5
512	5
513	9
514	9
515	5
516	7
517	7
518	5
519	8
520	8
521	3
522	4
523	6
524	5
525	5
526	3
527	5
528	5
529	5
530	2
531	9
532	8
533	1
534	2
535	3
536	8
537	1
538	1
539	5
540	7
541	2
542	2
543	2
544	5
545	3
546	6
547	5
548	2
549	4
550	1
551	5
552	9
553	5
554	5
555	3
556	4
557	5
558	7
559	5
560	8
561	7
562	8
563	5
564	5
565	6
566	1
567	2
568	9
569	5
570	1
571	6
572	4
573	7
574	9
575	8
576	6
577	3
578	1
579	7
580	6
581	2
582	6
583	2
584	1
585	4
586	2
587	4
588	2
589	7
590	9
591	1
592	1
593	3
594	8
595	2
596	2
597	5
598	5
599	9
600	6
601	3
602	9
603	8
604	1
605	1
606	4
607	1
608	9
609	4
610	9
611	4
612	3
613	1
614	5
615	4
616	2
617	3
618	6
619	3
620	4
621	8
622	7
623	7
624	3
625	7
626	2
627	4
628	2
629	5
630	6
631	3
632	1
633	4
634	4
635	3
636	5
637	5
638	3
639	9
640	8
641	3
642	4
643	4
644	2
645	5
646	2
647	1
648	7
649	2
650	7
651	1
652	7
653	3
654	4
655	6
656	7
657	4
658	5
659	9
660	6
661	4
662	2
663	5
664	3
665	4
666	3
667	6
668	1
669	5
670	7
671	7
672	3
673	3
674	2
675	6
676	3
677	3
678	5
679	7
680	9
681	2
682	3
683	4
684	5
685	4
686	4
687	3
688	1
689	7
690	9
691	1
692	1
693	1
694	4
695	7
696	9
697	3
698	5
699	8
700	5
701	4
702	4
703	6
704	9
705	8
706	6
707	4
708	2
709	2
710	7
711	6
712	6
713	4
714	1
715	1
716	5
717	3
718	4
719	9
720	4
721	6
722	6
723	4
724	5
725	7
726	2
727	1
728	6
729	6
730	5
731	1
732	9
733	4
734	1
735	5
736	2
737	4
738	9
739	2
740	7
741	4
742	5
743	9
744	9
745	6
746	1
747	5
748	9
749	8
750	6
751	2
752	2
753	3
754	3
755	3
756	5
757	8
758	9
759	1
760	8
761	7
762	6
763	2
764	5
765	3
766	5
767	9
768	2
769	3
770	2
771	9
772	5
773	1
774	3
775	2
776	1
777	7
778	5
779	8
780	7
781	3
782	6
783	9
784	9
785	5
786	6
787	6
788	9
789	4
790	3
791	8
792	1
793	3
794	2
795	4
796	2
797	4
798	2
799	3
800	8
801	1
802	8
803	5
804	1
805	1
806	4
807	1
808	2
809	6
810	6
811	9
812	5
813	4
814	2
815	3
816	8
817	2
818	6
819	4
820	9
821	4
822	3
823	6
824	5
825	1
826	2
827	6
828	3
829	1
830	9
831	8
832	5
833	9
834	5
835	1
836	4
837	9
838	1
839	2
840	4
841	6
842	1
843	5
844	3
845	9
846	1
847	2
848	1
849	2
850	8
851	2
852	7
853	3
854	5
855	8
856	6
857	4
858	2
859	3
860	9
861	3
862	5
863	5
864	7
865	9
866	6
867	5
868	7
869	8
870	1
871	5
872	5
873	1
874	4
875	3
876	2
877	8
878	9
879	3
880	4
881	9
882	1
883	9
884	3
885	8
886	6
887	7
888	7
889	2
890	5
891	2
892	8
893	1
894	3
895	7
896	2
897	3
898	5
899	8
900	8
901	5
902	8
903	7
904	5
905	1
906	8
907	9
908	3
909	6
910	2
911	3
912	4
913	9
914	6
915	7
916	4
917	1
918	3
919	9
920	1
921	9
922	6
923	8
924	4
925	9
926	2
927	2
928	2
929	1
930	1
931	9
932	5
933	4
934	9
935	7
936	8
937	1
938	4
939	8
940	6
941	3
942	6
943	4
944	6
945	6
946	6
947	7
948	7
949	4
950	1
951	3
952	8
953	3
954	6
955	3
956	5
957	7
958	5
959	1
960	9
961	5
962	4
963	3
964	6
965	4
966	6
967	7
968	7
969	6
970	8
971	5
972	9
973	7
974	8
975	1
976	3
977	2
978	7
979	6
980	7
981	9
982	5
983	4
984	9
985	7
986	2
987	5
988	7
989	4
990	1
991	9
992	3
993	5
994	9
995	8
996	9
997	4
998	9
999	4
1000	9
1001	3
DEPOT_SECTION
1
-1
EOF
