NAME : n1001-0003
COMMENT : "Generated by pyvrp_manuel (OVRP)"
TYPE : OVRP
DIMENSION : 1001
EDGE_WEIGHT_TYPE : EUC_2D
CAPACITY : 150
VEHICLES : 1000
OPEN_ROUTE : YES
NODE_COORD_SECTION
1	365	473
2	994	290
3	137	393
4	797	813
5	456	622
6	193	382
7	543	565
8	898	413
9	301	640
10	83	95
11	806	586
12	660	57
13	661	522
14	158	393
15	760	577
16	794	296
17	517	163
18	702	529
19	981	521
20	74	979
21	722	27
22	722	714
23	988	786
24	488	225
25	328	296
26	383	966
27	716	598
28	334	904
29	626	222
30	33	778
31	719	872
32	729	367
33	52	608
34	939	465
35	474	401
36	860	763
37	483	858
38	1	456
39	648	763
40	587	494
41	328	775
42	618	16
43	943	34
44	585	402
45	995	385
46	158	279
47	24	50
48	845	98
49	31	900
50	85	778
51	164	509
52	119	363
53	23	180
54	976	536
55	202	176
56	874	404
57	208	392
58	182	495
59	925	799
60	775	919
61	202	687
62	546	482
63	948	782
64	204	371
65	497	640
66	207	661
67	719	132
68	214	436
69	817	886
70	235	421
71	528	45
72	899	708
73	612	584
74	969	717
75	301	278
76	449	252
77	66	308
78	904	771
79	828	106
80	746	164
81	601	833
82	696	196
83	213	350
84	478	560
85	506	691
86	482	203
87	812	453
88	894	347
89	142	527
90	87	618
91	988	533
92	997	663
93	734	488
94	304	835
95	980	684
96	845	959
97	976	201
98	217	467
99	545	379
100	118	889
101	843	397
102	942	332
103	260	708
104	935	201
105	466	869
106	324	804
107	11	812
108	447	7
109	683	518
110	104	836
111	208	494
112	469	370
113	146	885
114	972	412
115	915	847
116	802	544
117	775	972
118	948	178
119	682	157
120	557	492
121	995	737
122	880	714
123	827	118
124	898	742
125	315	484
126	657	817
127	829	605
128	572	15
129	827	356
130	167	51
131	65	645
132	727	316
133	221	951
134	754	388
135	284	231
136	74	618
137	607	44
138	379	159
139	808	751
140	719	813
141	739	598
142	13	155
143	798	606
144	12	360
145	546	562
146	953	522
147	110	480
148	714	194
149	323	262
150	489	172
151	799	838
152	338	142
153	524	873
154	117	814
155	433	981
156	878	542
157	766	847
158	240	709
159	927	276
160	857	878
161	626	389
162	998	990
163	190	363
164	906	78
165	775	985
166	592	520
167	267	546
168	876	410
169	924	202
170	365	716
171	537	748
172	284	407
173	950	725
174	230	471
175	59	929
176	935	203
177	390	353
178	209	782
179	831	450
180	903	25
181	507	488
182	890	959
183	792	628
184	753	14
185	215	658
186	34	392
187	445	138
188	823	783
189	752	906
190	314	456
191	936	429
192	294	183
193	255	586
194	99	873
195	302	140
196	919	104
197	476	778
198	790	56
199	576	116
200	885	833
201	197	64
202	271	936
203	615	538
204	744	783
205	841	674
206	906	777
207	424	448
208	176	186
209	2	584
210	421	703
211	906	345
212	600	824
213	329	336
214	705	633
215	837	312
216	18	915
217	973	559
218	895	2
219	540	535
220	519	329
221	674	143
222	302	265
223	254	270
224	839	368
225	517	786
226	492	222
227	682	632
228	978	460
229	668	808
230	197	840
231	674	588
232	840	632
233	485	758
234	680	459
235	214	950
236	634	755
237	434	663
238	225	269
239	446	4
240	592	334
241	492	682
242	534	823
243	335	284
244	72	391
245	762	844
246	100	252
247	949	113
248	274	786
249	933	559
250	137	797
251	202	104
252	586	713
253	568	432
254	909	825
255	37	849
256	91	502
257	487	188
258	474	922
259	462	856
260	913	39
261	324	834
262	647	755
263	423	149
264	76	498
265	708	370
266	588	891
267	272	900
268	647	980
269	32	911
270	761	700
271	228	165
272	218	958
273	62	146
274	175	250
275	658	373
276	397	564
277	923	148
278	342	197
279	217	166
280	490	244
281	960	639
282	713	961
283	640	705
284	410	928
285	107	313
286	357	661
287	749	503
288	399	720
289	280	781
290	163	526
291	873	596
292	360	882
293	544	177
294	141	540
295	105	816
296	67	494
297	559	145
298	106	614
299	270	10
300	489	177
301	709	288
302	318	338
303	535	752
304	287	428
305	949	848
306	245	69
307	132	988
308	185	886
309	259	204
310	619	274
311	708	955
312	113	347
313	324	488
314	353	515
315	51	928
316	703	552
317	398	313
318	252	134
319	684	131
320	823	617
321	240	868
322	473	779
323	480	491
324	14	461
325	78	116
326	289	138
327	580	221
328	886	91
329	97	117
330	792	247
331	613	73
332	170	124
333	154	3
334	526	713
335	21	337
336	770	62
337	431	498
338	549	625
339	474	974
340	718	730
341	43	13
342	388	810
343	629	268
344	561	355
345	777	736
346	397	453
347	305	953
348	473	311
349	651	767
350	760	357
351	923	63
352	869	954
353	999	203
354	145	31
355	515	759
356	599	513
357	954	108
358	15	623
359	413	841
360	578	304
361	531	981
362	810	245
363	102	395
364	969	756
365	898	407
366	670	470
367	874	852
368	180	647
369	553	460
370	702	374
371	266	885
372	824	20
373	782	151
374	339	218
375	208	721
376	234	188
377	481	408
378	982	852
379	479	501
380	686	358
381	555	333
382	469	941
383	861	838
384	141	153
385	646	482
386	849	670
387	717	82
388	884	694
389	729	597
390	937	390
391	641	43
392	104	308
393	795	256
394	778	87
395	85	348
396	313	442
397	302	19
398	889	722
399	912	355
400	66	764
401	333	886
402	930	960
403	942	829
404	340	500
405	693	771
406	177	841
407	459	953
408	739	964
409	666	457
410	540	769
411	964	452
412	941	144
413	574	596
414	98	12
415	682	106
416	441	875
417	784	155
418	80	374
419	205	298
420	594	298
421	341	598
422	491	99
423	811	117
424	584	544
425	592	805
426	105	444
427	397	571
428	110	759
429	568	727
430	84	523
431	614	92
432	617	824
433	840	905
434	138	568
435	354	177
436	810	463
437	645	567
438	770	9
439	269	730
440	468	956
441	906	77
442	867	973
443	484	78
444	504	839
445	115	932
446	67	568
447	730	625
448	541	33
449	707	899
450	882	907
451	964	781
452	423	265
453	183	211
454	602	604
455	441	880
456	549	882
457	761	887
458	810	475
459	856	478
460	971	48
461	934	323
462	405	871
463	691	93
464	120	567
465	886	868
466	745	760
467	58	360
468	113	285
469	306	394
470	87	352
471	219	109
472	903	297
473	581	119
474	508	915
475	278	871
476	180	793
477	859	415
478	526	100
479	880	542
480	645	372
481	591	175
482	675	898
483	217	143
484	333	208
485	476	968
486	933	746
487	608	701
488	14	407
489	562	85
490	905	976
491	957	441
492	461	668
493	798	157
494	373	746
495	68	501
496	752	488
497	883	392
498	588	103
499	192	993
500	368	73
501	106	188
502	160	35
503	763	247
504	824	50
505	735	628
506	568	488
507	934	960
508	847	221
509	42	874
510	843	536
511	958	29
512	862	69
513	219	826
514	183	65
515	295	695
516	512	125
517	910	308
518	307	935
519	439	448
520	538	199
521	360	453
522	328	994
523	76	840
524	610	314
525	717	884
526	244	128
527	271	148
528	133	313
529	277	353
530	969	117
531	594	818
532	525	471
533	797	349
534	883	97
535	118	644
536	370	622
537	940	547
538	654	689
539	632	376
540	251	664
541	192	826
542	326	165
543	843	889
544	532	261
545	780	161
546	951	649
547	831	786
548	462	942
549	463	165
550	985	754
551	721	370
552	480	391
553	605	637
554	382	297
555	512	67
556	280	235
557	849	787
558	342	988
559	965	791
560	474	144
561	794	972
562	642	66
563	934	822
564	234	369
565	82	307
566	265	407
567	207	507
568	445	884
569	90	598
570	198	129
571	899	546
572	116	151
573	89	313
574	330	690
575	98	927
576	685	101
577	68	623
578	331	354
579	934	87
580	587	972
581	728	716
582	200	855
583	114	660
584	666	383
585	910	352
586	279	139
587	465	18
588	377	134
589	403	227
590	252	18
591	146	318
592	181	741
593	100	368
594	45	310
595	653	368
596	378	566
597	156	362
598	670	690
599	224	179
600	87	807
601	86	243
602	345	888
603	792	896
604	776	249
605	683	327
606	143	595
607	296	508
608	360	623
609	986	155
610	791	315
611	940	167
612	783	964
613	584	113
614	528	604
615	424	577
616	953	552
617	557	924
618	463	238
619	513	294
620	555	682
621	308	786
622	125	713
623	324	650
624	556	73
625	169	433
626	86	19
627	564	318
628	434	585
629	986	390
630	101	337
631	275	890
632	372	344
633	290	562
634	548	136
635	451	352
636	721	36
637	816	993
638	945	896
639	848	843
640	578	573
641	748	774
642	833	880
643	383	579
644	38	619
645	947	514
646	198	681
647	329	712
648	84	959
649	556	15
650	258	668
651	783	502
652	88	331
653	97	500
654	289	659
655	644	850
656	621	141
657	813	729
658	767	597
659	23	533
660	222	845
661	582	615
662	237	15
663	669	329
664	260	859
665	244	231
666	108	381
667	443	536
668	687	403
669	782	887
670	561	464
671	92	486
672	619	12
673	336	60
674	120	986
675	988	389
676	909	601
677	869	451
678	316	275
679	677	981
680	496	303
681	550	808
682	84	757
683	657	643
684	629	66
685	259	168
686	820	787
687	683	407
688	855	710
689	944	864
690	888	290
691	994	94
692	26	175
693	27	267
694	214	729
695	350	571
696	193	149
697	879	251
698	992	611
699	98	618
700	320	562
701	211	271
702	235	580
703	508	967
704	732	875
705	406	460
706	996	91
707	706	1
708	786	259
709	537	891
710	995	119
711	427	822
712	868	155
713	541	897
714	900	449
715	265	902
716	675	478
717	439	118
718	99	495
719	742	603
720	435	557
721	434	766
722	242	744
723	840	986
724	882	494
725	161	858
726	32	55
727	994	575
728	358	200
729	509	842
730	505	138
731	390	591
732	464	496
733	58	600
734	344	317
735	49	884
736	778	238
737	824	390
738	335	305
739	460	872
740	954	747
741	792	515
742	805	41
743	650	238
744	566	848
745	983	227
746	63	176
747	867	398
748	226	340
749	369	215
750	665	973
751	477	121
752	573	297
753	327	699
754	622	833
755	345	90
756	362	771
757	156	286
758	85	77
759	365	24
760	551	466
761	19	884
762	40	70
763	27	795
764	378	549
765	939	304
766	406	900
767	142	572
768	480	579
769	201	578
770	885	431
771	254	136
772	116	303
773	90	727
774	887	775
775	52	923
776	429	672
777	847	523
778	849	552
779	747	463
780	621	932
781	422	63
782	152	808
783	341	179
784	460	900
785	301	472
786	362	139
787	831	479
788	175	823
789	394	498
790	114	336
791	40	227
792	129	734
793	864	15
794	363	939
795	320	548
796	820	863
797	527	436
798	557	801
799	847	538
800	399	925
801	231	860
802	642	177
803	422	122
804	189	693
805	226	270
806	307	84
807	378	862
808	124	301
809	222	13
810	863	737
811	152	319
812	812	779
813	748	670
814	698	466
815	342	849
816	647	995
817	475	421
818	78	231
819	437	474
820	110	819
821	606	155
822	434	945
823	684	932
824	981	152
825	516	59
826	960	55
827	786	651
828	536	784
829	480	367
830	509	947
831	217	280
832	614	896
833	633	605
834	539	555
835	756	953
836	781	157
837	610	392
838	850	337
839	734	882
840	335	168
841	122	171
842	718	767
843	460	353
844	117	654
845	229	343
846	124	647
847	840	982
848	515	649
849	66	627
850	163	815
851	180	467
852	141	126
853	184	616
854	193	711
855	756	370
856	593	806
857	987	935
858	949	38
859	371	114
860	352	243
861	985	980
862	534	8
863	874	170
864	472	632
865	773	238
866	490	322
867	912	715
868	531	432
869	252	938
870	471	731
871	460	433
872	496	381
873	168	333
874	730	583
875	894	324
876	14	270
877	887	732
878	763	66
879	553	335
880	523	266
881	599	682
882	64	530
883	107	953
884	888	565
885	185	795
886	0	356
887	153	820
888	313	705
889	890	983
890	9	444
891	147	955
892	403	581
893	564	467
894	135	992
895	233	826
896	837	19
897	597	126
898	325	955
899	874	640
900	509	697
901	606	976
902	920	768
903	948	822
904	354	416
905	654	36
906	334	607
907	472	46
908	386	115
909	737	618
910	153	730
911	446	237
912	1	707
913	578	40
914	785	416
915	673	701
916	437	473
917	447	913
918	518	245
919	363	350
920	747	720
921	105	15
922	628	271
923	514	569
924	378	313
925	335	131
926	843	966
927	618	758
928	28	984
929	79	54
930	482	292
931	982	157
932	330	870
933	560	618
934	272	232
935	971	170
936	475	603
937	405	669
938	250	568
939	343	389
940	888	456
941	309	84
942	399	621
943	508	380
944	185	198
945	365	259
946	162	236
947	406	294
948	471	739
949	497	262
950	133	659
951	877	876
952	895	519
953	121	21
954	214	987
955	352	521
956	257	808
957	983	213
958	223	137
959	698	447
960	83	370
961	118	252
962	349	582
963	753	281
964	179	133
965	102	193
966	929	541
967	445	488
968	959	639
969	297	694
970	16	763
971	334	415
972	257	688
973	255	997
974	774	859
975	532	100
976	517	401
977	890	979
978	992	9
979	757	53
980	503	635
981	593	182
982	884	342
983	314	251
984	814	546
985	80	762
986	429	668
987	780	810
988	655	408
989	315	546
990	289	75
991	40	620
992	317	253
993	758	791
994	162	731
995	901	644
996	674	581
997	370	792
998	439	46
999	729	411
1000	558	457
1001	259	723
DEMAND_SECTION
1	0
2	5
3	1
4	2
5	1
6	6
7	3
8	9
9	3
10	9
11	6
12	1
13	2
14	3
15	9
16	6
17	2
18	2
19	2
20	5
21	9
22	1
23	5
24	8
25	8
26	5
27	9
28	1
29	6
30	5
31	5
32	9
33	2
34	8
35	2
36	6
37	3
38	8
39	4
40	1
41	9
42	5
43	1
44	3
45	3
46	5
47	6
48	4
49	5
50	1
51	8
52	5
53	5
54	3
55	1
56	1
57	8
58	4
59	8
60	9
61	3
62	4
63	7
64	4
65	8
66	7
67	6
68	2
69	5
70	3
71	5
72	9
73	7
74	6
75	7
76	3
77	6
78	8
79	6
80	8
81	3
82	7
83	3
84	1
85	4
86	1
87	8
88	7
89	9
90	8
91	8
92	1
93	5
94	8
95	4
96	7
97	3
98	4
99	6
100	3
101	5
102	8
103	9
104	5
105	6
106	2
107	6
108	8
109	6
110	7
111	1
112	7
113	4
114	5
115	7
116	8
117	8
118	7
119	5
120	2
121	5
122	2
123	8
124	7
125	9
126	8
127	3
128	4
129	7
130	7
131	5
132	8
133	9
134	6
135	8
136	8
137	4
138	1
139	6
140	8
141	7
142	5
143	9
144	2
145	9
146	7
147	7
148	9
149	8
150	4
151	2
152	2
153	8
154	2
155	9
156	4
157	7
158	3
159	6
160	1
161	1
162	5
163	2
164	6
165	2
166	8
167	9
168	5
169	3
170	9
171	4
172	4
173	6
174	4
175	1
176	5
177	3
178	5
179	8
180	2
181	9
182	1
183	7
184	8
185	7
186	5
187	9
188	6
189	1
190	3
191	3
192	1
193	2
194	8
195	8
196	1
197	5
198	6
199	3
200	8
201	2
202	9
203	4
204	8
205	5
206	1
207	7
208	8
209	5
210	9
211	5
212	9
213	2
214	5
215	6
216	3
217	3
218	6
219	9
220	5
221	4
222	2
223	5
224	9
225	5
226	3
227	9
228	6
229	6
230	3
231	9
232	3
233	1
234	3
235	8
236	9
237	7
238	2
239	1
240	6
241	7
242	2
243	4
244	6
245	7
246	8
247	3
248	6
249	5
250	8
251	3
252	8
253	5
254	3
255	7
256	6
257	9
258	2
259	4
260	1
261	9
262	3
263	8
264	8
265	9
266	8
267	3
268	3
269	9
270	5
271	6
272	5
273	8
274	3
275	4
276	1
277	7
278	4
279	9
280	1
281	1
282	5
283	9
284	9
285	5
286	6
287	6
288	5
289	8
290	7
291	7
292	2
293	4
294	1
295	7
296	9
297	8
298	6
299	5
300	6
301	8
302	8
303	4
304	8
305	8
306	8
307	1
308	5
309	9
310	3
311	1
312	5
313	2
314	2
315	3
316	7
317	2
318	7
319	4
320	9
321	8
322	1
323	9
324	5
325	3
326	1
327	8
328	2
329	1
330	3
331	6
332	4
333	2
334	9
335	1
336	6
337	6
338	3
339	7
340	3
341	5
342	7
343	3
344	9
345	2
346	6
347	2
348	9
349	3
350	3
351	4
352	3
353	5
354	8
355	7
356	6
357	8
358	1
359	4
360	1
361	8
362	6
363	8
364	1
365	8
366	7
367	9
368	7
369	9
370	9
371	2
372	4
373	7
374	1
375	1
376	5
377	9
378	6
379	8
380	2
381	9
382	2
383	5
384	2
385	4
386	8
387	3
388	5
389	2
390	7
391	5
392	1
393	9
394	8
395	6
396	1
397	8
398	7
399	8
400	7
401	9
402	7
403	3
404	7
405	5
406	3
407	6
408	4
409	9
410	3
411	6
412	8
413	7
414	7
415	5
416	6
417	7
418	9
419	7
420	2
421	9
422	2
423	1
424	2
425	8
426	9
427	2
428	9
429	5
430	8
431	9
432	4
433	8
434	4
435	8
436	6
437	1
438	1
439	3
440	1
441	9
442	7
443	9
444	1
445	3
446	8
447	1
448	8
449	6
450	7
451	8
452	5
453	1
454	8
455	8
456	6
457	4
458	8
459	9
460	4
461	9
462	4
463	4
464	5
465	2
466	1
467	9
468	4
469	6
470	7
471	4
472	9
473	1
474	4
475	5
476	5
477	9
478	3
479	1
480	3
481	6
482	2
483	7
484	8
485	2
486	4
487	4
488	5
489	5
490	9
491	2
492	4
493	4
494	4
495	2
496	3
497	1
498	5
499	1
500	7
501	7
502	6
503	2
504	1
505	4
506	1
507	4
508	2
509	6
510	8
511	1
512	9
513	9
514	9
515	7
516	7
517	5
518	6
519	1
520	4
521	3
522	9
523	8
524	1
525	9
526	3
527	5
528	6
529	9
530	3
531	2
532	6
533	9
534	1
535	3
536	1
537	8
538	8
539	7
540	7
541	3
542	5
543	7
544	2
545	1
546	8
547	5
548	2
549	2
550	6
551	1
552	7
553	2
554	5
555	2
556	8
557	8
558	1
559	3
560	8
561	1
562	4
563	9
564	3
565	5
566	1
567	3
568	7
569	1
570	8
571	8
572	3
573	5
574	3
575	1
576	4
577	8
578	1
579	4
580	8
581	1
582	4
583	6
584	6
585	5
586	4
587	7
588	6
589	7
590	9
591	2
592	6
593	2
594	3
595	4
596	1
597	9
598	6
599	1
600	7
601	6
602	8
603	2
604	4
605	2
606	4
607	4
608	7
609	9
610	6
611	6
612	1
613	4
614	6
615	3
616	2
617	9
618	8
619	5
620	6
621	9
622	3
623	6
624	5
625	7
626	5
627	4
628	2
629	2
630	8
631	4
632	4
633	6
634	2
635	8
636	5
637	9
638	9
639	7
640	5
641	2
642	5
643	2
644	5
645	4
646	8
647	1
648	8
649	4
650	2
651	6
652	4
653	5
654	2
655	6
656	6
657	5
658	4
659	3
660	9
661	8
662	1
663	6
664	6
665	1
666	1
667	7
668	7
669	1
670	2
671	2
672	2
673	6
674	9
675	9
676	1
677	5
678	5
679	2
680	1
681	5
682	7
683	9
684	4
685	5
686	4
687	6
688	5
689	8
690	1
691	7
692	5
693	1
694	2
695	6
696	2
697	3
698	5
699	5
700	2
701	5
702	9
703	5
704	2
705	5
706	5
707	6
708	6
709	8
710	8
711	4
712	1
713	7
714	2
715	5
716	9
717	8
718	5
719	3
720	3
721	1
722	6
723	4
724	5
725	2
726	5
727	9
728	4
729	2
730	7
731	7
732	8
733	7
734	5
735	4
736	1
737	8
738	4
739	1
740	1
741	9
742	6
743	1
744	4
745	3
746	2
747	8
748	6
749	4
750	3
751	6
752	7
753	6
754	2
755	5
756	8
757	6
758	3
759	8
760	8
761	1
762	2
763	6
764	4
765	3
766	7
767	8
768	5
769	1
770	4
771	2
772	1
773	7
774	7
775	6
776	2
777	5
778	7
779	2
780	1
781	6
782	4
783	5
784	6
785	2
786	5
787	6
788	7
789	5
790	8
791	4
792	4
793	1
794	5
795	5
796	1
797	2
798	2
799	7
800	8
801	8
802	3
803	2
804	2
805	1
806	7
807	5
808	7
809	6
810	2
811	6
812	7
813	9
814	2
815	8
816	9
817	7
818	7
819	6
820	7
821	9
822	5
823	5
824	5
825	8
826	2
827	3
828	7
829	3
830	4
831	9
832	8
833	4
834	9
835	1
836	7
837	8
838	5
839	9
840	4
841	9
842	3
843	5
844	5
845	4
846	2
847	7
848	6
849	5
850	7
851	3
852	3
853	6
854	1
855	5
856	9
857	4
858	3
859	7
860	5
861	7
862	6
863	6
864	2
865	7
866	9
867	5
868	3
869	1
870	9
871	6
872	2
873	3
874	4
875	9
876	7
877	8
878	3
879	4
880	1
881	4
882	7
883	8
884	7
885	4
886	3
887	2
888	8
889	3
890	3
891	1
892	3
893	6
894	2
895	1
896	1
897	5
898	3
899	6
900	6
901	9
902	9
903	5
904	7
905	4
906	5
907	4
908	5
909	1
910	1
911	2
912	4
913	4
914	4
915	2
916	2
917	1
918	2
919	8
920	6
921	4
922	5
923	4
924	7
925	7
926	1
927	2
928	9
929	2
930	9
931	7
932	3
933	2
934	6
935	8
936	8
937	4
938	5
939	6
940	4
941	7
942	7
943	5
944	6
945	8
946	6
947	5
948	5
949	3
950	5
951	1
952	9
953	6
954	2
955	7
956	7
957	5
958	3
959	1
960	1
961	9
962	9
963	1
964	5
965	5
966	2
967	6
968	6
969	4
970	9
971	6
972	6
973	3
974	2
975	3
976	3
977	6
978	3
979	9
980	9
981	9
982	9
983	6
984	3
985	8
986	4
987	1
988	4
989	6
990	2
991	5
992	9
993	3
994	6
995	5
996	7
997	7
998	3
999	2
1000	4
1001	5
DEPOT_SECTION
1
-1
EOF
