NAME : n1001-0045
COMMENT : "Generated by pyvrp_manuel (OVRP)"
TYPE : OVRP
DIMENSION : 1001
EDGE_WEIGHT_TYPE : EUC_2D
CAPACITY : 150
VEHICLES : 1000
OPEN_ROUTE : YES
NODE_COORD_SECTION
1	204	708
2	331	591
3	299	757
4	44	548
5	130	675
6	287	531
7	434	470
8	270	428
9	873	739
10	998	809
11	385	741
12	828	159
13	670	713
14	935	227
15	68	269
16	208	688
17	21	125
18	399	248
19	267	355
20	240	272
21	273	698
22	376	377
23	597	640
24	51	996
25	646	166
26	182	233
27	676	962
28	286	114
29	931	171
30	468	69
31	235	215
32	487	929
33	987	943
34	562	726
35	748	695
36	280	272
37	562	495
38	183	397
39	698	629
40	885	843
41	154	807
42	546	494
43	809	4
44	130	720
45	479	757
46	769	597
47	909	894
48	683	423
49	430	237
50	524	965
51	650	36
52	648	485
53	355	156
54	889	921
55	663	865
56	933	797
57	270	813
58	924	983
59	219	895
60	469	984
61	756	587
62	117	81
63	619	426
64	941	849
65	976	269
66	887	629
67	567	32
68	765	95
69	463	82
70	809	776
71	485	247
72	537	126
73	943	276
74	698	468
75	103	551
76	68	136
77	345	516
78	40	67
79	199	730
80	247	190
81	906	509
82	683	467
83	210	327
84	63	808
85	529	68
86	520	408
87	285	836
88	142	655
89	586	171
90	661	186
91	260	682
92	460	264
93	233	100
94	345	179
95	617	908
96	601	731
97	930	303
98	619	939
99	210	300
100	481	376
101	577	519
102	227	768
103	303	78
104	354	638
105	834	533
106	902	624
107	556	901
108	756	12
109	394	589
110	790	65
111	670	396
112	938	5
113	347	779
114	355	838
115	467	790
116	447	793
117	71	898
118	298	188
119	361	532
120	351	453
121	513	723
122	197	815
123	833	145
124	56	646
125	492	424
126	718	908
127	748	670
128	122	225
129	525	402
130	223	926
131	351	578
132	690	104
133	609	698
134	420	784
135	460	244
136	87	738
137	481	685
138	515	956
139	745	815
140	186	655
141	966	918
142	151	980
143	924	819
144	370	673
145	745	712
146	449	593
147	388	301
148	951	907
149	332	640
150	903	667
151	636	221
152	379	237
153	650	261
154	69	769
155	526	798
156	397	619
157	349	776
158	432	666
159	760	716
160	95	634
161	212	204
162	97	717
163	536	861
164	439	955
165	634	341
166	610	735
167	29	778
168	137	874
169	887	390
170	308	104
171	535	547
172	821	864
173	319	844
174	955	111
175	381	297
176	956	829
177	474	261
178	910	751
179	688	829
180	915	265
181	311	197
182	177	690
183	456	534
184	323	713
185	268	333
186	896	220
187	357	52
188	368	546
189	915	716
190	43	693
191	797	960
192	373	603
193	801	171
194	424	505
195	96	371
196	136	336
197	881	234
198	998	126
199	686	248
200	270	91
201	410	784
202	951	18
203	229	22
204	174	701
205	627	446
206	376	751
207	392	580
208	151	45
209	371	677
210	570	92
211	909	576
212	103	452
213	45	889
214	550	924
215	749	596
216	56	462
217	453	508
218	724	817
219	891	474
220	372	514
221	548	586
222	147	676
223	613	268
224	528	980
225	948	367
226	450	613
227	872	155
228	463	392
229	980	927
230	240	410
231	164	432
232	907	629
233	100	905
234	118	60
235	700	425
236	23	471
237	398	823
238	423	955
239	198	113
240	970	449
241	849	32
242	620	765
243	858	24
244	212	973
245	471	815
246	867	940
247	652	229
248	586	423
249	907	502
250	435	153
251	1	345
252	419	101
253	77	392
254	928	586
255	231	561
256	592	771
257	296	76
258	104	292
259	49	220
260	557	114
261	110	487
262	692	567
263	549	801
264	760	167
265	983	617
266	497	981
267	567	990
268	319	470
269	172	195
270	485	85
271	214	206
272	297	471
273	357	584
274	504	660
275	262	199
276	129	240
277	689	972
278	32	149
279	108	755
280	442	437
281	633	689
282	667	733
283	15	848
284	538	952
285	865	389
286	488	741
287	184	673
288	134	566
289	116	69
290	17	583
291	332	174
292	361	391
293	510	39
294	146	52
295	771	289
296	249	614
297	369	738
298	552	29
299	378	854
300	509	923
301	902	358
302	510	708
303	752	603
304	675	613
305	807	94
306	922	142
307	447	987
308	719	915
309	697	137
310	303	497
311	837	135
312	85	116
313	437	505
314	64	945
315	329	378
316	326	342
317	526	485
318	756	52
319	707	681
320	282	810
321	697	923
322	143	63
323	74	688
324	207	774
325	487	840
326	276	56
327	410	721
328	947	587
329	463	331
330	815	13
331	508	490
332	997	81
333	449	616
334	422	704
335	713	598
336	149	886
337	964	12
338	343	972
339	31	541
340	430	852
341	119	136
342	167	669
343	393	906
344	562	171
345	868	649
346	855	598
347	518	480
348	798	985
349	675	312
350	465	687
351	735	513
352	851	740
353	468	395
354	587	590
355	309	171
356	183	952
357	172	723
358	282	254
359	750	468
360	519	803
361	584	180
362	645	653
363	864	535
364	119	626
365	41	444
366	984	823
367	947	245
368	940	120
369	43	656
370	140	752
371	212	948
372	501	671
373	842	189
374	463	84
375	206	771
376	664	627
377	758	602
378	640	177
379	292	820
380	364	472
381	881	684
382	903	899
383	629	82
384	403	913
385	407	221
386	468	19
387	50	119
388	305	335
389	563	921
390	26	288
391	146	810
392	911	301
393	981	84
394	905	446
395	18	691
396	944	959
397	608	535
398	600	305
399	731	597
400	592	533
401	219	167
402	309	619
403	476	665
404	66	833
405	10	2
406	852	885
407	162	212
408	803	926
409	944	314
410	87	307
411	930	455
412	821	493
413	659	460
414	61	939
415	429	293
416	615	861
417	500	3
418	748	326
419	558	607
420	539	976
421	602	205
422	390	500
423	277	709
424	877	351
425	964	477
426	246	851
427	804	548
428	176	535
429	61	979
430	530	904
431	304	585
432	835	766
433	377	156
434	527	70
435	2	381
436	68	338
437	739	1
438	335	91
439	821	572
440	551	387
441	603	438
442	950	251
443	830	430
444	137	382
445	411	617
446	394	980
447	914	847
448	752	212
449	568	254
450	587	567
451	346	836
452	538	456
453	287	218
454	957	46
455	572	793
456	486	216
457	136	323
458	379	807
459	352	709
460	288	146
461	91	48
462	690	451
463	483	967
464	169	649
465	705	802
466	922	462
467	132	212
468	767	701
469	960	471
470	13	2
471	887	159
472	24	56
473	285	666
474	785	160
475	561	357
476	690	660
477	180	724
478	552	265
479	730	240
480	536	814
481	506	304
482	197	926
483	66	998
484	276	446
485	127	917
486	421	408
487	419	658
488	133	812
489	798	585
490	391	770
491	931	818
492	249	486
493	911	454
494	999	25
495	413	33
496	834	466
497	942	297
498	592	713
499	974	582
500	165	937
501	112	332
502	438	556
503	981	369
504	867	963
505	737	323
506	836	86
507	468	5
508	190	572
509	484	975
510	656	866
511	785	693
512	608	830
513	615	30
514	349	945
515	391	850
516	488	151
517	800	513
518	925	176
519	215	511
520	530	2
521	766	146
522	480	408
523	295	659
524	564	235
525	353	99
526	877	781
527	707	182
528	258	203
529	668	460
530	298	104
531	258	317
532	936	725
533	50	875
534	374	521
535	448	152
536	557	657
537	903	875
538	536	641
539	39	433
540	407	945
541	986	46
542	625	787
543	250	991
544	94	652
545	386	326
546	563	903
547	802	684
548	743	475
549	421	588
550	410	210
551	515	893
552	668	149
553	259	268
554	201	97
555	362	86
556	137	952
557	700	374
558	106	774
559	999	651
560	874	649
561	372	9
562	211	315
563	739	755
564	926	680
565	932	144
566	398	622
567	168	218
568	641	320
569	697	503
570	108	270
571	787	85
572	763	899
573	384	859
574	13	802
575	604	157
576	770	248
577	475	313
578	106	151
579	208	776
580	952	79
581	528	443
582	633	76
583	791	993
584	73	622
585	37	461
586	49	18
587	105	145
588	56	987
589	481	74
590	845	860
591	803	698
592	174	392
593	418	350
594	538	833
595	663	364
596	619	191
597	46	330
598	480	214
599	792	205
600	16	147
601	138	288
602	132	485
603	977	567
604	73	644
605	503	904
606	228	532
607	836	186
608	410	634
609	929	530
610	397	981
611	897	436
612	867	465
613	253	384
614	396	448
615	899	742
616	703	575
617	588	589
618	991	55
619	846	279
620	75	35
621	622	884
622	989	290
623	27	746
624	572	446
625	804	732
626	649	454
627	656	515
628	96	662
629	109	646
630	323	597
631	673	875
632	108	142
633	400	206
634	239	589
635	301	707
636	117	927
637	27	814
638	804	909
639	158	683
640	818	138
641	247	956
642	532	693
643	692	155
644	934	812
645	223	581
646	38	327
647	714	599
648	290	646
649	791	390
650	465	868
651	210	698
652	317	259
653	572	261
654	459	871
655	63	419
656	33	695
657	194	689
658	385	689
659	605	714
660	542	710
661	479	298
662	613	170
663	761	467
664	455	153
665	778	776
666	229	20
667	982	379
668	382	702
669	949	378
670	414	208
671	710	422
672	266	326
673	981	372
674	801	162
675	933	432
676	639	862
677	844	973
678	674	303
679	978	16
680	665	521
681	941	179
682	541	968
683	665	605
684	205	452
685	549	771
686	250	429
687	424	527
688	496	396
689	52	955
690	670	884
691	630	443
692	668	834
693	413	3
694	433	675
695	342	826
696	132	876
697	322	466
698	731	333
699	296	893
700	62	573
701	560	965
702	393	331
703	197	603
704	947	283
705	12	198
706	551	45
707	101	569
708	86	922
709	715	478
710	777	592
711	174	257
712	992	650
713	845	80
714	304	989
715	178	130
716	688	347
717	124	335
718	940	677
719	149	668
720	102	334
721	706	566
722	137	764
723	815	331
724	214	414
725	544	478
726	896	212
727	8	500
728	690	939
729	910	239
730	616	703
731	332	672
732	793	367
733	371	947
734	215	290
735	680	976
736	190	693
737	418	278
738	580	231
739	36	906
740	982	129
741	216	153
742	835	323
743	716	718
744	741	910
745	592	703
746	187	935
747	574	249
748	260	416
749	25	155
750	995	966
751	26	403
752	97	555
753	517	373
754	221	621
755	279	850
756	974	46
757	18	608
758	360	214
759	232	199
760	86	371
761	513	976
762	193	228
763	977	962
764	131	541
765	956	628
766	209	84
767	492	951
768	531	435
769	922	160
770	691	788
771	73	685
772	878	794
773	356	458
774	608	690
775	841	273
776	727	203
777	292	842
778	462	182
779	56	666
780	816	858
781	685	283
782	897	108
783	293	395
784	3	565
785	993	712
786	411	764
787	311	153
788	549	61
789	4	184
790	555	393
791	604	592
792	884	24
793	750	978
794	988	154
795	153	779
796	909	50
797	469	673
798	202	295
799	38	567
800	5	275
801	161	40
802	443	232
803	289	262
804	45	435
805	742	212
806	491	920
807	227	474
808	792	384
809	717	529
810	420	617
811	981	950
812	767	241
813	170	795
814	620	561
815	61	328
816	306	121
817	703	569
818	329	686
819	308	983
820	664	751
821	234	531
822	222	437
823	22	446
824	563	847
825	172	608
826	318	732
827	56	579
828	297	256
829	955	447
830	370	17
831	139	111
832	334	458
833	587	318
834	712	400
835	0	90
836	102	196
837	292	701
838	560	401
839	248	273
840	355	361
841	732	467
842	763	678
843	820	478
844	295	697
845	645	488
846	182	514
847	427	931
848	253	599
849	368	165
850	468	214
851	900	537
852	172	396
853	3	679
854	131	879
855	184	448
856	296	189
857	36	707
858	436	846
859	966	917
860	400	361
861	634	810
862	65	295
863	560	899
864	25	558
865	415	919
866	646	657
867	199	130
868	172	430
869	548	307
870	456	474
871	792	248
872	202	362
873	998	332
874	312	253
875	171	359
876	782	680
877	704	438
878	964	856
879	842	947
880	780	877
881	588	833
882	687	554
883	128	899
884	450	542
885	346	495
886	843	941
887	481	271
888	682	434
889	750	679
890	162	311
891	499	426
892	904	198
893	226	207
894	111	379
895	362	651
896	327	45
897	809	766
898	669	804
899	471	877
900	22	518
901	505	31
902	563	815
903	418	207
904	643	465
905	955	970
906	608	522
907	273	664
908	688	365
909	431	902
910	900	152
911	102	125
912	128	379
913	459	988
914	770	141
915	253	164
916	63	119
917	832	589
918	246	997
919	288	288
920	287	342
921	204	885
922	872	754
923	109	661
924	812	46
925	431	94
926	849	717
927	992	733
928	874	131
929	543	38
930	366	798
931	427	948
932	217	435
933	446	832
934	457	387
935	604	632
936	45	930
937	577	832
938	579	170
939	370	965
940	373	943
941	925	665
942	233	604
943	906	127
944	551	867
945	398	745
946	164	537
947	407	709
948	815	139
949	340	253
950	464	30
951	719	251
952	669	156
953	843	308
954	266	126
955	552	28
956	993	962
957	864	331
958	925	599
959	130	241
960	405	312
961	642	848
962	770	276
963	422	345
964	56	741
965	83	312
966	284	299
967	489	279
968	86	544
969	313	845
970	729	28
971	879	350
972	264	492
973	816	977
974	8	984
975	949	262
976	512	429
977	43	545
978	271	23
979	337	440
980	87	656
981	228	337
982	626	202
983	202	158
984	426	939
985	243	971
986	85	126
987	94	908
988	403	357
989	683	294
990	571	32
991	26	564
992	692	20
993	865	830
994	361	470
995	547	825
996	309	258
997	334	996
998	82	275
999	317	506
1000	299	428
1001	191	557
DEMAND_SECTION
1	0
2	7
3	1
4	8
5	2
6	3
7	6
8	4
9	6
10	8
11	9
12	6
13	2
14	2
15	5
16	4
17	1
18	3
19	3
20	2
21	7
22	7
23	7
24	9
25	1
26	5
27	5
28	9
29	5
30	7
31	6
32	9
33	9
34	6
35	5
36	1
37	2
38	8
39	6
40	6
41	6
42	1
43	7
44	6
45	7
46	3
47	1
48	9
49	4
50	9
51	3
52	1
53	1
54	6
55	9
56	9
57	8
58	1
59	8
60	6
61	6
62	9
63	2
64	8
65	6
66	6
67	4
68	1
69	8
70	1
71	7
72	8
73	3
74	3
75	8
76	2
77	4
78	4
79	9
80	6
81	9
82	2
83	5
84	5
85	4
86	1
87	2
88	4
89	4
90	8
91	4
92	3
93	9
94	4
95	4
96	7
97	7
98	6
99	2
100	1
101	9
102	2
103	4
104	9
105	7
106	4
107	6
108	9
109	7
110	9
111	7
112	1
113	4
114	7
115	8
116	9
117	7
118	1
119	5
120	4
121	4
122	5
123	6
124	4
125	2
126	9
127	5
128	8
129	7
130	8
131	3
132	7
133	7
134	9
135	6
136	1
137	1
138	2
139	7
140	9
141	3
142	3
143	8
144	3
145	3
146	9
147	4
148	1
149	2
150	4
151	6
152	3
153	9
154	8
155	6
156	5
157	2
158	2
159	7
160	3
161	7
162	9
163	8
164	2
165	4
166	1
167	3
168	5
169	7
170	6
171	5
172	1
173	3
174	7
175	4
176	6
177	6
178	6
179	4
180	7
181	8
182	8
183	5
184	5
185	5
186	5
187	2
188	3
189	9
190	8
191	5
192	8
193	2
194	4
195	4
196	1
197	3
198	9
199	4
200	8
201	3
202	2
203	1
204	7
205	1
206	3
207	7
208	9
209	5
210	3
211	5
212	7
213	2
214	5
215	9
216	3
217	2
218	4
219	3
220	7
221	4
222	9
223	5
224	1
225	3
226	5
227	9
228	6
229	9
230	8
231	3
232	6
233	7
234	1
235	7
236	7
237	7
238	4
239	2
240	7
241	2
242	7
243	1
244	2
245	6
246	4
247	8
248	5
249	9
250	7
251	2
252	2
253	8
254	4
255	8
256	9
257	1
258	5
259	8
260	3
261	3
262	8
263	2
264	6
265	2
266	1
267	9
268	3
269	6
270	3
271	4
272	1
273	4
274	4
275	8
276	5
277	3
278	3
279	7
280	2
281	9
282	7
283	9
284	1
285	4
286	7
287	4
288	3
289	5
290	9
291	6
292	2
293	1
294	2
295	4
296	4
297	8
298	2
299	1
300	7
301	7
302	3
303	5
304	5
305	6
306	5
307	9
308	5
309	5
310	5
311	1
312	7
313	6
314	5
315	4
316	6
317	7
318	2
319	7
320	4
321	8
322	9
323	6
324	5
325	5
326	2
327	5
328	2
329	1
330	9
331	3
332	5
333	3
334	4
335	4
336	6
337	6
338	5
339	4
340	9
341	2
342	7
343	5
344	9
345	1
346	6
347	4
348	2
349	5
350	3
351	4
352	5
353	7
354	7
355	5
356	6
357	4
358	6
359	3
360	2
361	7
362	1
363	9
364	5
365	5
366	5
367	9
368	7
369	4
370	5
371	3
372	4
373	4
374	9
375	4
376	4
377	7
378	3
379	4
380	5
381	4
382	1
383	9
384	7
385	1
386	3
387	3
388	6
389	1
390	8
391	8
392	1
393	6
394	2
395	5
396	7
397	9
398	4
399	3
400	4
401	9
402	8
403	5
404	6
405	6
406	4
407	5
408	5
409	2
410	4
411	7
412	5
413	5
414	7
415	5
416	6
417	6
418	4
419	9
420	6
421	3
422	3
423	7
424	7
425	7
426	2
427	4
428	6
429	8
430	6
431	5
432	4
433	3
434	1
435	3
436	9
437	8
438	6
439	8
440	5
441	8
442	4
443	4
444	5
445	8
446	8
447	5
448	5
449	1
450	3
451	5
452	7
453	4
454	5
455	4
456	5
457	7
458	7
459	4
460	6
461	8
462	1
463	9
464	4
465	4
466	5
467	3
468	1
469	3
470	7
471	4
472	2
473	1
474	6
475	8
476	1
477	2
478	4
479	2
480	4
481	7
482	8
483	8
484	9
485	1
486	1
487	5
488	6
489	2
490	2
491	9
492	2
493	1
494	1
495	7
496	8
497	7
498	8
499	8
500	9
501	2
502	7
503	2
504	1
505	4
506	3
507	1
508	2
509	7
510	1
511	5
512	3
513	9
514	9
515	7
516	1
517	5
518	1
519	3
520	2
521	5
522	5
523	9
524	7
525	9
526	9
527	3
528	2
529	5
530	1
531	9
532	2
533	6
534	1
535	8
536	9
537	5
538	6
539	2
540	1
541	6
542	7
543	5
544	1
545	4
546	6
547	7
548	4
549	5
550	6
551	4
552	4
553	3
554	5
555	9
556	3
557	2
558	6
559	9
560	6
561	6
562	9
563	1
564	2
565	1
566	7
567	5
568	6
569	4
570	6
571	2
572	5
573	6
574	5
575	4
576	6
577	9
578	1
579	7
580	7
581	1
582	6
583	3
584	3
585	4
586	1
587	4
588	5
589	7
590	3
591	8
592	9
593	3
594	9
595	3
596	3
597	6
598	9
599	5
600	6
601	2
602	9
603	5
604	5
605	2
606	5
607	6
608	4
609	9
610	8
611	6
612	8
613	8
614	4
615	8
616	6
617	2
618	8
619	3
620	7
621	9
622	3
623	1
624	1
625	8
626	3
627	7
628	6
629	8
630	8
631	9
632	1
633	5
634	3
635	3
636	7
637	7
638	5
639	3
640	1
641	7
642	1
643	3
644	5
645	7
646	2
647	7
648	6
649	5
650	9
651	9
652	2
653	8
654	2
655	9
656	4
657	9
658	9
659	8
660	3
661	6
662	5
663	6
664	5
665	3
666	1
667	3
668	3
669	2
670	9
671	3
672	5
673	3
674	6
675	5
676	7
677	1
678	9
679	6
680	6
681	2
682	1
683	9
684	5
685	3
686	4
687	3
688	5
689	2
690	9
691	5
692	8
693	1
694	5
695	6
696	9
697	3
698	7
699	2
700	1
701	2
702	5
703	5
704	8
705	1
706	7
707	4
708	7
709	5
710	4
711	1
712	8
713	8
714	7
715	4
716	8
717	8
718	1
719	9
720	5
721	1
722	2
723	3
724	4
725	6
726	6
727	1
728	3
729	2
730	7
731	2
732	6
733	5
734	9
735	6
736	4
737	7
738	5
739	4
740	9
741	3
742	5
743	4
744	1
745	7
746	2
747	3
748	6
749	8
750	5
751	4
752	1
753	9
754	3
755	7
756	8
757	5
758	7
759	7
760	9
761	4
762	6
763	6
764	9
765	6
766	5
767	6
768	9
769	1
770	9
771	6
772	9
773	2
774	4
775	3
776	4
777	3
778	9
779	1
780	9
781	2
782	9
783	7
784	6
785	2
786	9
787	7
788	3
789	8
790	8
791	7
792	7
793	5
794	9
795	4
796	7
797	7
798	2
799	9
800	2
801	4
802	4
803	5
804	9
805	6
806	7
807	2
808	9
809	2
810	3
811	1
812	7
813	7
814	6
815	9
816	6
817	7
818	9
819	4
820	4
821	3
822	4
823	2
824	1
825	6
826	8
827	8
828	4
829	9
830	9
831	8
832	7
833	4
834	3
835	4
836	6
837	6
838	8
839	2
840	5
841	8
842	4
843	7
844	7
845	1
846	3
847	1
848	8
849	1
850	8
851	7
852	9
853	6
854	2
855	6
856	5
857	1
858	8
859	4
860	3
861	8
862	2
863	1
864	9
865	5
866	7
867	9
868	4
869	9
870	8
871	4
872	6
873	9
874	1
875	5
876	8
877	6
878	2
879	4
880	8
881	9
882	1
883	9
884	1
885	9
886	4
887	6
888	3
889	1
890	7
891	5
892	1
893	5
894	3
895	1
896	1
897	5
898	5
899	2
900	4
901	1
902	9
903	8
904	9
905	5
906	2
907	3
908	7
909	1
910	3
911	6
912	7
913	2
914	8
915	2
916	9
917	1
918	1
919	8
920	6
921	9
922	5
923	4
924	8
925	6
926	6
927	3
928	6
929	3
930	1
931	3
932	7
933	3
934	7
935	5
936	8
937	7
938	9
939	9
940	6
941	1
942	2
943	4
944	9
945	5
946	9
947	8
948	9
949	2
950	9
951	4
952	6
953	1
954	8
955	1
956	6
957	2
958	9
959	2
960	9
961	1
962	9
963	4
964	7
965	3
966	9
967	2
968	3
969	2
970	3
971	4
972	4
973	9
974	9
975	4
976	9
977	4
978	2
979	6
980	2
981	8
982	9
983	4
984	5
985	4
986	2
987	9
988	5
989	8
990	3
991	9
992	3
993	9
994	1
995	8
996	1
997	7
998	8
999	9
1000	3
1001	5
DEPOT_SECTION
1
-1
EOF
