NAME : n1001-0003
COMMENT : "Generated by pyvrp_manuel (VRPTW)"
TYPE : VRPTW
DIMENSION : 1001
EDGE_WEIGHT_TYPE : EUC_2D
CAPACITY : 150
VEHICLES : 1000
SERVICE_TIME : 200
NODE_COORD_SECTION
1	233	902
2	14	31
3	972	807
4	592	556
5	493	759
6	46	566
7	872	712
8	588	982
9	25	382
10	11	597
11	330	659
12	244	486
13	31	885
14	48	118
15	900	196
16	340	768
17	188	99
18	516	413
19	160	812
20	378	404
21	387	595
22	322	483
23	374	288
24	919	719
25	16	278
26	921	989
27	615	712
28	668	818
29	883	9
30	663	380
31	794	688
32	891	987
33	406	994
34	809	593
35	402	602
36	603	708
37	924	461
38	592	660
39	443	438
40	516	386
41	17	171
42	250	569
43	980	598
44	758	25
45	294	29
46	1000	489
47	236	500
48	365	483
49	855	140
50	551	906
51	648	687
52	463	239
53	918	112
54	518	277
55	888	895
56	564	694
57	16	143
58	800	922
59	474	998
60	117	309
61	853	684
62	798	517
63	834	594
64	333	412
65	580	41
66	358	589
67	732	785
68	443	607
69	606	308
70	21	702
71	892	436
72	77	640
73	867	665
74	279	202
75	565	945
76	26	984
77	425	631
78	770	934
79	189	925
80	815	766
81	761	420
82	468	143
83	346	580
84	760	117
85	58	298
86	921	246
87	184	665
88	422	725
89	546	776
90	882	391
91	922	22
92	585	324
93	581	550
94	962	795
95	759	865
96	991	995
97	305	766
98	20	313
99	718	744
100	570	115
101	607	993
102	732	636
103	943	512
104	514	788
105	89	938
106	570	774
107	941	149
108	913	444
109	855	890
110	526	160
111	413	601
112	806	103
113	188	372
114	202	399
115	388	783
116	640	458
117	548	795
118	476	320
119	703	639
120	378	542
121	980	592
122	726	778
123	883	374
124	894	842
125	67	894
126	528	51
127	823	646
128	37	934
129	3	377
130	626	626
131	934	888
132	135	846
133	877	674
134	632	803
135	297	84
136	870	962
137	708	776
138	589	888
139	307	762
140	841	217
141	166	741
142	679	684
143	39	562
144	235	333
145	94	931
146	765	903
147	597	321
148	554	501
149	964	860
150	806	964
151	925	774
152	76	587
153	591	134
154	216	66
155	519	921
156	412	126
157	425	4
158	581	635
159	747	970
160	745	223
161	223	243
162	783	614
163	295	726
164	499	551
165	220	397
166	914	514
167	660	213
168	569	549
169	446	233
170	594	813
171	329	859
172	7	782
173	64	194
174	558	501
175	166	347
176	877	813
177	435	629
178	693	73
179	793	602
180	160	245
181	702	959
182	557	835
183	483	856
184	90	270
185	316	790
186	331	93
187	179	406
188	79	179
189	96	787
190	528	703
191	627	950
192	349	750
193	261	576
194	802	30
195	829	508
196	416	199
197	209	720
198	644	942
199	384	676
200	610	294
201	86	308
202	89	308
203	497	106
204	8	360
205	486	685
206	444	590
207	54	294
208	69	528
209	251	976
210	740	629
211	84	108
212	292	215
213	313	209
214	200	871
215	576	58
216	734	623
217	638	256
218	853	842
219	124	220
220	671	620
221	767	296
222	656	762
223	801	439
224	352	777
225	178	923
226	875	734
227	407	343
228	1	644
229	209	638
230	127	904
231	583	10
232	797	991
233	133	858
234	948	841
235	4	262
236	127	279
237	909	917
238	955	2
239	626	525
240	954	178
241	45	18
242	797	348
243	760	950
244	277	915
245	887	557
246	784	412
247	693	511
248	526	161
249	527	385
250	761	729
251	83	674
252	172	571
253	557	84
254	680	501
255	715	188
256	539	494
257	548	198
258	640	619
259	608	488
260	464	239
261	251	101
262	476	743
263	106	894
264	504	604
265	701	357
266	316	35
267	788	37
268	882	621
269	255	497
270	497	402
271	769	345
272	881	286
273	723	760
274	824	987
275	873	931
276	265	815
277	172	199
278	393	192
279	653	482
280	969	5
281	658	973
282	107	977
283	781	507
284	632	926
285	231	807
286	461	535
287	851	701
288	215	138
289	673	920
290	46	649
291	81	989
292	423	254
293	2	687
294	297	411
295	57	332
296	584	915
297	611	934
298	122	125
299	118	360
300	751	285
301	777	273
302	478	207
303	30	815
304	517	645
305	481	790
306	738	772
307	900	870
308	142	199
309	453	106
310	375	388
311	464	826
312	844	154
313	735	587
314	636	965
315	584	82
316	396	575
317	100	511
318	302	264
319	252	521
320	30	431
321	76	540
322	271	290
323	560	332
324	389	680
325	97	668
326	116	854
327	494	577
328	111	935
329	18	338
330	558	736
331	175	866
332	476	712
333	816	365
334	623	841
335	445	352
336	173	462
337	216	969
338	868	592
339	962	303
340	478	231
341	146	170
342	716	260
343	377	663
344	556	565
345	472	955
346	676	774
347	733	302
348	626	58
349	541	311
350	129	430
351	945	552
352	945	477
353	835	355
354	130	748
355	531	806
356	72	920
357	811	149
358	675	464
359	221	856
360	13	108
361	922	461
362	467	60
363	517	691
364	962	416
365	432	663
366	730	312
367	758	476
368	571	869
369	773	321
370	80	261
371	35	379
372	122	327
373	800	970
374	185	244
375	235	303
376	720	517
377	899	680
378	610	634
379	170	621
380	540	0
381	182	443
382	685	356
383	460	232
384	29	484
385	792	382
386	569	28
387	660	173
388	442	229
389	783	583
390	825	141
391	121	246
392	104	909
393	725	880
394	490	141
395	314	584
396	941	6
397	372	807
398	897	185
399	172	25
400	685	21
401	250	395
402	645	980
403	276	283
404	789	230
405	697	751
406	52	256
407	406	479
408	259	736
409	883	165
410	547	102
411	444	107
412	615	906
413	780	803
414	864	560
415	853	219
416	505	3
417	661	167
418	727	986
419	288	719
420	422	328
421	241	495
422	329	718
423	30	533
424	190	877
425	292	596
426	153	230
427	840	685
428	859	34
429	384	709
430	644	482
431	72	244
432	657	985
433	639	495
434	517	510
435	224	606
436	590	213
437	0	427
438	44	340
439	665	504
440	644	843
441	153	52
442	705	716
443	62	4
444	858	359
445	694	329
446	774	834
447	68	760
448	583	824
449	391	767
450	561	64
451	290	700
452	241	493
453	124	752
454	914	319
455	958	248
456	553	555
457	762	768
458	531	958
459	548	896
460	960	999
461	875	168
462	672	435
463	792	499
464	191	475
465	159	43
466	220	808
467	268	806
468	188	792
469	462	324
470	124	324
471	804	128
472	854	20
473	373	792
474	768	280
475	842	98
476	882	710
477	164	997
478	499	911
479	933	321
480	524	987
481	176	992
482	201	524
483	611	948
484	891	361
485	125	819
486	341	831
487	388	259
488	644	367
489	659	46
490	754	920
491	50	934
492	801	284
493	998	392
494	210	568
495	243	535
496	180	90
497	351	681
498	87	193
499	40	925
500	264	290
501	393	453
502	352	835
503	176	918
504	557	524
505	57	177
506	869	329
507	162	386
508	357	892
509	998	172
510	639	330
511	40	332
512	302	550
513	906	276
514	783	926
515	412	325
516	471	809
517	39	318
518	543	96
519	930	931
520	208	909
521	599	349
522	235	785
523	927	756
524	769	291
525	125	21
526	464	547
527	529	587
528	687	8
529	512	100
530	119	527
531	400	675
532	317	186
533	869	212
534	294	885
535	621	691
536	209	330
537	496	408
538	56	237
539	936	326
540	905	573
541	731	452
542	524	964
543	544	779
544	89	874
545	387	757
546	208	268
547	428	492
548	601	39
549	903	785
550	393	475
551	936	746
552	944	619
553	171	814
554	873	162
555	438	491
556	971	105
557	271	906
558	193	220
559	85	228
560	832	760
561	875	820
562	841	50
563	155	404
564	490	783
565	779	450
566	520	994
567	980	166
568	402	457
569	832	527
570	337	517
571	310	324
572	244	254
573	369	545
574	494	979
575	983	348
576	813	788
577	474	243
578	919	547
579	40	928
580	70	947
581	612	624
582	401	124
583	564	42
584	172	43
585	669	289
586	705	460
587	270	667
588	914	673
589	249	190
590	741	923
591	336	866
592	87	228
593	736	533
594	357	903
595	837	916
596	789	400
597	563	229
598	891	394
599	834	745
600	349	402
601	176	167
602	11	58
603	602	504
604	364	185
605	986	743
606	904	356
607	809	236
608	116	938
609	768	826
610	204	538
611	973	4
612	126	867
613	249	257
614	96	717
615	586	862
616	870	930
617	433	564
618	42	423
619	481	454
620	660	919
621	35	106
622	737	513
623	472	148
624	843	384
625	949	773
626	93	975
627	101	259
628	768	316
629	54	481
630	497	508
631	228	745
632	277	18
633	133	250
634	854	630
635	320	187
636	720	10
637	790	643
638	549	116
639	662	404
640	340	928
641	739	797
642	957	759
643	573	819
644	918	750
645	817	432
646	619	816
647	574	346
648	561	592
649	196	151
650	911	378
651	535	386
652	390	87
653	757	837
654	893	23
655	635	185
656	899	673
657	560	206
658	573	273
659	44	970
660	218	126
661	538	356
662	321	438
663	473	105
664	426	828
665	206	268
666	698	904
667	426	537
668	370	835
669	860	659
670	386	496
671	33	339
672	351	21
673	610	872
674	249	321
675	927	830
676	99	720
677	418	3
678	932	756
679	467	749
680	272	7
681	590	902
682	246	139
683	794	432
684	396	248
685	102	437
686	437	982
687	693	114
688	969	687
689	900	966
690	55	81
691	140	428
692	862	733
693	115	471
694	308	201
695	6	494
696	507	613
697	968	881
698	247	49
699	726	314
700	424	85
701	534	369
702	996	610
703	877	117
704	447	248
705	615	129
706	714	860
707	87	416
708	21	278
709	757	693
710	687	80
711	452	722
712	603	151
713	165	626
714	555	122
715	932	721
716	607	498
717	494	478
718	137	344
719	961	343
720	930	259
721	876	744
722	77	946
723	264	298
724	173	31
725	521	109
726	914	474
727	798	385
728	401	934
729	82	446
730	268	917
731	547	99
732	625	599
733	954	760
734	210	778
735	177	534
736	407	6
737	465	867
738	125	655
739	843	655
740	866	710
741	167	562
742	332	891
743	752	843
744	242	586
745	697	265
746	425	868
747	315	414
748	955	241
749	465	243
750	503	999
751	728	426
752	969	146
753	11	940
754	656	20
755	24	585
756	386	78
757	832	769
758	918	979
759	674	348
760	694	462
761	310	160
762	95	453
763	927	209
764	299	156
765	738	117
766	925	822
767	186	523
768	853	886
769	364	557
770	258	744
771	883	301
772	644	814
773	447	597
774	403	733
775	426	0
776	727	377
777	321	191
778	526	210
779	215	783
780	300	636
781	928	635
782	786	609
783	929	145
784	213	178
785	429	440
786	419	551
787	490	931
788	460	208
789	430	853
790	890	756
791	243	670
792	829	593
793	645	147
794	341	889
795	542	394
796	682	597
797	615	297
798	606	274
799	895	893
800	926	913
801	415	495
802	122	647
803	661	750
804	388	397
805	459	307
806	394	308
807	952	811
808	461	693
809	787	114
810	287	34
811	327	151
812	741	893
813	342	596
814	349	285
815	566	559
816	432	725
817	351	427
818	923	867
819	99	335
820	631	802
821	860	421
822	13	970
823	820	768
824	863	587
825	804	547
826	497	271
827	302	886
828	370	31
829	886	894
830	977	153
831	596	906
832	474	176
833	493	470
834	968	227
835	400	127
836	934	757
837	768	958
838	295	620
839	949	518
840	339	559
841	258	353
842	93	637
843	95	611
844	354	692
845	112	210
846	42	584
847	323	203
848	185	477
849	451	975
850	809	888
851	119	260
852	176	489
853	897	253
854	806	967
855	937	252
856	735	304
857	0	34
858	81	547
859	184	328
860	841	380
861	949	766
862	963	321
863	854	923
864	778	225
865	410	456
866	438	116
867	999	112
868	479	89
869	358	909
870	719	218
871	824	892
872	370	345
873	566	715
874	678	579
875	235	640
876	529	377
877	931	910
878	584	718
879	352	35
880	625	314
881	179	229
882	450	994
883	569	341
884	630	917
885	903	191
886	480	395
887	32	872
888	399	28
889	701	295
890	83	537
891	24	687
892	989	614
893	996	294
894	913	30
895	798	868
896	697	613
897	557	689
898	717	322
899	460	1000
900	5	258
901	162	186
902	659	914
903	757	773
904	359	153
905	563	802
906	667	345
907	873	784
908	956	978
909	491	264
910	981	619
911	555	951
912	76	165
913	198	975
914	288	703
915	951	164
916	860	652
917	755	53
918	25	249
919	522	904
920	892	759
921	772	411
922	556	34
923	390	699
924	359	223
925	284	876
926	206	241
927	841	7
928	184	260
929	52	327
930	488	321
931	435	363
932	909	26
933	588	4
934	618	696
935	315	435
936	820	27
937	274	882
938	704	579
939	743	167
940	59	598
941	652	399
942	671	182
943	641	3
944	920	881
945	194	548
946	378	678
947	375	928
948	61	167
949	876	471
950	610	690
951	575	73
952	485	626
953	94	934
954	609	699
955	276	694
956	364	619
957	841	111
958	524	326
959	236	493
960	450	336
961	34	701
962	881	272
963	953	457
964	948	648
965	540	899
966	936	276
967	577	965
968	806	189
969	807	268
970	608	574
971	656	198
972	376	116
973	947	539
974	227	471
975	692	749
976	159	215
977	390	160
978	665	224
979	56	163
980	771	854
981	542	492
982	175	298
983	883	514
984	686	487
985	391	641
986	283	843
987	783	632
988	287	482
989	927	42
990	41	356
991	275	163
992	257	877
993	723	19
994	263	746
995	85	963
996	713	297
997	882	26
998	924	907
999	738	159
1000	706	337
1001	169	90
DEMAND_SECTION
1	0
2	4
3	3
4	8
5	6
6	7
7	3
8	9
9	7
10	6
11	7
12	3
13	5
14	7
15	6
16	1
17	3
18	6
19	8
20	1
21	2
22	1
23	6
24	4
25	9
26	4
27	4
28	2
29	1
30	5
31	5
32	5
33	6
34	6
35	6
36	5
37	1
38	9
39	7
40	8
41	6
42	5
43	3
44	7
45	7
46	2
47	1
48	9
49	8
50	6
51	5
52	3
53	5
54	9
55	8
56	9
57	4
58	2
59	3
60	6
61	2
62	6
63	1
64	8
65	6
66	7
67	8
68	3
69	6
70	1
71	5
72	1
73	6
74	2
75	4
76	7
77	5
78	5
79	5
80	7
81	2
82	9
83	3
84	7
85	4
86	9
87	8
88	9
89	6
90	4
91	3
92	1
93	8
94	2
95	7
96	2
97	1
98	2
99	5
100	5
101	4
102	2
103	8
104	8
105	6
106	5
107	9
108	7
109	9
110	6
111	5
112	8
113	1
114	1
115	5
116	4
117	2
118	1
119	4
120	5
121	9
122	3
123	2
124	5
125	9
126	1
127	6
128	4
129	3
130	5
131	3
132	7
133	1
134	3
135	2
136	5
137	2
138	9
139	1
140	2
141	4
142	5
143	9
144	8
145	5
146	3
147	7
148	1
149	1
150	4
151	8
152	4
153	3
154	7
155	8
156	1
157	8
158	9
159	6
160	6
161	1
162	9
163	5
164	3
165	5
166	4
167	6
168	3
169	9
170	2
171	8
172	9
173	8
174	3
175	5
176	5
177	6
178	1
179	3
180	9
181	4
182	8
183	6
184	3
185	2
186	7
187	4
188	8
189	7
190	1
191	8
192	6
193	8
194	5
195	3
196	7
197	6
198	4
199	6
200	4
201	3
202	8
203	9
204	2
205	1
206	2
207	3
208	1
209	2
210	3
211	2
212	4
213	3
214	3
215	4
216	1
217	6
218	8
219	3
220	7
221	3
222	4
223	5
224	8
225	3
226	1
227	7
228	7
229	1
230	4
231	5
232	7
233	2
234	1
235	8
236	8
237	5
238	9
239	5
240	3
241	9
242	8
243	5
244	3
245	5
246	4
247	7
248	7
249	2
250	4
251	5
252	4
253	1
254	8
255	6
256	6
257	6
258	4
259	7
260	3
261	6
262	2
263	6
264	4
265	2
266	5
267	2
268	6
269	9
270	2
271	5
272	7
273	1
274	2
275	9
276	1
277	5
278	6
279	7
280	5
281	1
282	5
283	3
284	2
285	6
286	2
287	1
288	1
289	8
290	9
291	5
292	6
293	3
294	5
295	4
296	2
297	2
298	4
299	4
300	9
301	3
302	4
303	4
304	9
305	6
306	1
307	8
308	4
309	6
310	9
311	6
312	3
313	6
314	6
315	8
316	3
317	7
318	4
319	3
320	9
321	4
322	1
323	8
324	6
325	4
326	1
327	2
328	4
329	9
330	4
331	4
332	3
333	7
334	1
335	8
336	4
337	5
338	3
339	8
340	1
341	6
342	7
343	7
344	9
345	5
346	1
347	8
348	2
349	2
350	1
351	9
352	6
353	3
354	9
355	5
356	2
357	7
358	6
359	9
360	6
361	8
362	2
363	9
364	4
365	4
366	3
367	1
368	8
369	6
370	6
371	7
372	2
373	2
374	9
375	8
376	3
377	4
378	8
379	9
380	3
381	6
382	6
383	8
384	2
385	3
386	4
387	3
388	8
389	4
390	1
391	2
392	3
393	7
394	7
395	5
396	4
397	8
398	3
399	7
400	1
401	3
402	7
403	5
404	5
405	5
406	6
407	4
408	6
409	6
410	1
411	2
412	1
413	7
414	2
415	6
416	5
417	1
418	6
419	6
420	6
421	1
422	5
423	4
424	6
425	8
426	8
427	1
428	2
429	9
430	3
431	5
432	4
433	4
434	2
435	8
436	2
437	1
438	1
439	5
440	6
441	8
442	3
443	7
444	3
445	3
446	6
447	3
448	6
449	5
450	9
451	1
452	3
453	6
454	1
455	9
456	5
457	7
458	6
459	6
460	6
461	6
462	6
463	3
464	7
465	2
466	4
467	5
468	6
469	8
470	9
471	4
472	4
473	2
474	6
475	6
476	4
477	9
478	4
479	1
480	3
481	3
482	2
483	3
484	2
485	9
486	3
487	2
488	4
489	9
490	9
491	6
492	5
493	6
494	4
495	8
496	6
497	3
498	1
499	7
500	1
501	3
502	3
503	7
504	5
505	2
506	7
507	1
508	7
509	5
510	8
511	3
512	1
513	4
514	7
515	1
516	2
517	7
518	8
519	6
520	2
521	4
522	6
523	3
524	3
525	6
526	6
527	7
528	1
529	4
530	2
531	5
532	4
533	8
534	6
535	2
536	1
537	5
538	6
539	6
540	3
541	1
542	7
543	5
544	9
545	4
546	7
547	3
548	8
549	5
550	7
551	7
552	9
553	6
554	3
555	3
556	4
557	3
558	3
559	7
560	7
561	2
562	9
563	9
564	3
565	4
566	1
567	8
568	4
569	3
570	1
571	9
572	6
573	1
574	1
575	1
576	9
577	8
578	9
579	3
580	3
581	1
582	2
583	4
584	7
585	2
586	4
587	8
588	8
589	8
590	2
591	7
592	3
593	3
594	8
595	1
596	2
597	6
598	6
599	3
600	9
601	3
602	7
603	9
604	6
605	9
606	6
607	4
608	2
609	9
610	3
611	6
612	3
613	6
614	4
615	9
616	1
617	1
618	8
619	1
620	6
621	8
622	3
623	3
624	5
625	8
626	8
627	6
628	7
629	4
630	7
631	9
632	1
633	3
634	4
635	1
636	7
637	4
638	4
639	2
640	8
641	8
642	8
643	8
644	9
645	1
646	4
647	8
648	6
649	7
650	1
651	5
652	4
653	8
654	3
655	9
656	6
657	9
658	9
659	8
660	5
661	6
662	9
663	7
664	6
665	4
666	2
667	2
668	5
669	5
670	3
671	9
672	1
673	5
674	9
675	7
676	2
677	3
678	3
679	5
680	1
681	6
682	3
683	9
684	7
685	9
686	7
687	9
688	7
689	4
690	4
691	3
692	2
693	3
694	6
695	3
696	7
697	9
698	8
699	6
700	9
701	6
702	6
703	1
704	2
705	9
706	2
707	6
708	3
709	1
710	5
711	7
712	9
713	5
714	7
715	3
716	3
717	2
718	8
719	8
720	6
721	8
722	6
723	3
724	5
725	3
726	4
727	8
728	8
729	6
730	9
731	4
732	3
733	7
734	1
735	5
736	2
737	5
738	3
739	9
740	9
741	2
742	4
743	6
744	7
745	7
746	8
747	1
748	9
749	2
750	2
751	9
752	9
753	4
754	2
755	2
756	5
757	7
758	8
759	3
760	6
761	8
762	9
763	8
764	9
765	2
766	5
767	1
768	8
769	8
770	1
771	3
772	1
773	7
774	5
775	5
776	6
777	9
778	1
779	6
780	9
781	8
782	4
783	4
784	9
785	9
786	5
787	4
788	8
789	5
790	6
791	6
792	1
793	7
794	4
795	9
796	7
797	1
798	6
799	9
800	9
801	6
802	6
803	8
804	1
805	6
806	2
807	9
808	8
809	6
810	5
811	9
812	4
813	9
814	1
815	5
816	6
817	8
818	4
819	5
820	7
821	4
822	2
823	3
824	3
825	6
826	3
827	7
828	7
829	4
830	8
831	7
832	8
833	1
834	6
835	1
836	3
837	2
838	6
839	8
840	2
841	7
842	8
843	8
844	8
845	9
846	5
847	2
848	7
849	6
850	9
851	7
852	1
853	2
854	3
855	3
856	5
857	2
858	9
859	9
860	9
861	8
862	6
863	9
864	9
865	7
866	8
867	1
868	6
869	6
870	3
871	1
872	8
873	1
874	6
875	9
876	8
877	2
878	7
879	8
880	2
881	6
882	8
883	4
884	2
885	6
886	4
887	4
888	1
889	6
890	2
891	3
892	5
893	2
894	4
895	5
896	9
897	2
898	7
899	7
900	3
901	6
902	7
903	5
904	8
905	4
906	5
907	8
908	1
909	3
910	9
911	3
912	7
913	6
914	2
915	6
916	3
917	7
918	9
919	8
920	1
921	4
922	2
923	5
924	2
925	5
926	2
927	6
928	8
929	2
930	3
931	2
932	7
933	1
934	2
935	6
936	1
937	9
938	5
939	6
940	2
941	9
942	2
943	5
944	5
945	3
946	4
947	3
948	4
949	1
950	6
951	6
952	6
953	1
954	6
955	5
956	8
957	7
958	1
959	2
960	6
961	4
962	6
963	7
964	2
965	9
966	2
967	2
968	2
969	3
970	8
971	5
972	3
973	1
974	3
975	3
976	1
977	6
978	7
979	4
980	6
981	7
982	9
983	1
984	8
985	6
986	2
987	8
988	8
989	6
990	6
991	6
992	3
993	5
994	5
995	3
996	2
997	6
998	2
999	7
1000	7
1001	2
TIME_WINDOW_SECTION
1	0	3000
2	1111	2353
3	438	1924
4	781	1284
5	129	629
6	1219	1769
7	87	1600
8	44	1018
9	1279	2575
10	1332	2648
11	344	944
12	1820	2568
13	868	2300
14	140	1808
15	580	2400
16	0	1158
17	1414	2215
18	1122	2495
19	1359	2069
20	1381	2512
21	87	1318
22	1334	3000
23	1027	1284
24	149	2080
25	969	1373
26	1437	1823
27	1243	3000
28	0	1349
29	337	2034
30	1149	2563
31	1383	2682
32	775	2557
33	1842	2447
34	1650	2493
35	54	657
36	314	561
37	1429	1871
38	0	1097
39	1641	2696
40	1840	2248
41	334	2217
42	1118	1900
43	707	1674
44	989	1504
45	122	1892
46	818	1187
47	1083	1367
48	1541	1907
49	1428	2042
50	1736	1971
51	914	1316
52	1401	2757
53	329	1768
54	1610	2166
55	689	2569
56	331	1831
57	1434	1950
58	812	1183
59	1011	1423
60	1462	1726
61	1895	2259
62	1000	1379
63	431	1968
64	1329	2670
65	901	2617
66	1679	2225
67	672	2155
68	1113	1836
69	1649	2370
70	143	861
71	1591	2087
72	68	1417
73	0	1868
74	1247	1812
75	1489	2521
76	823	2814
77	0	1673
78	399	1319
79	926	2644
80	812	2267
81	1239	2899
82	1330	2006
83	516	1926
84	887	2657
85	1636	2575
86	1011	1855
87	416	2111
88	1994	2600
89	1741	2585
90	540	1542
91	1528	1826
92	204	1443
93	1368	2881
94	1249	1701
95	1456	1818
96	1371	1730
97	436	1788
98	135	1680
99	1177	2017
100	1759	2128
101	307	533
102	1652	1996
103	1206	2097
104	64	1666
105	1008	1764
106	0	1630
107	1159	1685
108	886	2514
109	1487	2506
110	909	2784
111	1535	2453
112	643	2057
113	1683	2624
114	627	1804
115	1469	2149
116	707	1856
117	389	2154
118	0	1615
119	1168	2942
120	69	964
121	1725	2109
122	27	1568
123	426	1930
124	1448	1781
125	1078	2713
126	0	1879
127	1297	2092
128	1615	2845
129	947	1907
130	810	2053
131	223	2079
132	906	1529
133	573	1386
134	506	1975
135	812	2230
136	709	1143
137	629	1601
138	475	2098
139	31	1266
140	1649	2018
141	1032	2720
142	1040	1758
143	943	2034
144	744	2449
145	1636	2536
146	767	1683
147	890	1723
148	409	2223
149	652	1557
150	821	2274
151	1117	2062
152	1503	2859
153	614	1555
154	550	1904
155	1591	2780
156	392	1612
157	1040	2613
158	327	2083
159	869	2004
160	1187	1622
161	505	2126
162	861	2695
163	16	1827
164	1084	1652
165	1410	2129
166	965	1797
167	972	1762
168	0	1517
169	488	1703
170	1538	2512
171	1406	3000
172	10	817
173	1007	1783
174	1578	2083
175	698	2143
176	250	1271
177	1523	1828
178	1100	1305
179	87	1601
180	1316	1564
181	292	1987
182	428	1889
183	0	1453
184	1257	2799
185	2050	3000
186	876	2843
187	600	1007
188	1093	2791
189	1359	1828
190	437	2094
191	1149	2616
192	0	684
193	1684	3000
194	268	1860
195	371	1476
196	972	2110
197	382	2306
198	1043	1797
199	1714	2841
200	957	2489
201	1964	2407
202	1424	1744
203	1081	2524
204	323	1081
205	1383	2059
206	1826	2558
207	1493	1783
208	1673	2582
209	807	2650
210	16	1288
211	907	1550
212	1230	1810
213	208	1511
214	1658	2239
215	906	2000
216	888	1575
217	1211	2559
218	748	2569
219	736	1632
220	586	2217
221	1082	2600
222	994	1787
223	1836	2276
224	1261	1764
225	0	785
226	119	1618
227	629	935
228	0	1935
229	507	2141
230	754	1173
231	773	2247
232	1119	2866
233	204	782
234	692	2002
235	1283	1559
236	1092	2460
237	613	1869
238	1197	1481
239	586	1436
240	1043	2390
241	295	2028
242	1824	2117
243	865	1300
244	1729	1988
245	605	1991
246	1382	2007
247	1108	1463
248	133	1787
249	1367	2322
250	1262	2510
251	1096	1679
252	932	1862
253	888	1202
254	18	1828
255	662	1231
256	268	1808
257	790	2407
258	929	2648
259	1819	2354
260	1111	1870
261	905	1973
262	119	1887
263	0	416
264	1737	2891
265	649	953
266	399	2086
267	437	2335
268	771	1308
269	1027	1553
270	1062	2381
271	1528	2246
272	990	1294
273	0	1188
274	710	1173
275	613	2173
276	1687	3000
277	1168	2517
278	1430	1685
279	1341	1554
280	670	1879
281	398	858
282	842	1888
283	496	1780
284	1751	2574
285	1732	3000
286	1810	2732
287	995	2762
288	772	2365
289	904	2900
290	2063	2736
291	849	1177
292	691	1216
293	948	1415
294	902	1532
295	726	2304
296	42	1399
297	1427	2454
298	534	1586
299	343	915
300	742	2351
301	891	1679
302	1356	2509
303	550	1650
304	1948	2249
305	1548	3000
306	855	2248
307	640	1680
308	1371	1714
309	626	1800
310	614	1518
311	348	1943
312	884	2333
313	432	1061
314	1731	2802
315	739	2711
316	1100	1708
317	510	1040
318	476	1394
319	2062	2758
320	858	1065
321	884	2880
322	1373	2021
323	614	1158
324	140	660
325	0	1192
326	1500	2204
327	414	1185
328	0	1222
329	1541	2532
330	1595	2500
331	1429	2592
332	20	1158
333	740	1254
334	1697	2351
335	1105	1655
336	837	2288
337	0	1106
338	896	1876
339	1246	2140
340	747	2723
341	1194	1450
342	805	2628
343	0	1573
344	323	1987
345	2118	2496
346	99	1672
347	1074	2846
348	1611	1861
349	1214	2808
350	645	1519
351	1162	1497
352	942	2473
353	512	1440
354	1217	2263
355	725	2190
356	1646	2758
357	864	2257
358	654	2166
359	400	2258
360	45	1853
361	1067	2501
362	756	1775
363	1505	2471
364	289	1991
365	13	1660
366	943	2908
367	1660	2053
368	836	1596
369	1154	2614
370	1613	2646
371	476	2013
372	662	1151
373	893	1098
374	419	1725
375	641	2554
376	1293	3000
377	512	2224
378	0	1110
379	185	1843
380	1144	2005
381	463	930
382	331	2172
383	0	1541
384	2119	2468
385	969	1361
386	463	2434
387	1022	1916
388	263	1369
389	1072	2215
390	790	2161
391	1445	2559
392	1261	2850
393	778	1907
394	919	2206
395	919	1327
396	995	1986
397	1961	2711
398	1012	2492
399	1171	1719
400	327	1837
401	680	2345
402	400	1425
403	448	1453
404	315	2304
405	2095	2530
406	232	1704
407	1656	2167
408	270	870
409	507	1973
410	1013	2771
411	901	1697
412	507	1232
413	1219	1640
414	823	1092
415	1041	2692
416	291	1907
417	972	2693
418	1324	3000
419	1529	2821
420	427	1208
421	1017	1377
422	1099	1878
423	1460	2677
424	1379	3000
425	283	1781
426	1305	2663
427	665	1248
428	896	1469
429	1280	2303
430	1108	2358
431	770	1490
432	380	2294
433	1278	2975
434	1053	1300
435	0	880
436	1289	1738
437	1704	2442
438	313	2134
439	158	1077
440	198	1351
441	1176	2033
442	654	1102
443	1266	1698
444	162	2147
445	63	1953
446	761	1728
447	676	1259
448	969	2371
449	171	1747
450	741	2687
451	703	1820
452	1566	2878
453	929	2550
454	897	2419
455	944	1677
456	390	2081
457	684	2292
458	1552	3000
459	0	1471
460	1484	2534
461	589	2094
462	1458	2165
463	871	2508
464	446	2016
465	949	1625
466	0	290
467	1687	2868
468	670	1036
469	1727	2313
470	1515	2408
471	782	1211
472	249	2105
473	1019	2416
474	388	2233
475	562	1675
476	1217	1953
477	903	1537
478	1718	3000
479	1226	2089
480	1339	1658
481	1570	1997
482	1037	2546
483	0	1498
484	504	2226
485	934	2575
486	385	1686
487	765	2692
488	1005	1925
489	847	2265
490	842	1493
491	549	1859
492	1149	2631
493	929	1423
494	946	1699
495	250	1662
496	683	1979
497	1101	2294
498	1546	2015
499	0	947
500	1300	1893
501	1209	3000
502	1442	3000
503	1542	2234
504	651	2308
505	1782	2158
506	833	2151
507	766	2479
508	1548	2734
509	789	1614
510	725	2491
511	1292	1768
512	1443	1857
513	1471	1692
514	1273	2732
515	821	1635
516	0	1030
517	620	1321
518	1397	1697
519	144	1254
520	395	2238
521	189	1216
522	2131	2549
523	692	1037
524	481	2295
525	625	2581
526	1140	1712
527	1636	2793
528	526	2114
529	585	1847
530	350	1779
531	560	1564
532	0	1541
533	583	2312
534	1243	1919
535	841	2013
536	765	2017
537	403	1045
538	337	1549
539	691	1565
540	286	1297
541	1212	1877
542	254	857
543	74	636
544	1008	2585
545	872	1092
546	688	1845
547	1599	2401
548	727	2488
549	686	2346
550	1463	2127
551	1259	1494
552	823	2437
553	0	1088
554	1309	2210
555	1584	1903
556	1538	1748
557	481	2407
558	636	2033
559	618	917
560	167	1089
561	742	2260
562	1029	2456
563	0	1100
564	6	1883
565	1487	2349
566	570	2381
567	789	1874
568	1878	2709
569	1374	2722
570	348	1399
571	1576	1807
572	1304	2191
573	392	1552
574	924	2703
575	966	2430
576	1335	2918
577	551	2506
578	1535	2155
579	1899	2252
580	1736	2519
581	861	2670
582	920	1808
583	739	1557
584	566	1730
585	627	1882
586	1202	1727
587	850	1393
588	1702	2063
589	1490	2058
590	906	1976
591	256	1727
592	280	1631
593	0	1670
594	786	2174
595	604	2167
596	641	1883
597	1190	2537
598	330	1394
599	716	1363
600	478	1451
601	1145	1842
602	0	1871
603	1060	1677
604	916	2286
605	1654	2392
606	1493	1751
607	580	1784
608	1740	3000
609	316	1163
610	642	1085
611	1381	1873
612	1178	1722
613	1555	2036
614	1484	1861
615	1196	2737
616	1583	2051
617	768	2008
618	916	1813
619	1395	2280
620	258	682
621	1181	2171
622	401	1656
623	536	1937
624	614	2466
625	725	2305
626	1027	2094
627	839	1533
628	1075	2593
629	174	1093
630	882	2021
631	1463	3000
632	1035	1748
633	889	2610
634	801	1547
635	575	1609
636	345	1989
637	1098	2143
638	1098	2345
639	838	2386
640	1726	1997
641	228	1730
642	641	1249
643	1365	2328
644	534	1346
645	1304	2793
646	1243	2874
647	1579	2164
648	1512	1920
649	944	1728
650	242	1851
651	210	1178
652	1167	2080
653	729	2205
654	1212	1585
655	57	2032
656	0	1639
657	168	2113
658	1411	2545
659	0	1531
660	1688	2030
661	451	1833
662	0	1740
663	874	1264
664	532	1310
665	679	1136
666	1242	2104
667	1374	2008
668	713	1184
669	908	1750
670	1430	3000
671	313	1709
672	980	2506
673	0	1289
674	610	1979
675	1171	2090
676	405	2381
677	143	2143
678	102	1698
679	0	590
680	1373	1797
681	2030	2509
682	867	1900
683	1277	1573
684	1055	2641
685	870	1270
686	1440	1742
687	352	1690
688	350	1279
689	141	1614
690	531	1804
691	559	2533
692	0	1622
693	563	2209
694	739	1261
695	1410	2732
696	0	1417
697	204	1509
698	1819	2075
699	81	1750
700	589	1402
701	1009	1284
702	1379	1744
703	945	1211
704	213	1205
705	912	1768
706	764	2435
707	1294	2668
708	668	2273
709	331	1853
710	847	1508
711	2032	2955
712	459	1323
713	954	1518
714	1179	1526
715	771	1111
716	0	1609
717	471	1472
718	1695	1938
719	1603	2023
720	455	1688
721	611	2341
722	1039	2240
723	1455	1772
724	1324	2373
725	620	1831
726	156	1724
727	570	1215
728	876	2741
729	0	1111
730	1711	2666
731	919	2211
732	614	1818
733	1287	1760
734	898	2485
735	819	2645
736	853	1652
737	415	2137
738	583	1612
739	826	1356
740	1765	2496
741	0	1707
742	21	1809
743	1717	2300
744	165	971
745	308	2091
746	0	855
747	552	2404
748	1120	2063
749	0	1606
750	372	2093
751	856	2478
752	827	1832
753	1130	1370
754	806	2202
755	699	910
756	316	1443
757	948	1765
758	566	2207
759	664	1735
760	262	1879
761	627	1312
762	185	1187
763	1314	2109
764	562	1484
765	751	1272
766	80	1632
767	0	1148
768	1798	2321
769	639	945
770	1073	2929
771	731	2332
772	1170	1605
773	1637	2191
774	839	1119
775	1566	1984
776	1585	2124
777	1569	1823
778	1419	1828
779	81	1597
780	1650	1966
781	528	2499
782	1282	2354
783	762	2367
784	408	2280
785	652	2441
786	1559	2745
787	32	1092
788	1645	1970
789	53	1302
790	1338	1578
791	2287	2690
792	795	2472
793	372	1879
794	267	1491
795	1555	2408
796	146	1134
797	1102	1499
798	738	1252
799	794	2405
800	622	1486
801	0	1407
802	1717	3000
803	1667	2345
804	40	1065
805	427	2011
806	915	2618
807	505	2133
808	2143	2537
809	560	2549
810	238	2064
811	520	2324
812	0	1574
813	195	2102
814	351	1708
815	382	1516
816	788	2578
817	936	1789
818	1642	2490
819	0	1410
820	42	1250
821	0	1792
822	460	1244
823	271	1422
824	1276	2574
825	128	1693
826	0	1924
827	1035	2502
828	1090	2454
829	399	1569
830	406	1773
831	1483	2037
832	675	1657
833	1007	2028
834	620	2431
835	84	1794
836	541	1295
837	1044	2556
838	1036	1806
839	1142	2070
840	1086	2458
841	1066	1295
842	642	1759
843	1410	1831
844	152	1695
845	441	1713
846	1313	3000
847	1606	1826
848	0	1174
849	2158	2968
850	903	2208
851	983	2388
852	1611	2312
853	252	1946
854	847	2218
855	116	1934
856	961	2027
857	911	1575
858	576	1755
859	1738	2148
860	251	2128
861	166	1311
862	732	1428
863	1057	1856
864	359	1501
865	1186	3000
866	1703	1911
867	586	1883
868	328	2196
869	1854	2421
870	1200	2518
871	0	1460
872	725	2229
873	1241	1811
874	453	788
875	2079	2470
876	928	1843
877	361	1558
878	50	1303
879	1561	2009
880	102	1441
881	1074	1279
882	362	1004
883	957	2561
884	154	1341
885	638	1816
886	82	1909
887	0	1646
888	954	2042
889	731	2340
890	86	776
891	488	829
892	599	1091
893	381	1935
894	387	1960
895	831	2096
896	309	1088
897	1403	2595
898	1371	1806
899	0	1217
900	696	2477
901	1405	2161
902	631	1847
903	1189	2438
904	1082	2936
905	92	1471
906	1351	2632
907	853	2608
908	364	2319
909	1185	1608
910	997	1786
911	1414	1757
912	1029	2606
913	338	1080
914	466	2074
915	998	2176
916	290	2132
917	214	2117
918	961	1622
919	599	1798
920	199	1525
921	379	1601
922	574	2038
923	2005	2729
924	1211	1574
925	984	2101
926	597	1946
927	975	1422
928	1276	2027
929	1234	2023
930	1197	2507
931	773	2541
932	855	2474
933	826	1960
934	1416	2689
935	1858	2732
936	741	1561
937	1477	3000
938	987	1531
939	671	2628
940	1348	2803
941	922	2267
942	852	1710
943	642	1425
944	1122	1720
945	2100	2402
946	1899	2553
947	1057	2453
948	1254	1801
949	1615	2155
950	878	1099
951	798	1307
952	1171	2200
953	1864	2909
954	451	1286
955	1427	2722
956	790	2392
957	825	1976
958	1523	1883
959	124	1909
960	955	2715
961	0	859
962	225	1932
963	1435	2181
964	474	1542
965	146	1941
966	920	1490
967	167	747
968	1187	2233
969	1198	1510
970	1851	2610
971	0	1905
972	1518	1943
973	879	1739
974	1407	2362
975	586	956
976	777	1529
977	364	1635
978	947	1950
979	839	2429
980	453	1105
981	743	1523
982	774	1697
983	76	1466
984	1479	2153
985	1127	1923
986	712	2164
987	1613	2567
988	1012	2288
989	1484	1874
990	1068	1823
991	1592	2076
992	1982	3000
993	872	1932
994	907	2009
995	1548	2858
996	994	2915
997	722	1525
998	218	1595
999	1103	1739
1000	0	1606
1001	1125	2697
DEPOT_SECTION
1
-1
EOF
