NAME : n1001-0044
COMMENT : "Generated by pyvrp_manuel (VRPTW)"
TYPE : VRPTW
DIMENSION : 1001
EDGE_WEIGHT_TYPE : EUC_2D
CAPACITY : 150
VEHICLES : 1000
SERVICE_TIME : 200
NODE_COORD_SECTION
1	658	538
2	630	114
3	266	602
4	947	9
5	593	345
6	978	231
7	0	457
8	486	574
9	785	879
10	400	119
11	218	234
12	381	939
13	934	365
14	111	706
15	320	819
16	783	767
17	974	823
18	411	788
19	898	961
20	776	232
21	998	376
22	730	493
23	852	353
24	539	401
25	609	48
26	289	536
27	333	189
28	55	96
29	742	653
30	981	455
31	446	469
32	309	379
33	863	72
34	588	988
35	905	616
36	535	542
37	221	811
38	373	394
39	53	70
40	336	331
41	953	667
42	370	305
43	498	707
44	1	294
45	720	885
46	911	9
47	914	467
48	974	773
49	233	877
50	426	88
51	623	268
52	41	336
53	853	521
54	194	908
55	799	869
56	926	393
57	453	302
58	940	89
59	849	442
60	53	604
61	357	816
62	581	690
63	80	758
64	909	364
65	377	818
66	32	287
67	31	695
68	620	341
69	827	988
70	95	500
71	667	229
72	31	754
73	292	411
74	69	176
75	617	827
76	568	828
77	419	564
78	25	13
79	969	238
80	815	313
81	1000	78
82	355	839
83	916	48
84	933	263
85	582	569
86	151	427
87	226	363
88	535	458
89	407	583
90	96	757
91	943	226
92	926	732
93	119	986
94	574	622
95	575	376
96	273	458
97	649	717
98	350	182
99	803	578
100	310	948
101	787	151
102	192	503
103	165	692
104	446	67
105	455	409
106	987	375
107	526	619
108	219	958
109	685	279
110	641	962
111	194	270
112	192	656
113	750	370
114	257	691
115	40	807
116	890	358
117	439	311
118	570	800
119	995	934
120	776	825
121	811	452
122	900	901
123	357	762
124	209	569
125	341	211
126	268	194
127	659	938
128	185	257
129	774	343
130	380	441
131	367	252
132	190	141
133	954	174
134	251	135
135	445	698
136	498	193
137	934	382
138	657	694
139	730	306
140	327	126
141	668	200
142	597	140
143	776	727
144	736	580
145	153	672
146	69	234
147	296	537
148	260	186
149	722	30
150	315	548
151	546	973
152	379	717
153	879	389
154	128	176
155	505	263
156	591	488
157	125	186
158	999	270
159	4	610
160	381	652
161	926	218
162	647	765
163	235	116
164	34	108
165	651	860
166	465	82
167	325	909
168	579	687
169	888	676
170	482	528
171	76	829
172	218	894
173	728	470
174	527	529
175	169	456
176	272	874
177	289	565
178	538	147
179	646	811
180	398	329
181	757	781
182	283	767
183	761	872
184	984	552
185	301	570
186	892	168
187	458	693
188	36	684
189	113	241
190	130	911
191	619	195
192	886	353
193	132	389
194	345	77
195	285	17
196	169	48
197	121	449
198	356	264
199	495	64
200	525	911
201	586	529
202	343	455
203	533	316
204	92	635
205	962	794
206	87	966
207	758	177
208	509	652
209	821	929
210	462	788
211	340	953
212	295	997
213	665	248
214	895	140
215	278	221
216	508	577
217	221	513
218	364	442
219	400	875
220	335	953
221	595	288
222	478	630
223	23	681
224	640	206
225	891	594
226	908	653
227	657	828
228	536	773
229	28	192
230	234	288
231	69	875
232	41	123
233	523	890
234	761	913
235	232	384
236	701	951
237	185	393
238	117	260
239	292	838
240	552	514
241	534	355
242	207	468
243	220	989
244	902	144
245	460	971
246	744	770
247	725	902
248	142	717
249	282	846
250	679	934
251	632	89
252	781	360
253	922	32
254	889	472
255	382	827
256	65	361
257	240	353
258	32	575
259	820	975
260	839	798
261	122	766
262	337	4
263	513	334
264	457	390
265	627	363
266	593	87
267	501	326
268	960	703
269	174	147
270	742	46
271	702	744
272	907	849
273	373	310
274	195	610
275	808	494
276	744	869
277	75	245
278	252	859
279	790	71
280	204	672
281	984	7
282	927	827
283	588	451
284	167	188
285	267	164
286	5	410
287	4	959
288	790	396
289	868	726
290	702	128
291	271	815
292	231	972
293	120	186
294	116	153
295	136	59
296	84	512
297	759	483
298	729	257
299	291	81
300	873	606
301	665	427
302	920	325
303	576	164
304	545	299
305	126	847
306	682	849
307	369	579
308	297	66
309	6	777
310	880	557
311	93	947
312	219	166
313	386	236
314	157	544
315	507	196
316	885	132
317	476	594
318	224	476
319	272	102
320	863	588
321	310	229
322	168	575
323	312	513
324	405	437
325	854	478
326	540	131
327	834	274
328	22	931
329	974	509
330	891	39
331	319	383
332	862	539
333	559	70
334	445	445
335	480	991
336	634	900
337	452	73
338	298	992
339	56	89
340	200	331
341	111	624
342	490	147
343	294	863
344	45	128
345	481	887
346	730	821
347	315	468
348	711	707
349	803	693
350	979	622
351	735	676
352	482	577
353	986	229
354	97	48
355	615	537
356	247	960
357	454	1
358	347	868
359	940	73
360	997	754
361	843	520
362	947	966
363	921	206
364	560	773
365	782	514
366	694	81
367	676	217
368	884	338
369	288	866
370	784	681
371	272	107
372	505	73
373	421	635
374	384	771
375	760	197
376	710	790
377	780	887
378	19	206
379	92	210
380	738	681
381	569	55
382	900	633
383	570	664
384	873	914
385	977	724
386	826	269
387	499	896
388	191	959
389	357	319
390	643	344
391	423	292
392	462	755
393	851	533
394	410	828
395	804	997
396	15	756
397	550	996
398	516	63
399	618	154
400	36	700
401	486	198
402	115	241
403	935	454
404	710	609
405	576	589
406	675	238
407	151	369
408	442	537
409	616	587
410	546	751
411	232	273
412	935	328
413	756	807
414	838	752
415	738	485
416	946	565
417	900	666
418	965	175
419	566	253
420	893	889
421	110	707
422	81	692
423	796	395
424	821	448
425	635	724
426	17	607
427	87	977
428	331	727
429	77	347
430	698	657
431	263	934
432	836	662
433	360	913
434	771	707
435	464	512
436	643	687
437	13	338
438	136	957
439	831	193
440	875	373
441	143	619
442	727	974
443	51	564
444	309	159
445	347	176
446	661	813
447	914	589
448	611	44
449	563	712
450	929	934
451	293	73
452	197	525
453	170	864
454	736	131
455	617	352
456	295	642
457	706	480
458	976	991
459	292	962
460	898	945
461	179	34
462	565	653
463	307	152
464	698	118
465	459	276
466	977	566
467	342	475
468	335	648
469	348	968
470	935	588
471	665	17
472	133	895
473	81	207
474	693	202
475	462	564
476	301	118
477	797	954
478	364	649
479	438	630
480	183	693
481	318	621
482	842	211
483	958	717
484	928	404
485	756	206
486	725	654
487	105	956
488	478	466
489	190	996
490	265	190
491	440	597
492	816	804
493	683	95
494	728	965
495	303	618
496	642	114
497	830	196
498	425	874
499	792	549
500	543	329
501	556	11
502	648	122
503	735	850
504	40	608
505	930	65
506	742	656
507	864	626
508	517	759
509	235	520
510	94	111
511	876	62
512	780	803
513	460	120
514	917	245
515	214	541
516	885	312
517	103	924
518	924	432
519	828	812
520	634	293
521	753	8
522	591	289
523	914	602
524	306	947
525	57	288
526	768	78
527	893	905
528	528	545
529	56	173
530	67	927
531	392	815
532	513	49
533	245	957
534	188	81
535	810	689
536	916	203
537	825	805
538	241	769
539	864	37
540	261	322
541	338	345
542	42	338
543	950	774
544	652	656
545	679	750
546	692	821
547	962	41
548	63	150
549	565	673
550	439	829
551	814	787
552	910	610
553	736	700
554	767	952
555	249	347
556	891	276
557	179	698
558	433	348
559	100	613
560	216	306
561	170	752
562	714	248
563	937	805
564	733	800
565	724	599
566	45	953
567	114	656
568	605	94
569	243	729
570	824	713
571	602	907
572	757	777
573	362	664
574	364	559
575	637	183
576	223	915
577	664	267
578	669	208
579	701	619
580	180	678
581	844	741
582	41	151
583	25	9
584	668	943
585	972	515
586	647	233
587	372	113
588	514	740
589	943	866
590	861	753
591	597	485
592	347	262
593	972	749
594	866	488
595	314	194
596	149	26
597	311	656
598	819	658
599	726	790
600	744	306
601	510	860
602	240	765
603	724	167
604	188	287
605	448	405
606	649	961
607	609	613
608	310	638
609	952	806
610	300	286
611	612	924
612	947	315
613	676	312
614	807	506
615	429	10
616	779	911
617	961	689
618	764	975
619	829	761
620	230	426
621	303	910
622	225	533
623	853	922
624	65	994
625	961	387
626	777	546
627	842	356
628	460	367
629	251	200
630	92	208
631	687	627
632	860	574
633	324	698
634	289	33
635	134	918
636	889	210
637	735	208
638	910	546
639	853	776
640	229	882
641	563	101
642	188	165
643	462	820
644	597	465
645	241	512
646	234	494
647	460	406
648	922	878
649	414	734
650	686	501
651	210	108
652	790	682
653	369	93
654	589	859
655	880	800
656	805	724
657	672	62
658	370	727
659	854	434
660	41	38
661	90	858
662	779	312
663	394	233
664	76	417
665	740	668
666	270	51
667	167	172
668	847	431
669	403	678
670	578	25
671	345	938
672	97	832
673	434	99
674	884	307
675	479	982
676	955	834
677	17	55
678	277	295
679	253	106
680	284	394
681	744	18
682	623	509
683	846	788
684	693	267
685	464	209
686	672	130
687	817	627
688	272	493
689	275	78
690	509	689
691	160	31
692	886	895
693	510	740
694	30	484
695	814	424
696	603	262
697	350	642
698	362	815
699	817	495
700	807	180
701	623	479
702	735	955
703	758	365
704	248	164
705	660	914
706	228	323
707	279	276
708	798	692
709	990	613
710	0	115
711	275	53
712	215	106
713	52	858
714	112	936
715	816	987
716	793	597
717	941	226
718	808	864
719	203	76
720	546	553
721	178	364
722	112	840
723	669	481
724	979	8
725	744	666
726	383	623
727	899	688
728	160	588
729	51	178
730	540	138
731	777	949
732	506	875
733	176	257
734	527	625
735	552	14
736	959	986
737	888	998
738	499	63
739	149	586
740	373	18
741	477	741
742	532	748
743	407	728
744	58	252
745	454	553
746	743	744
747	558	19
748	718	130
749	93	285
750	907	672
751	366	735
752	787	140
753	160	21
754	138	430
755	120	455
756	911	827
757	377	491
758	953	819
759	35	209
760	73	232
761	607	848
762	192	344
763	175	356
764	302	763
765	302	614
766	154	811
767	591	829
768	933	283
769	661	454
770	415	442
771	20	84
772	517	829
773	743	489
774	41	693
775	42	148
776	595	796
777	399	639
778	649	648
779	698	42
780	559	283
781	939	774
782	359	545
783	362	993
784	964	553
785	426	263
786	303	930
787	558	686
788	25	916
789	819	718
790	839	622
791	955	421
792	180	315
793	802	63
794	544	377
795	346	49
796	672	107
797	809	249
798	732	641
799	565	888
800	67	766
801	897	47
802	480	772
803	191	23
804	47	915
805	74	118
806	626	506
807	507	365
808	151	283
809	597	187
810	793	862
811	928	919
812	291	125
813	316	374
814	636	527
815	597	851
816	862	889
817	213	180
818	684	976
819	414	336
820	397	824
821	348	599
822	699	782
823	179	73
824	678	914
825	254	197
826	325	773
827	915	155
828	496	948
829	901	764
830	304	651
831	571	279
832	513	525
833	221	3
834	817	74
835	403	810
836	578	141
837	121	85
838	622	312
839	208	934
840	64	952
841	266	142
842	592	638
843	561	8
844	200	945
845	128	447
846	456	235
847	108	133
848	571	527
849	211	466
850	786	998
851	75	274
852	958	890
853	629	932
854	81	737
855	459	67
856	703	991
857	839	488
858	920	467
859	550	113
860	676	596
861	890	196
862	287	803
863	591	49
864	759	845
865	948	451
866	940	236
867	301	196
868	304	386
869	4	820
870	154	575
871	574	802
872	888	724
873	196	575
874	232	674
875	281	511
876	42	862
877	111	827
878	397	982
879	28	997
880	260	356
881	16	173
882	102	619
883	178	146
884	437	133
885	589	915
886	913	407
887	632	298
888	77	256
889	293	54
890	957	56
891	647	955
892	250	209
893	374	271
894	199	628
895	488	306
896	187	22
897	673	423
898	463	732
899	715	795
900	166	146
901	467	615
902	948	465
903	209	301
904	936	763
905	721	14
906	505	187
907	84	953
908	370	509
909	358	397
910	873	602
911	807	893
912	809	508
913	954	962
914	595	171
915	135	222
916	429	487
917	989	591
918	520	986
919	402	751
920	820	536
921	357	249
922	11	300
923	455	797
924	396	363
925	818	41
926	370	877
927	569	493
928	763	416
929	172	500
930	229	291
931	404	34
932	182	521
933	2	470
934	174	890
935	711	718
936	361	312
937	527	963
938	372	793
939	173	240
940	554	824
941	248	952
942	314	205
943	989	373
944	168	270
945	522	166
946	257	221
947	115	280
948	100	710
949	668	417
950	969	903
951	337	597
952	546	339
953	904	965
954	684	941
955	8	987
956	788	453
957	907	50
958	755	197
959	826	704
960	657	394
961	601	522
962	591	718
963	438	213
964	853	461
965	958	839
966	769	653
967	242	446
968	805	560
969	826	915
970	980	991
971	711	294
972	911	881
973	242	262
974	81	857
975	747	209
976	0	681
977	999	715
978	746	241
979	1	654
980	733	242
981	476	233
982	651	750
983	861	500
984	925	947
985	640	674
986	435	760
987	571	178
988	979	510
989	133	248
990	11	560
991	876	547
992	742	94
993	919	476
994	740	601
995	496	121
996	865	191
997	365	383
998	991	203
999	651	715
1000	507	616
1001	372	700
DEMAND_SECTION
1	0
2	6
3	8
4	9
5	6
6	7
7	3
8	6
9	4
10	1
11	6
12	3
13	6
14	8
15	1
16	9
17	4
18	2
19	9
20	9
21	3
22	7
23	2
24	8
25	2
26	8
27	2
28	7
29	5
30	1
31	8
32	7
33	2
34	9
35	2
36	8
37	2
38	1
39	1
40	5
41	8
42	7
43	8
44	2
45	3
46	2
47	6
48	4
49	4
50	4
51	3
52	3
53	9
54	5
55	7
56	6
57	9
58	3
59	4
60	5
61	3
62	7
63	2
64	3
65	4
66	1
67	9
68	2
69	9
70	2
71	1
72	8
73	3
74	3
75	3
76	6
77	1
78	3
79	8
80	1
81	9
82	8
83	9
84	5
85	2
86	7
87	7
88	7
89	7
90	9
91	9
92	1
93	5
94	7
95	5
96	9
97	6
98	5
99	7
100	5
101	8
102	9
103	8
104	3
105	5
106	7
107	7
108	4
109	1
110	3
111	6
112	4
113	6
114	5
115	6
116	8
117	9
118	9
119	4
120	7
121	1
122	4
123	3
124	3
125	3
126	9
127	6
128	9
129	4
130	1
131	1
132	5
133	6
134	4
135	5
136	3
137	6
138	2
139	4
140	4
141	6
142	1
143	1
144	8
145	6
146	9
147	2
148	4
149	6
150	3
151	7
152	9
153	9
154	5
155	1
156	2
157	6
158	7
159	7
160	7
161	9
162	6
163	3
164	7
165	2
166	6
167	4
168	4
169	4
170	1
171	9
172	9
173	7
174	6
175	3
176	6
177	2
178	1
179	5
180	3
181	6
182	4
183	9
184	4
185	9
186	2
187	3
188	8
189	5
190	3
191	9
192	8
193	9
194	4
195	4
196	2
197	8
198	9
199	1
200	3
201	9
202	6
203	2
204	9
205	9
206	5
207	8
208	5
209	8
210	5
211	9
212	6
213	4
214	9
215	7
216	8
217	3
218	8
219	3
220	6
221	7
222	5
223	7
224	2
225	7
226	5
227	7
228	5
229	8
230	5
231	1
232	5
233	4
234	8
235	4
236	1
237	1
238	3
239	7
240	5
241	2
242	8
243	3
244	5
245	7
246	4
247	8
248	1
249	4
250	1
251	3
252	9
253	1
254	8
255	7
256	8
257	6
258	5
259	7
260	8
261	3
262	8
263	1
264	3
265	3
266	6
267	3
268	5
269	5
270	6
271	7
272	2
273	9
274	8
275	1
276	2
277	8
278	3
279	9
280	8
281	5
282	9
283	5
284	6
285	8
286	9
287	4
288	3
289	6
290	2
291	8
292	6
293	5
294	9
295	4
296	4
297	5
298	1
299	8
300	5
301	9
302	7
303	2
304	2
305	2
306	3
307	6
308	7
309	4
310	6
311	6
312	8
313	7
314	3
315	4
316	7
317	2
318	3
319	9
320	1
321	1
322	4
323	3
324	8
325	2
326	6
327	7
328	3
329	5
330	1
331	7
332	1
333	6
334	5
335	2
336	1
337	7
338	2
339	8
340	7
341	3
342	2
343	2
344	5
345	1
346	2
347	5
348	1
349	6
350	9
351	3
352	9
353	1
354	2
355	1
356	7
357	3
358	7
359	3
360	8
361	7
362	1
363	7
364	5
365	8
366	8
367	8
368	6
369	7
370	9
371	6
372	4
373	1
374	2
375	2
376	6
377	3
378	6
379	1
380	6
381	2
382	8
383	3
384	2
385	7
386	3
387	1
388	7
389	7
390	9
391	4
392	9
393	9
394	4
395	5
396	2
397	2
398	1
399	3
400	4
401	4
402	9
403	1
404	7
405	5
406	4
407	8
408	3
409	7
410	7
411	8
412	1
413	4
414	1
415	9
416	2
417	1
418	6
419	1
420	9
421	9
422	6
423	1
424	6
425	8
426	5
427	3
428	7
429	8
430	9
431	7
432	3
433	3
434	9
435	1
436	3
437	9
438	1
439	7
440	4
441	9
442	2
443	6
444	2
445	7
446	1
447	9
448	1
449	4
450	3
451	5
452	8
453	2
454	4
455	2
456	9
457	1
458	4
459	6
460	5
461	2
462	6
463	4
464	7
465	6
466	5
467	8
468	9
469	4
470	8
471	4
472	6
473	1
474	1
475	8
476	1
477	8
478	1
479	5
480	6
481	8
482	7
483	9
484	7
485	7
486	4
487	2
488	1
489	3
490	3
491	6
492	3
493	8
494	2
495	1
496	9
497	7
498	8
499	3
500	5
501	6
502	3
503	7
504	9
505	1
506	2
507	2
508	1
509	9
510	7
511	3
512	3
513	2
514	5
515	6
516	4
517	7
518	7
519	4
520	7
521	6
522	8
523	2
524	4
525	2
526	9
527	1
528	3
529	7
530	5
531	6
532	6
533	1
534	2
535	9
536	8
537	6
538	2
539	8
540	8
541	7
542	8
543	9
544	4
545	7
546	3
547	6
548	5
549	2
550	9
551	9
552	2
553	6
554	3
555	9
556	6
557	5
558	1
559	6
560	9
561	5
562	2
563	4
564	6
565	5
566	9
567	3
568	3
569	5
570	8
571	6
572	4
573	3
574	6
575	6
576	2
577	1
578	5
579	4
580	1
581	7
582	9
583	9
584	5
585	7
586	7
587	8
588	7
589	4
590	6
591	7
592	9
593	5
594	1
595	9
596	6
597	8
598	1
599	4
600	6
601	5
602	2
603	4
604	4
605	3
606	6
607	7
608	4
609	6
610	3
611	8
612	4
613	6
614	2
615	4
616	1
617	1
618	8
619	9
620	7
621	1
622	9
623	3
624	4
625	9
626	1
627	1
628	4
629	7
630	1
631	9
632	2
633	5
634	6
635	4
636	3
637	2
638	8
639	4
640	6
641	5
642	5
643	5
644	4
645	7
646	9
647	6
648	7
649	3
650	1
651	7
652	7
653	3
654	9
655	8
656	2
657	3
658	6
659	7
660	9
661	1
662	5
663	9
664	1
665	5
666	3
667	6
668	2
669	1
670	3
671	9
672	1
673	6
674	4
675	1
676	9
677	3
678	4
679	8
680	6
681	3
682	4
683	1
684	5
685	6
686	4
687	1
688	9
689	9
690	7
691	5
692	2
693	6
694	2
695	1
696	2
697	7
698	5
699	3
700	8
701	1
702	8
703	9
704	3
705	2
706	8
707	3
708	4
709	6
710	9
711	9
712	6
713	6
714	6
715	2
716	9
717	9
718	7
719	7
720	8
721	3
722	6
723	1
724	8
725	7
726	9
727	2
728	6
729	1
730	5
731	9
732	3
733	5
734	4
735	8
736	5
737	7
738	1
739	9
740	1
741	5
742	9
743	6
744	6
745	9
746	2
747	5
748	9
749	7
750	5
751	4
752	6
753	2
754	5
755	4
756	3
757	2
758	3
759	3
760	5
761	4
762	8
763	8
764	1
765	9
766	3
767	3
768	9
769	6
770	4
771	1
772	4
773	7
774	1
775	6
776	1
777	7
778	1
779	8
780	1
781	1
782	8
783	6
784	7
785	1
786	9
787	6
788	6
789	1
790	3
791	4
792	6
793	2
794	9
795	8
796	7
797	7
798	6
799	8
800	5
801	6
802	6
803	5
804	4
805	6
806	1
807	1
808	5
809	6
810	1
811	9
812	7
813	5
814	8
815	5
816	1
817	4
818	3
819	2
820	8
821	5
822	7
823	2
824	6
825	9
826	5
827	8
828	9
829	1
830	8
831	2
832	6
833	6
834	1
835	7
836	9
837	1
838	3
839	3
840	1
841	9
842	4
843	7
844	1
845	6
846	6
847	3
848	1
849	2
850	8
851	3
852	2
853	7
854	7
855	5
856	9
857	6
858	3
859	4
860	2
861	8
862	4
863	4
864	4
865	5
866	1
867	6
868	3
869	4
870	8
871	3
872	6
873	8
874	9
875	6
876	8
877	9
878	8
879	6
880	4
881	9
882	1
883	3
884	4
885	2
886	1
887	3
888	2
889	8
890	5
891	1
892	7
893	6
894	9
895	6
896	3
897	4
898	8
899	4
900	7
901	5
902	8
903	4
904	9
905	2
906	9
907	9
908	9
909	3
910	8
911	8
912	2
913	3
914	2
915	8
916	8
917	8
918	4
919	9
920	7
921	5
922	2
923	8
924	7
925	4
926	5
927	9
928	1
929	6
930	2
931	5
932	9
933	8
934	9
935	4
936	3
937	6
938	7
939	9
940	9
941	4
942	7
943	8
944	4
945	7
946	2
947	8
948	2
949	4
950	8
951	4
952	2
953	7
954	1
955	4
956	5
957	3
958	8
959	3
960	1
961	4
962	9
963	7
964	1
965	1
966	2
967	6
968	1
969	6
970	7
971	3
972	5
973	1
974	1
975	3
976	4
977	6
978	1
979	4
980	2
981	1
982	3
983	6
984	2
985	4
986	3
987	4
988	1
989	5
990	9
991	1
992	3
993	4
994	9
995	9
996	7
997	7
998	3
999	4
1000	9
1001	7
TIME_WINDOW_SECTION
1	0	3000
2	1355	3000
3	0	1812
4	879	2077
5	2193	2991
6	1298	2691
7	1125	1421
8	134	1774
9	0	1277
10	625	2607
11	712	1616
12	583	2533
13	861	1365
14	1725	2169
15	1515	3000
16	1560	3000
17	838	2424
18	1404	2965
19	918	1234
20	0	1200
21	902	2213
22	1983	2538
23	1515	3000
24	0	491
25	846	1993
26	431	2048
27	2092	2365
28	1396	2340
29	0	1262
30	1376	1977
31	1259	3000
32	1499	1895
33	766	1053
34	1194	2782
35	468	817
36	1489	2724
37	893	1226
38	9	1355
39	663	1427
40	68	1114
41	566	1793
42	704	1139
43	0	1353
44	1561	2310
45	798	2549
46	0	1700
47	0	1623
48	1801	2259
49	1337	2418
50	1400	2958
51	663	1467
52	561	2324
53	1792	3000
54	1353	2436
55	1263	2044
56	1240	2821
57	380	2063
58	895	2717
59	0	642
60	562	1773
61	422	2295
62	1749	1994
63	388	1263
64	505	2144
65	1087	1300
66	677	1963
67	930	2230
68	627	1418
69	360	2203
70	273	2070
71	1643	2709
72	1410	2609
73	1521	2870
74	1135	2311
75	890	2613
76	1493	1919
77	507	1447
78	1083	1834
79	0	1227
80	0	1316
81	853	2507
82	126	805
83	966	1386
84	279	948
85	714	2039
86	360	1239
87	62	1191
88	0	1827
89	0	1517
90	785	2327
91	178	1786
92	520	2241
93	1004	1231
94	1823	2842
95	362	1636
96	1034	2799
97	879	2719
98	77	1188
99	823	1915
100	1384	2936
101	562	1241
102	0	1661
103	1534	2775
104	665	1106
105	426	1682
106	1074	1733
107	902	1169
108	1778	2237
109	1775	2177
110	1	1487
111	1204	2244
112	342	903
113	182	814
114	247	1182
115	209	1229
116	1821	2095
117	461	1605
118	1845	2218
119	1024	2770
120	1030	2254
121	0	1152
122	667	1088
123	384	2313
124	1332	1938
125	677	2524
126	0	1587
127	543	1062
128	417	1763
129	336	1194
130	574	1762
131	166	820
132	138	2047
133	609	1369
134	424	1208
135	0	1427
136	0	1611
137	1491	3000
138	926	2137
139	541	1433
140	1231	2617
141	1109	3000
142	927	2816
143	937	1887
144	1267	2543
145	1285	1950
146	1138	2392
147	0	1676
148	880	1506
149	755	1131
150	0	782
151	169	1555
152	743	2576
153	1862	2222
154	79	1918
155	1624	3000
156	1470	2548
157	1186	2225
158	1830	2690
159	436	1852
160	163	1932
161	1649	2949
162	0	912
163	1426	1709
164	266	1414
165	1280	2187
166	1293	2969
167	1010	2640
168	336	1732
169	1948	2161
170	0	1357
171	212	1329
172	101	1091
173	1638	2103
174	0	1120
175	957	2557
176	1071	2378
177	609	2465
178	472	975
179	418	1739
180	0	1523
181	2008	2287
182	1807	2795
183	146	667
184	1386	2904
185	0	1191
186	855	1084
187	797	1655
188	1224	2451
189	661	1019
190	1777	2312
191	1004	2115
192	283	1353
193	609	1182
194	932	1163
195	326	1172
196	699	2555
197	1606	2741
198	171	899
199	1986	2375
200	1750	1999
201	731	1494
202	458	1459
203	0	1147
204	278	1351
205	1202	1466
206	579	1866
207	649	2178
208	1408	1641
209	1326	1874
210	295	2208
211	1164	3000
212	1439	2060
213	0	1336
214	1024	1327
215	489	1796
216	0	1224
217	886	1097
218	1112	3000
219	281	1535
220	275	1283
221	1261	1925
222	240	1350
223	951	2728
224	348	2333
225	1077	2089
226	463	2356
227	1744	2319
228	387	2093
229	880	2776
230	455	931
231	1583	2599
232	1174	1561
233	689	1743
234	994	2871
235	1269	2313
236	1106	1775
237	970	1659
238	1092	2851
239	1064	2121
240	0	1010
241	744	1386
242	354	1837
243	1540	1981
244	506	2366
245	2086	2553
246	1192	2624
247	1209	2854
248	823	2061
249	1020	2708
250	1337	2372
251	595	1830
252	275	1998
253	910	1853
254	1610	2115
255	1380	2599
256	899	1446
257	730	1246
258	218	1785
259	1409	3000
260	1753	2099
261	879	1420
262	1316	2920
263	548	1024
264	1877	2730
265	26	1744
266	325	2062
267	441	702
268	983	1822
269	1363	1800
270	1009	1825
271	570	2147
272	587	1997
273	1178	2123
274	942	1202
275	1909	3000
276	0	1554
277	828	1823
278	612	1081
279	1545	2154
280	1348	2907
281	865	1600
282	2000	2763
283	229	1872
284	1641	2339
285	766	1417
286	888	1762
287	1014	2520
288	578	1305
289	179	615
290	697	921
291	2044	2516
292	981	1816
293	1608	2379
294	0	1810
295	436	990
296	0	1555
297	1339	2909
298	0	1805
299	140	1813
300	1499	3000
301	1367	3000
302	819	2577
303	0	1382
304	43	1298
305	1860	2155
306	623	1767
307	0	1197
308	373	1836
309	1714	1992
310	504	1821
311	1145	2894
312	962	2537
313	564	1418
314	2001	2371
315	1118	1697
316	1109	3000
317	850	2388
318	693	2186
319	831	2804
320	0	1312
321	776	2487
322	1051	2643
323	806	1675
324	1181	2105
325	1114	2228
326	347	1691
327	1896	2609
328	957	1684
329	0	1591
330	0	1387
331	1515	1839
332	288	1785
333	1474	1791
334	2225	2504
335	1412	1619
336	1853	2095
337	789	1644
338	1224	1707
339	1335	1858
340	900	2332
341	26	1276
342	1580	2886
343	1301	2656
344	988	2846
345	1347	3000
346	1652	3000
347	0	1586
348	135	1829
349	1834	3000
350	0	1532
351	733	1637
352	0	1398
353	133	1942
354	839	1061
355	2093	3000
356	1353	2923
357	444	1806
358	114	1996
359	1280	1637
360	748	1218
361	560	1908
362	74	999
363	0	1741
364	1434	2095
365	1538	3000
366	1737	2074
367	960	1311
368	490	770
369	0	1226
370	1737	3000
371	1016	2883
372	480	2246
373	892	2347
374	1684	2661
375	1022	2908
376	663	2468
377	0	1231
378	1229	1431
379	1060	2242
380	1552	3000
381	181	1979
382	0	1137
383	157	1620
384	91	849
385	1078	1874
386	0	1039
387	1963	2228
388	525	1094
389	0	1833
390	1324	2093
391	400	1590
392	651	2108
393	76	815
394	1291	3000
395	297	1717
396	1104	2116
397	1329	2945
398	1725	1989
399	990	2579
400	838	1831
401	634	2096
402	485	2062
403	236	1080
404	101	902
405	907	2572
406	1001	2232
407	88	2004
408	2265	2593
409	753	2281
410	1290	3000
411	1175	3000
412	2080	2655
413	355	1651
414	689	1075
415	928	1627
416	1334	3000
417	0	1192
418	0	1036
419	1208	2504
420	81	1602
421	668	1316
422	1842	2516
423	0	1539
424	1086	2731
425	1713	2314
426	0	1767
427	758	2485
428	1144	2889
429	947	2805
430	276	1325
431	675	1636
432	1186	3000
433	381	1833
434	1718	2885
435	0	1662
436	791	1492
437	672	2161
438	1635	2154
439	0	1578
440	2248	2530
441	254	2099
442	1269	2589
443	954	1567
444	1653	2291
445	1771	2580
446	27	1360
447	1619	2470
448	1462	2499
449	398	1324
450	298	1003
451	1566	2215
452	945	2528
453	1062	1263
454	500	2343
455	343	1175
456	1100	2585
457	1081	1399
458	704	1538
459	1693	2209
460	222	1977
461	358	2217
462	0	1527
463	493	2455
464	1107	2627
465	0	1612
466	912	1781
467	1940	2888
468	1104	2048
469	1851	2683
470	0	1042
471	1154	1456
472	227	1163
473	959	2306
474	2073	2562
475	681	1978
476	1088	1405
477	85	1166
478	850	1064
479	1580	2243
480	802	1923
481	472	1253
482	1527	2541
483	2032	2782
484	111	989
485	827	1368
486	1788	2966
487	1514	2551
488	1572	3000
489	1588	2261
490	607	1251
491	1173	2131
492	876	1146
493	469	1355
494	236	754
495	1628	2253
496	0	1216
497	1632	2932
498	1119	2453
499	1138	2829
500	1215	1510
501	1719	2346
502	986	2819
503	274	849
504	622	2442
505	856	1558
506	2156	3000
507	0	1042
508	128	994
509	336	2272
510	1402	2696
511	1411	2541
512	1830	2499
513	67	1180
514	2022	2585
515	1214	1452
516	2068	2526
517	588	1978
518	1391	3000
519	1422	2383
520	694	1180
521	1840	2310
522	1431	3000
523	0	1603
524	1210	2261
525	1595	2657
526	1429	1740
527	2102	2373
528	1078	2042
529	964	2341
530	1872	2158
531	1909	2609
532	1287	1873
533	1047	2805
534	538	2176
535	55	1905
536	151	1688
537	1648	2932
538	1536	2079
539	1909	2414
540	858	2215
541	996	2833
542	856	1497
543	1451	2378
544	1109	2834
545	513	2023
546	605	886
547	508	709
548	1027	1797
549	25	1741
550	1774	2411
551	270	842
552	948	2497
553	703	1572
554	1330	2376
555	2061	2298
556	1771	2961
557	4	1904
558	313	899
559	1514	2177
560	1353	2572
561	0	1667
562	508	2245
563	1161	1374
564	1461	3000
565	0	1521
566	680	2626
567	1810	2129
568	1089	1793
569	1134	2951
570	6	891
571	1141	2076
572	0	1643
573	1991	2475
574	1094	3000
575	466	1309
576	432	786
577	1673	2993
578	1293	1542
579	2207	2750
580	363	2217
581	928	1760
582	1779	2004
583	1087	2530
584	1005	1575
585	181	1468
586	2069	2544
587	1008	2129
588	1455	2483
589	0	1247
590	1031	2335
591	1179	2814
592	218	1215
593	1660	3000
594	1675	1903
595	516	727
596	513	1751
597	946	1796
598	346	1851
599	1576	2595
600	666	1411
601	0	1481
602	310	953
603	365	1106
604	1803	2147
605	1626	2811
606	931	1424
607	0	659
608	200	744
609	0	1406
610	589	929
611	0	1863
612	1501	2815
613	0	931
614	484	2079
615	627	1512
616	1202	3000
617	376	2329
618	0	1671
619	1076	1429
620	1407	2031
621	1021	2046
622	58	997
623	1090	2211
624	414	1754
625	1103	2354
626	135	944
627	1175	2001
628	1883	2386
629	1874	2153
630	638	2389
631	200	1513
632	0	1492
633	532	1882
634	52	1933
635	132	1857
636	597	848
637	1197	2483
638	1918	2244
639	1711	2940
640	616	2465
641	262	1979
642	715	2703
643	336	1706
644	2162	3000
645	344	902
646	644	1953
647	2239	2800
648	795	2227
649	778	1810
650	1843	2914
651	1302	1951
652	612	1729
653	759	2262
654	47	1654
655	0	1172
656	434	2377
657	985	1806
658	420	1519
659	53	1000
660	833	2510
661	930	2329
662	1284	1522
663	1703	2453
664	763	2140
665	604	2023
666	651	2445
667	106	1737
668	2044	2626
669	465	924
670	449	1405
671	1180	2151
672	1396	1787
673	608	1321
674	1072	1301
675	1629	1864
676	1563	2269
677	1689	2214
678	298	1099
679	202	1255
680	810	2503
681	938	1560
682	0	1513
683	1726	2935
684	108	1987
685	466	2362
686	1337	3000
687	782	2232
688	716	1012
689	601	1840
690	2008	2902
691	1364	1942
692	0	1738
693	611	1581
694	661	2360
695	0	1014
696	652	1871
697	1582	3000
698	558	1416
699	1020	2640
700	368	2198
701	502	2312
702	1262	2587
703	250	1314
704	1041	1664
705	0	1148
706	1068	1626
707	2083	2435
708	0	1596
709	855	2209
710	841	2821
711	1794	1997
712	1315	1767
713	96	1708
714	1219	2988
715	2061	2447
716	0	1478
717	1008	1385
718	571	2491
719	854	1589
720	110	1215
721	1288	2380
722	18	1477
723	1605	3000
724	263	1242
725	212	629
726	1341	2268
727	1590	1957
728	1950	2501
729	141	2019
730	407	1252
731	0	1495
732	0	1315
733	596	2071
734	1974	2801
735	1285	1737
736	388	1113
737	228	1720
738	703	1158
739	1040	1399
740	536	2146
741	1191	2536
742	348	1973
743	0	994
744	581	1836
745	2263	2799
746	1505	2722
747	377	2360
748	915	2778
749	917	2644
750	1354	2812
751	1054	2584
752	444	1461
753	0	1619
754	1623	1866
755	0	1800
756	1617	2985
757	1502	3000
758	247	738
759	1150	2093
760	772	1175
761	363	1812
762	1268	3000
763	1544	2555
764	1042	1683
765	1462	3000
766	770	2161
767	270	2112
768	1289	3000
769	356	2073
770	755	976
771	653	2601
772	162	724
773	1632	3000
774	508	826
775	664	1832
776	1221	2542
777	953	2737
778	1038	2696
779	521	1082
780	1749	2875
781	705	2086
782	955	1238
783	514	2432
784	1651	1868
785	688	1807
786	0	1268
787	1911	2977
788	1592	2493
789	1006	1925
790	782	1864
791	1764	2746
792	1082	1630
793	1400	2246
794	2129	3000
795	918	1831
796	513	1023
797	725	2062
798	1169	1866
799	1476	1809
800	495	1956
801	0	1552
802	373	1367
803	746	1136
804	1075	1755
805	1330	2015
806	177	522
807	1514	2273
808	351	1092
809	2151	2368
810	1892	2475
811	1010	1896
812	1029	2106
813	449	838
814	0	1195
815	624	2606
816	1070	1991
817	766	1139
818	1392	2343
819	821	2726
820	70	999
821	1568	1784
822	1493	3000
823	1148	1909
824	548	1781
825	560	2417
826	1315	1914
827	882	2366
828	1460	1673
829	1680	2321
830	2027	2520
831	759	1763
832	596	1438
833	1365	2654
834	1634	2108
835	1821	3000
836	1114	1724
837	577	1467
838	0	556
839	88	1930
840	32	1478
841	1603	2026
842	1505	1760
843	0	1489
844	1264	2856
845	1386	2371
846	2064	2783
847	729	975
848	0	1820
849	2049	2441
850	0	1376
851	883	2746
852	884	1631
853	1315	2269
854	811	2388
855	0	1350
856	1517	1820
857	0	1487
858	982	1509
859	570	2463
860	0	640
861	0	1434
862	1122	1452
863	496	832
864	1028	2822
865	1260	2759
866	1735	2550
867	1909	2473
868	233	1157
869	1055	2790
870	1562	2274
871	223	1488
872	614	1455
873	1052	1554
874	1054	2404
875	1092	2879
876	709	2178
877	471	2418
878	1212	2637
879	1165	2543
880	1397	2188
881	1225	2262
882	530	1676
883	75	1666
884	1697	2742
885	1401	2689
886	833	1766
887	1177	1837
888	1309	2169
889	1154	1861
890	1742	2035
891	375	1781
892	0	1773
893	705	2468
894	698	1955
895	1336	2729
896	888	2749
897	0	839
898	1615	2885
899	1310	3000
900	1680	1894
901	1899	2861
902	218	1848
903	144	956
904	1070	2049
905	988	1655
906	508	2382
907	97	1456
908	207	881
909	871	2774
910	0	1957
911	0	1530
912	118	320
913	1126	1935
914	860	1513
915	1574	2299
916	1715	2644
917	1514	3000
918	860	1808
919	0	1248
920	1241	3000
921	436	1849
922	1186	2279
923	1102	2230
924	2296	2625
925	837	1938
926	860	1508
927	679	910
928	0	1475
929	519	1250
930	1603	2859
931	913	2637
932	1280	2788
933	401	1089
934	1738	2389
935	20	1193
936	1300	2036
937	453	2312
938	1920	2741
939	1664	2026
940	1819	2086
941	1100	1999
942	960	1550
943	1499	2041
944	1184	2490
945	0	1532
946	0	1047
947	1241	1589
948	1285	3000
949	1130	1610
950	529	986
951	0	1628
952	1127	2228
953	0	1138
954	1623	2931
955	711	2179
956	1311	1700
957	402	1987
958	890	2636
959	2022	3000
960	1818	2808
961	757	1005
962	1223	2438
963	1425	2459
964	99	1553
965	1500	2405
966	305	1444
967	860	1498
968	280	787
969	1502	2935
970	1429	2094
971	874	2474
972	0	1572
973	805	1733
974	779	1479
975	1050	2512
976	1963	2217
977	2057	2544
978	1559	3000
979	1090	1902
980	1098	2899
981	628	938
982	0	976
983	793	1806
984	1819	2360
985	685	2245
986	1498	1725
987	241	1463
988	1896	2955
989	1470	2758
990	1470	1956
991	1587	1905
992	1042	2962
993	246	615
994	975	1235
995	291	1917
996	1988	2692
997	137	956
998	711	1446
999	1759	3000
1000	180	928
1001	702	2044
DEPOT_SECTION
1
-1
EOF
