NAME : n1001-0026
COMMENT : "Generated by pyvrp_manuel (VRPTW)"
TYPE : VRPTW
DIMENSION : 1001
EDGE_WEIGHT_TYPE : EUC_2D
CAPACITY : 150
VEHICLES : 1000
SERVICE_TIME : 200
NODE_COORD_SECTION
1	874	613
2	845	402
3	84	467
4	380	400
5	674	477
6	786	949
7	470	998
8	217	337
9	44	62
10	97	166
11	591	911
12	526	122
13	791	781
14	100	326
15	835	490
16	637	906
17	793	956
18	94	709
19	725	1
20	607	832
21	497	653
22	520	212
23	750	765
24	252	433
25	387	769
26	936	978
27	664	643
28	735	161
29	984	392
30	764	981
31	903	172
32	31	259
33	942	360
34	848	469
35	709	315
36	965	727
37	32	460
38	976	35
39	811	281
40	27	295
41	493	326
42	613	426
43	493	755
44	849	234
45	632	173
46	162	282
47	967	337
48	881	314
49	47	654
50	44	492
51	36	82
52	924	562
53	771	64
54	290	398
55	805	507
56	87	299
57	956	55
58	940	268
59	735	628
60	228	737
61	731	207
62	783	662
63	206	748
64	762	716
65	684	483
66	558	375
67	75	615
68	68	543
69	814	207
70	420	518
71	198	397
72	203	2
73	315	241
74	428	684
75	593	527
76	547	432
77	607	260
78	914	802
79	885	251
80	781	426
81	341	973
82	414	940
83	637	427
84	718	879
85	58	471
86	284	535
87	718	963
88	514	635
89	126	681
90	867	942
91	352	231
92	394	746
93	224	663
94	389	801
95	631	7
96	39	2
97	507	617
98	251	136
99	593	467
100	587	751
101	155	966
102	700	99
103	680	67
104	827	70
105	913	867
106	392	449
107	861	254
108	106	485
109	883	482
110	169	257
111	436	181
112	715	440
113	675	819
114	750	501
115	529	201
116	757	302
117	694	264
118	134	354
119	995	362
120	407	738
121	749	269
122	727	15
123	101	768
124	645	477
125	578	890
126	823	436
127	701	788
128	379	131
129	477	488
130	266	707
131	123	99
132	918	940
133	77	262
134	668	897
135	361	420
136	514	54
137	517	889
138	416	398
139	274	149
140	240	435
141	934	789
142	557	598
143	275	173
144	437	215
145	456	751
146	548	530
147	24	820
148	946	726
149	821	777
150	280	298
151	6	37
152	734	634
153	638	964
154	724	460
155	190	93
156	260	369
157	958	214
158	195	164
159	557	692
160	717	296
161	514	275
162	324	922
163	123	602
164	641	434
165	881	986
166	720	1000
167	294	526
168	744	767
169	636	857
170	149	644
171	292	321
172	129	895
173	384	827
174	987	177
175	85	22
176	941	961
177	814	792
178	378	329
179	967	141
180	18	415
181	782	311
182	689	627
183	856	955
184	710	57
185	874	377
186	140	444
187	712	283
188	781	899
189	407	568
190	971	172
191	433	102
192	339	109
193	539	509
194	446	102
195	10	853
196	11	138
197	123	101
198	280	807
199	56	311
200	291	924
201	755	710
202	233	820
203	420	620
204	829	860
205	675	351
206	476	476
207	455	981
208	955	460
209	103	995
210	248	182
211	452	252
212	919	912
213	808	150
214	612	790
215	902	927
216	662	664
217	789	811
218	333	539
219	374	938
220	475	559
221	435	464
222	700	12
223	843	468
224	111	726
225	462	40
226	257	961
227	257	908
228	222	667
229	987	681
230	512	821
231	830	890
232	845	492
233	639	958
234	983	230
235	899	78
236	38	875
237	747	699
238	682	536
239	211	512
240	143	674
241	261	259
242	222	851
243	458	29
244	461	684
245	852	606
246	446	769
247	770	309
248	314	890
249	744	2
250	486	243
251	207	917
252	935	976
253	663	246
254	425	412
255	819	658
256	523	694
257	25	115
258	66	860
259	580	551
260	203	135
261	249	273
262	435	103
263	872	686
264	354	929
265	800	942
266	272	459
267	680	266
268	798	243
269	675	995
270	245	903
271	249	731
272	434	923
273	995	891
274	510	795
275	721	508
276	29	762
277	829	414
278	7	883
279	790	680
280	763	366
281	443	836
282	437	521
283	606	376
284	677	806
285	285	188
286	418	440
287	288	48
288	540	647
289	533	252
290	986	299
291	100	840
292	930	472
293	547	74
294	433	169
295	264	915
296	120	379
297	385	204
298	236	690
299	821	237
300	941	707
301	744	736
302	17	366
303	897	949
304	409	992
305	780	580
306	459	756
307	196	11
308	782	672
309	99	499
310	457	581
311	860	538
312	201	706
313	801	640
314	669	988
315	572	800
316	786	424
317	674	312
318	291	553
319	641	957
320	273	744
321	310	336
322	945	728
323	206	263
324	662	338
325	718	716
326	485	37
327	958	451
328	725	466
329	159	604
330	887	71
331	108	165
332	115	147
333	98	937
334	737	135
335	711	196
336	685	136
337	725	559
338	274	348
339	452	470
340	45	909
341	230	982
342	584	429
343	610	162
344	523	840
345	701	84
346	623	384
347	62	148
348	332	231
349	781	316
350	283	647
351	897	761
352	720	342
353	844	230
354	609	897
355	855	984
356	307	792
357	872	284
358	501	975
359	981	409
360	494	11
361	754	373
362	485	947
363	231	940
364	979	211
365	627	198
366	935	648
367	568	474
368	773	494
369	605	899
370	875	214
371	664	223
372	344	809
373	458	498
374	359	966
375	582	486
376	587	789
377	627	985
378	913	842
379	443	865
380	543	44
381	258	91
382	826	712
383	359	456
384	660	640
385	388	998
386	904	638
387	502	662
388	25	762
389	917	551
390	895	258
391	350	942
392	822	803
393	71	49
394	631	237
395	759	798
396	599	372
397	808	455
398	391	823
399	390	222
400	254	871
401	285	418
402	803	534
403	552	464
404	397	368
405	170	976
406	930	467
407	218	896
408	260	869
409	65	610
410	30	381
411	583	734
412	497	23
413	859	406
414	837	227
415	735	82
416	389	515
417	349	152
418	703	59
419	854	768
420	797	950
421	101	60
422	628	500
423	654	448
424	762	771
425	980	968
426	990	301
427	269	631
428	523	125
429	596	350
430	691	958
431	771	86
432	498	136
433	971	315
434	51	568
435	177	143
436	988	324
437	133	111
438	432	510
439	246	707
440	350	925
441	322	631
442	784	857
443	499	157
444	248	264
445	938	494
446	43	284
447	54	898
448	197	862
449	916	732
450	364	375
451	929	688
452	255	199
453	547	399
454	521	408
455	188	186
456	101	546
457	819	837
458	911	24
459	673	725
460	567	957
461	512	702
462	101	921
463	106	240
464	893	407
465	154	44
466	984	45
467	55	371
468	363	719
469	543	744
470	424	715
471	349	551
472	928	434
473	797	32
474	991	632
475	729	559
476	156	167
477	572	605
478	358	212
479	530	437
480	230	798
481	1	88
482	718	907
483	114	740
484	165	869
485	554	22
486	285	894
487	852	705
488	702	997
489	868	874
490	989	327
491	345	832
492	655	647
493	590	173
494	210	213
495	331	609
496	107	735
497	34	473
498	92	587
499	962	479
500	726	517
501	651	858
502	418	532
503	91	928
504	246	576
505	256	882
506	289	566
507	915	720
508	945	798
509	706	155
510	209	875
511	386	915
512	316	881
513	450	669
514	32	630
515	672	789
516	936	913
517	517	720
518	727	800
519	702	184
520	198	923
521	12	446
522	735	685
523	716	990
524	190	744
525	917	826
526	479	129
527	295	469
528	861	293
529	644	240
530	173	453
531	721	581
532	270	842
533	301	696
534	754	52
535	830	479
536	247	113
537	980	387
538	735	687
539	333	701
540	521	435
541	731	716
542	322	34
543	591	252
544	869	113
545	101	416
546	801	603
547	94	153
548	409	124
549	495	475
550	710	455
551	298	893
552	792	951
553	2	688
554	71	225
555	306	201
556	125	667
557	955	958
558	425	521
559	458	513
560	342	107
561	748	103
562	514	742
563	816	581
564	501	448
565	623	712
566	731	153
567	203	329
568	116	370
569	297	480
570	721	33
571	465	272
572	141	972
573	836	61
574	589	77
575	70	345
576	831	863
577	517	292
578	384	225
579	309	282
580	175	671
581	801	748
582	632	481
583	356	943
584	484	387
585	15	179
586	719	732
587	100	857
588	653	901
589	609	289
590	14	758
591	843	252
592	833	662
593	338	981
594	772	669
595	672	733
596	575	389
597	806	501
598	330	494
599	409	521
600	657	598
601	48	83
602	704	282
603	167	17
604	261	57
605	156	69
606	305	612
607	166	25
608	396	936
609	916	92
610	121	226
611	246	936
612	416	643
613	188	961
614	452	512
615	646	280
616	193	224
617	665	244
618	422	228
619	722	380
620	49	381
621	219	928
622	100	270
623	310	503
624	629	40
625	911	737
626	166	239
627	47	987
628	684	715
629	995	399
630	616	211
631	310	553
632	283	572
633	139	485
634	932	820
635	595	413
636	169	551
637	786	658
638	196	767
639	110	40
640	863	549
641	919	591
642	581	815
643	567	991
644	256	73
645	9	922
646	725	375
647	858	990
648	645	273
649	664	410
650	521	848
651	461	265
652	300	73
653	232	709
654	251	590
655	943	969
656	477	512
657	101	484
658	824	579
659	353	307
660	985	495
661	692	633
662	296	329
663	129	86
664	643	460
665	360	103
666	292	380
667	531	208
668	930	431
669	752	80
670	772	992
671	697	897
672	551	12
673	591	814
674	989	417
675	1	890
676	787	719
677	434	394
678	660	517
679	516	471
680	775	482
681	196	771
682	820	684
683	499	873
684	176	392
685	640	531
686	651	600
687	781	198
688	466	932
689	315	413
690	33	929
691	139	742
692	197	654
693	753	818
694	119	559
695	982	131
696	884	1
697	230	922
698	966	784
699	440	968
700	125	210
701	62	273
702	6	735
703	37	132
704	722	64
705	480	118
706	343	180
707	257	529
708	682	685
709	59	230
710	968	870
711	8	695
712	125	740
713	589	701
714	779	22
715	651	125
716	995	854
717	312	134
718	837	889
719	131	655
720	494	766
721	629	520
722	246	670
723	142	452
724	410	339
725	706	206
726	936	357
727	793	250
728	833	397
729	769	446
730	208	145
731	512	208
732	36	116
733	858	604
734	656	769
735	692	461
736	802	642
737	532	913
738	96	871
739	478	892
740	992	882
741	320	675
742	818	453
743	247	811
744	511	538
745	748	488
746	160	833
747	918	961
748	666	174
749	25	806
750	869	878
751	444	0
752	133	383
753	566	339
754	524	551
755	232	625
756	710	343
757	33	784
758	32	850
759	724	616
760	133	456
761	530	383
762	343	372
763	119	609
764	163	292
765	496	389
766	277	528
767	737	21
768	703	749
769	923	78
770	462	188
771	259	796
772	900	233
773	425	843
774	400	497
775	55	719
776	631	6
777	858	688
778	902	546
779	55	610
780	179	679
781	581	585
782	42	836
783	272	214
784	596	245
785	648	34
786	543	453
787	429	281
788	367	775
789	574	205
790	964	269
791	428	289
792	7	321
793	794	415
794	683	57
795	393	750
796	520	392
797	713	38
798	262	137
799	945	458
800	756	212
801	680	349
802	148	226
803	575	796
804	491	487
805	769	472
806	511	272
807	415	825
808	171	212
809	407	289
810	611	942
811	627	359
812	523	847
813	790	358
814	142	894
815	583	118
816	805	672
817	628	893
818	586	618
819	977	135
820	796	962
821	402	250
822	522	905
823	65	723
824	907	395
825	667	166
826	646	947
827	691	373
828	941	921
829	110	441
830	918	588
831	380	655
832	83	211
833	656	125
834	802	822
835	243	307
836	258	732
837	179	634
838	887	317
839	795	628
840	490	567
841	39	36
842	840	25
843	662	66
844	201	215
845	316	43
846	421	907
847	898	867
848	632	391
849	220	796
850	755	208
851	15	688
852	461	33
853	906	490
854	36	429
855	933	177
856	559	623
857	444	649
858	309	838
859	195	346
860	477	24
861	22	715
862	912	447
863	686	51
864	284	498
865	275	680
866	136	154
867	492	66
868	239	781
869	509	563
870	697	154
871	680	596
872	725	702
873	235	841
874	944	176
875	256	925
876	803	916
877	687	955
878	145	969
879	42	443
880	547	241
881	174	818
882	630	571
883	933	491
884	338	539
885	961	340
886	923	41
887	507	307
888	864	900
889	898	148
890	763	80
891	901	698
892	680	612
893	586	872
894	461	45
895	182	841
896	660	40
897	952	971
898	407	80
899	461	87
900	98	418
901	609	449
902	478	775
903	289	427
904	744	556
905	841	951
906	144	909
907	585	886
908	151	295
909	590	727
910	23	690
911	597	826
912	771	12
913	702	264
914	418	612
915	503	153
916	92	773
917	109	591
918	632	191
919	848	883
920	733	678
921	902	742
922	473	723
923	154	487
924	219	745
925	301	275
926	746	326
927	951	473
928	216	475
929	959	895
930	906	686
931	478	774
932	458	467
933	136	826
934	551	230
935	652	995
936	37	816
937	22	932
938	888	576
939	490	138
940	473	287
941	296	283
942	875	843
943	269	674
944	84	859
945	301	322
946	214	297
947	481	397
948	221	825
949	968	687
950	63	118
951	818	743
952	89	967
953	529	875
954	418	511
955	917	309
956	671	291
957	614	72
958	217	920
959	43	703
960	895	727
961	779	376
962	601	162
963	740	220
964	888	736
965	565	383
966	406	517
967	389	868
968	896	709
969	122	416
970	299	962
971	511	509
972	330	408
973	197	150
974	282	458
975	912	237
976	530	710
977	252	290
978	898	174
979	190	508
980	136	539
981	247	601
982	99	141
983	883	190
984	329	335
985	102	780
986	464	74
987	362	990
988	955	952
989	836	883
990	148	971
991	553	639
992	294	56
993	414	884
994	813	712
995	424	985
996	886	758
997	54	575
998	433	93
999	497	168
1000	717	81
1001	132	902
DEMAND_SECTION
1	0
2	3
3	9
4	2
5	6
6	2
7	3
8	1
9	7
10	1
11	8
12	6
13	6
14	1
15	8
16	3
17	4
18	5
19	9
20	6
21	7
22	7
23	7
24	8
25	3
26	7
27	9
28	4
29	3
30	8
31	2
32	1
33	1
34	4
35	3
36	2
37	7
38	3
39	3
40	1
41	9
42	8
43	9
44	5
45	1
46	1
47	1
48	3
49	1
50	7
51	1
52	8
53	2
54	9
55	2
56	2
57	1
58	6
59	4
60	2
61	3
62	2
63	9
64	3
65	3
66	1
67	4
68	6
69	3
70	4
71	8
72	3
73	3
74	1
75	3
76	3
77	9
78	6
79	9
80	9
81	5
82	5
83	9
84	6
85	3
86	7
87	1
88	5
89	5
90	2
91	9
92	9
93	5
94	6
95	6
96	4
97	2
98	5
99	8
100	2
101	1
102	2
103	6
104	6
105	4
106	6
107	7
108	2
109	9
110	3
111	4
112	5
113	6
114	2
115	3
116	4
117	5
118	2
119	5
120	6
121	2
122	9
123	3
124	7
125	9
126	5
127	4
128	9
129	8
130	6
131	9
132	6
133	8
134	8
135	6
136	7
137	9
138	1
139	5
140	6
141	2
142	9
143	1
144	6
145	8
146	1
147	6
148	7
149	4
150	9
151	1
152	1
153	1
154	7
155	9
156	5
157	9
158	5
159	4
160	3
161	3
162	4
163	5
164	2
165	1
166	8
167	7
168	6
169	1
170	4
171	7
172	3
173	7
174	8
175	4
176	3
177	9
178	7
179	4
180	6
181	2
182	1
183	1
184	2
185	2
186	2
187	9
188	3
189	4
190	3
191	6
192	6
193	7
194	1
195	4
196	2
197	7
198	1
199	8
200	2
201	2
202	2
203	9
204	1
205	1
206	9
207	7
208	6
209	5
210	3
211	3
212	6
213	3
214	6
215	7
216	3
217	1
218	1
219	5
220	8
221	1
222	3
223	3
224	5
225	8
226	8
227	8
228	9
229	4
230	1
231	1
232	1
233	9
234	9
235	9
236	3
237	9
238	2
239	6
240	7
241	2
242	7
243	7
244	6
245	4
246	2
247	2
248	5
249	5
250	2
251	1
252	7
253	2
254	2
255	9
256	5
257	3
258	5
259	1
260	3
261	5
262	7
263	6
264	1
265	7
266	9
267	7
268	8
269	4
270	3
271	3
272	4
273	1
274	3
275	7
276	9
277	7
278	2
279	5
280	5
281	8
282	9
283	8
284	2
285	6
286	1
287	2
288	4
289	5
290	3
291	9
292	7
293	3
294	9
295	7
296	3
297	8
298	1
299	2
300	8
301	8
302	3
303	9
304	4
305	2
306	7
307	8
308	5
309	6
310	9
311	9
312	4
313	9
314	2
315	6
316	9
317	7
318	2
319	3
320	5
321	7
322	2
323	9
324	9
325	1
326	8
327	1
328	8
329	5
330	5
331	9
332	8
333	4
334	7
335	3
336	7
337	8
338	6
339	9
340	3
341	6
342	6
343	1
344	9
345	4
346	1
347	8
348	2
349	9
350	5
351	7
352	2
353	2
354	3
355	4
356	8
357	1
358	6
359	6
360	2
361	5
362	4
363	8
364	3
365	4
366	7
367	1
368	7
369	7
370	9
371	7
372	9
373	2
374	9
375	7
376	6
377	5
378	8
379	8
380	3
381	8
382	7
383	5
384	5
385	3
386	3
387	4
388	2
389	3
390	6
391	7
392	3
393	8
394	2
395	8
396	5
397	1
398	6
399	9
400	1
401	7
402	9
403	9
404	5
405	9
406	5
407	6
408	9
409	1
410	9
411	3
412	4
413	4
414	8
415	8
416	3
417	8
418	7
419	4
420	1
421	6
422	8
423	7
424	5
425	2
426	1
427	8
428	3
429	8
430	3
431	1
432	2
433	9
434	5
435	7
436	7
437	5
438	2
439	1
440	3
441	3
442	2
443	8
444	6
445	3
446	3
447	8
448	3
449	1
450	9
451	5
452	1
453	2
454	2
455	9
456	6
457	4
458	9
459	8
460	1
461	1
462	2
463	2
464	7
465	4
466	1
467	1
468	2
469	3
470	5
471	6
472	5
473	2
474	3
475	7
476	2
477	2
478	5
479	2
480	1
481	1
482	4
483	5
484	8
485	4
486	8
487	3
488	2
489	4
490	1
491	4
492	5
493	9
494	7
495	8
496	6
497	3
498	5
499	2
500	2
501	4
502	2
503	9
504	2
505	6
506	6
507	9
508	7
509	1
510	7
511	9
512	9
513	2
514	4
515	3
516	4
517	2
518	3
519	4
520	7
521	6
522	4
523	3
524	3
525	5
526	7
527	9
528	7
529	2
530	4
531	6
532	8
533	3
534	2
535	9
536	8
537	7
538	1
539	8
540	5
541	8
542	7
543	6
544	1
545	6
546	8
547	4
548	5
549	2
550	9
551	2
552	1
553	5
554	9
555	8
556	9
557	1
558	8
559	3
560	1
561	7
562	8
563	5
564	1
565	9
566	9
567	9
568	4
569	2
570	9
571	9
572	1
573	6
574	8
575	9
576	1
577	1
578	7
579	2
580	8
581	2
582	6
583	4
584	1
585	3
586	9
587	5
588	1
589	8
590	6
591	1
592	6
593	9
594	6
595	2
596	4
597	2
598	3
599	3
600	6
601	6
602	3
603	2
604	8
605	2
606	5
607	2
608	4
609	3
610	3
611	6
612	9
613	8
614	5
615	5
616	1
617	5
618	2
619	3
620	9
621	5
622	8
623	9
624	1
625	1
626	8
627	9
628	3
629	2
630	2
631	7
632	4
633	8
634	7
635	7
636	1
637	9
638	7
639	8
640	6
641	9
642	8
643	3
644	4
645	1
646	9
647	7
648	9
649	1
650	3
651	4
652	5
653	5
654	6
655	4
656	8
657	6
658	6
659	5
660	7
661	5
662	4
663	9
664	6
665	6
666	3
667	7
668	5
669	5
670	8
671	8
672	3
673	1
674	5
675	9
676	3
677	4
678	9
679	1
680	2
681	6
682	5
683	1
684	9
685	9
686	3
687	8
688	5
689	3
690	4
691	5
692	6
693	5
694	1
695	8
696	7
697	7
698	8
699	3
700	9
701	6
702	7
703	3
704	2
705	4
706	2
707	3
708	1
709	7
710	8
711	6
712	1
713	2
714	4
715	1
716	7
717	3
718	2
719	9
720	6
721	4
722	1
723	1
724	1
725	8
726	7
727	3
728	5
729	7
730	1
731	6
732	3
733	8
734	8
735	9
736	2
737	2
738	7
739	6
740	8
741	2
742	6
743	5
744	6
745	6
746	2
747	1
748	1
749	9
750	9
751	9
752	6
753	7
754	3
755	4
756	5
757	2
758	3
759	5
760	3
761	4
762	5
763	1
764	3
765	5
766	5
767	1
768	9
769	9
770	6
771	4
772	9
773	6
774	1
775	6
776	8
777	1
778	6
779	3
780	9
781	4
782	3
783	3
784	6
785	8
786	1
787	1
788	2
789	1
790	8
791	4
792	6
793	2
794	1
795	6
796	5
797	5
798	7
799	1
800	6
801	5
802	8
803	5
804	4
805	9
806	3
807	1
808	4
809	8
810	8
811	2
812	9
813	9
814	2
815	3
816	7
817	7
818	3
819	6
820	7
821	4
822	6
823	4
824	3
825	1
826	6
827	3
828	9
829	7
830	5
831	8
832	6
833	7
834	4
835	4
836	9
837	2
838	6
839	8
840	5
841	6
842	3
843	7
844	3
845	7
846	7
847	3
848	9
849	4
850	9
851	9
852	7
853	2
854	2
855	8
856	3
857	7
858	7
859	5
860	4
861	4
862	5
863	4
864	9
865	4
866	9
867	1
868	8
869	3
870	7
871	7
872	8
873	8
874	1
875	5
876	3
877	3
878	6
879	2
880	7
881	7
882	6
883	1
884	2
885	9
886	8
887	9
888	5
889	9
890	2
891	7
892	6
893	6
894	2
895	8
896	1
897	5
898	8
899	8
900	1
901	6
902	9
903	5
904	5
905	5
906	7
907	3
908	1
909	5
910	3
911	3
912	2
913	9
914	9
915	7
916	5
917	1
918	4
919	6
920	6
921	6
922	5
923	3
924	3
925	7
926	8
927	3
928	5
929	2
930	3
931	7
932	9
933	2
934	9
935	2
936	9
937	2
938	7
939	9
940	9
941	6
942	7
943	2
944	7
945	7
946	4
947	3
948	7
949	7
950	4
951	8
952	2
953	6
954	7
955	7
956	7
957	3
958	5
959	3
960	5
961	3
962	6
963	9
964	2
965	9
966	3
967	8
968	3
969	2
970	5
971	9
972	5
973	7
974	3
975	3
976	7
977	8
978	3
979	9
980	3
981	2
982	7
983	8
984	8
985	3
986	5
987	2
988	1
989	7
990	9
991	3
992	4
993	3
994	1
995	7
996	8
997	5
998	5
999	6
1000	2
1001	1
TIME_WINDOW_SECTION
1	0	3000
2	328	1623
3	891	1701
4	815	1018
5	1569	2053
6	928	2652
7	676	1081
8	469	1213
9	1167	2178
10	909	2536
11	946	1479
12	1252	1999
13	86	2052
14	1680	2236
15	1460	2470
16	349	627
17	620	1477
18	192	1744
19	1288	1697
20	862	1977
21	0	1890
22	600	1957
23	1215	3000
24	839	1304
25	1384	2686
26	1367	3000
27	2150	2733
28	413	1245
29	1834	2177
30	1376	2899
31	0	1700
32	1156	2127
33	407	849
34	2152	2648
35	334	953
36	518	2325
37	21	1709
38	1155	2392
39	0	1494
40	799	2707
41	1595	2711
42	267	1163
43	0	1314
44	355	2113
45	1044	1386
46	1394	2058
47	1603	2623
48	1912	2308
49	1095	1855
50	248	1652
51	853	2633
52	2179	2844
53	286	1367
54	1461	2249
55	2389	2759
56	1364	2452
57	924	2747
58	1576	3000
59	414	1275
60	1623	1926
61	1169	2230
62	1461	3000
63	1478	2659
64	1223	3000
65	1298	2705
66	67	972
67	457	2424
68	1371	1928
69	0	1204
70	1506	1792
71	696	2250
72	957	1963
73	1461	1743
74	256	696
75	467	1922
76	1227	2713
77	2009	2706
78	901	2348
79	776	1180
80	930	1996
81	672	1662
82	696	2444
83	1379	1976
84	2191	2409
85	240	2030
86	1147	1663
87	2203	2614
88	1171	3000
89	1375	2719
90	1857	2681
91	999	2730
92	5	1385
93	1595	2381
94	231	1489
95	851	1954
96	827	2040
97	2006	2306
98	263	2193
99	582	1304
100	1172	2464
101	132	1601
102	223	1624
103	520	1804
104	1783	2470
105	145	1362
106	109	1236
107	1536	3000
108	496	1805
109	1240	1622
110	699	1467
111	1004	2510
112	110	723
113	2046	2863
114	0	1619
115	1511	2688
116	1510	2751
117	670	1833
118	1091	1465
119	829	1876
120	692	1725
121	0	1139
122	1183	1985
123	885	2459
124	1397	2247
125	1258	1759
126	1136	2521
127	816	1871
128	1001	1629
129	67	1034
130	788	2043
131	351	1518
132	1221	2414
133	276	1723
134	842	1417
135	1120	2028
136	1059	2081
137	1266	1945
138	1607	2735
139	504	1944
140	429	2376
141	285	2130
142	1004	2087
143	880	1631
144	395	1153
145	1050	1890
146	1095	2679
147	695	2330
148	635	2558
149	1518	1958
150	1272	2436
151	718	1440
152	1773	3000
153	1037	1653
154	1074	2245
155	1329	2362
156	1364	2014
157	532	1377
158	56	1816
159	1180	3000
160	0	1639
161	803	2560
162	277	1335
163	1729	2000
164	997	1683
165	0	1576
166	1136	2204
167	42	1366
168	1568	2647
169	1025	1783
170	742	2311
171	332	1897
172	0	1804
173	1011	2157
174	857	2006
175	662	1989
176	1766	2632
177	363	2347
178	617	1683
179	1132	2299
180	1537	2143
181	9	1349
182	779	1078
183	0	1892
184	497	2103
185	1042	1527
186	831	2510
187	1070	3000
188	1714	2005
189	1597	2156
190	687	1060
191	414	1531
192	1136	2960
193	0	1070
194	1132	1356
195	1045	2535
196	1161	1961
197	1111	1417
198	1563	1934
199	1759	1988
200	577	1985
201	1828	2625
202	1292	2178
203	1066	2807
204	759	2316
205	1771	2621
206	577	1874
207	941	2530
208	1827	2930
209	608	1710
210	172	1730
211	1263	2500
212	1390	2804
213	991	1539
214	0	1636
215	570	2049
216	313	2273
217	795	1987
218	781	1763
219	106	1603
220	1721	2727
221	123	1472
222	717	1683
223	390	2194
224	929	1669
225	1696	2042
226	419	1904
227	1666	2418
228	237	1887
229	137	1298
230	879	1173
231	410	1837
232	1751	2248
233	1337	1632
234	756	2153
235	728	1242
236	910	1587
237	961	2485
238	903	1843
239	1400	2627
240	199	1959
241	438	1889
242	1604	2293
243	895	1388
244	1155	2859
245	409	1249
246	442	1635
247	2079	2867
248	646	2024
249	306	1488
250	161	1351
251	1146	2369
252	2150	2610
253	1698	2534
254	883	1506
255	0	1087
256	2185	2524
257	1042	2585
258	1038	1433
259	0	1079
260	1352	2323
261	677	2615
262	1528	2454
263	1366	1599
264	326	906
265	705	2438
266	1540	2291
267	1309	2991
268	1716	2232
269	694	2674
270	0	1611
271	437	1350
272	1281	2026
273	0	1769
274	964	2480
275	1530	2942
276	649	1527
277	1016	1542
278	852	1733
279	1165	2179
280	80	1295
281	678	1999
282	961	1390
283	580	1077
284	1380	1957
285	260	1959
286	1710	2624
287	121	1796
288	470	1320
289	994	1864
290	984	2634
291	0	1778
292	0	1202
293	441	1348
294	1441	1669
295	1599	2101
296	472	2230
297	700	2546
298	584	1019
299	326	939
300	179	1349
301	1370	2818
302	1272	2506
303	987	1488
304	1019	1610
305	533	2215
306	1340	3000
307	592	2529
308	8	1770
309	721	2406
310	516	1165
311	68	814
312	562	1773
313	1967	3000
314	781	1451
315	1864	2239
316	598	1471
317	1353	3000
318	439	765
319	804	1657
320	1336	1758
321	170	1490
322	0	1263
323	375	1474
324	1427	2148
325	1873	3000
326	0	1687
327	1293	1721
328	1289	1503
329	444	1464
330	1162	2943
331	770	2538
332	1598	2042
333	702	1800
334	1322	2235
335	471	1381
336	160	1190
337	0	1552
338	649	1008
339	469	976
340	167	1840
341	1091	1841
342	1705	3000
343	1375	2137
344	1240	1985
345	382	996
346	1508	2342
347	410	2077
348	573	1351
349	1710	2594
350	1102	1605
351	1579	3000
352	90	1802
353	1389	1960
354	281	852
355	832	1123
356	1053	1487
357	626	1833
358	272	1662
359	1038	1367
360	667	1757
361	1516	3000
362	683	1657
363	767	1985
364	815	2621
365	494	780
366	2001	3000
367	1586	2694
368	642	1015
369	1172	2426
370	543	2213
371	1254	1783
372	272	1464
373	0	1282
374	644	1994
375	1334	2485
376	923	2447
377	425	2176
378	1422	2821
379	536	1518
380	737	2335
381	597	1711
382	1044	2765
383	834	2604
384	573	2510
385	634	1429
386	1502	1734
387	1550	3000
388	172	1828
389	158	2072
390	880	1491
391	1802	2119
392	639	1365
393	948	2104
394	436	2366
395	871	1613
396	1974	2275
397	255	1307
398	121	1001
399	712	2535
400	562	1160
401	194	1570
402	325	876
403	0	1612
404	1110	1825
405	1294	2633
406	823	1748
407	1508	2391
408	459	2392
409	1455	2295
410	1237	1940
411	1138	3000
412	1019	2782
413	245	770
414	2151	2601
415	1105	1472
416	358	1344
417	709	1874
418	30	1470
419	1029	1741
420	73	1720
421	1690	1942
422	852	2459
423	379	908
424	617	2030
425	861	2651
426	1976	2447
427	518	2422
428	620	2314
429	0	1736
430	473	2158
431	7	1277
432	1363	2088
433	1276	1959
434	1353	2319
435	1381	2237
436	1564	1829
437	954	1783
438	0	1329
439	121	1907
440	682	2677
441	1329	1828
442	2052	2760
443	330	2239
444	323	2269
445	310	936
446	1277	1549
447	986	1445
448	403	1594
449	1912	3000
450	865	2394
451	0	1537
452	682	1507
453	437	1130
454	1846	2555
455	722	1155
456	822	1988
457	281	952
458	993	1633
459	0	969
460	1503	2300
461	1796	2402
462	722	1016
463	1051	1755
464	1213	1939
465	782	1138
466	0	1701
467	804	1075
468	722	2477
469	1048	1850
470	11	992
471	1459	2045
472	1035	2672
473	1075	2416
474	203	1814
475	0	1500
476	1361	1909
477	718	1475
478	28	1866
479	274	1773
480	0	1537
481	304	1744
482	0	1174
483	212	1402
484	1130	2937
485	949	2540
486	587	1585
487	0	1625
488	653	1449
489	0	1411
490	782	1946
491	1789	2643
492	117	1859
493	2045	2279
494	1327	2019
495	480	1750
496	538	2084
497	275	1710
498	1430	2591
499	0	1335
500	0	1523
501	1162	1670
502	1420	2560
503	505	1580
504	0	1693
505	559	2216
506	644	2590
507	0	827
508	11	871
509	409	1329
510	714	1598
511	1234	1681
512	151	1547
513	138	1348
514	1248	1990
515	660	2351
516	0	1421
517	0	1273
518	2011	2861
519	972	2095
520	1425	2375
521	1020	1749
522	0	1821
523	395	2128
524	1494	2396
525	2197	2750
526	1167	2683
527	1215	1804
528	0	1130
529	1782	2922
530	522	1261
531	1261	2257
532	586	1789
533	111	1545
534	1382	2082
535	1344	2327
536	611	2416
537	0	1077
538	1292	2083
539	662	2575
540	432	1891
541	0	526
542	178	1818
543	1830	2139
544	0	1669
545	637	2511
546	1734	2929
547	953	1876
548	386	2009
549	0	991
550	0	1426
551	474	2158
552	1694	2479
553	893	2384
554	1529	1895
555	490	2376
556	1226	1667
557	0	957
558	1887	2108
559	1614	2916
560	85	1572
561	527	922
562	0	1105
563	1531	2897
564	689	1627
565	0	724
566	1111	2788
567	0	1814
568	299	1380
569	884	1129
570	495	770
571	913	1968
572	660	2019
573	455	1345
574	612	2197
575	156	2084
576	1573	3000
577	43	1934
578	1904	2369
579	263	2051
580	778	1633
581	0	1002
582	771	1381
583	713	1602
584	195	1226
585	849	1769
586	1326	2861
587	490	1666
588	1713	2358
589	410	937
590	1143	2150
591	537	1101
592	0	774
593	850	1267
594	1644	2164
595	1518	1773
596	884	2083
597	1539	2503
598	1168	2192
599	1472	3000
600	1545	3000
601	604	1951
602	1037	2718
603	1228	1534
604	1336	2139
605	243	1958
606	278	1429
607	251	2147
608	1826	2211
609	1195	2510
610	895	2291
611	699	1983
612	1438	1819
613	1045	1585
614	653	1934
615	797	1885
616	1715	2202
617	492	775
618	403	1723
619	1641	1872
620	941	2892
621	892	2290
622	712	2230
623	1764	2162
624	292	1816
625	1469	2040
626	412	1341
627	1354	1862
628	1876	2799
629	611	2553
630	1147	2239
631	1440	1720
632	283	1459
633	997	2191
634	0	1442
635	1105	1707
636	834	2659
637	760	2755
638	336	1237
639	758	2325
640	142	1290
641	1152	2093
642	705	1190
643	747	2330
644	602	1309
645	816	1872
646	1639	2000
647	0	1191
648	495	1639
649	2	1945
650	782	2765
651	241	2184
652	976	2700
653	80	1263
654	976	2023
655	0	1495
656	545	875
657	678	1438
658	272	753
659	1272	2348
660	405	2119
661	132	735
662	99	1446
663	876	2293
664	1133	2481
665	365	1360
666	445	1635
667	0	1441
668	1230	2065
669	791	1402
670	1387	1936
671	285	2162
672	370	1075
673	1557	3000
674	440	1843
675	929	2192
676	1676	3000
677	700	1700
678	1683	2407
679	894	2222
680	1068	2431
681	1145	1952
682	1919	3000
683	1583	2433
684	923	2046
685	1377	1785
686	303	1530
687	1119	2099
688	572	1822
689	579	1156
690	810	1412
691	0	1792
692	904	2083
693	355	1642
694	840	2566
695	489	1272
696	825	2485
697	1120	3000
698	0	1250
699	210	1491
700	0	1944
701	1050	2066
702	788	2114
703	67	1961
704	827	1350
705	1381	1984
706	1153	1625
707	129	2023
708	110	837
709	1346	1599
710	1287	2035
711	1106	1806
712	1076	1376
713	0	1405
714	1077	2943
715	880	1857
716	1631	3000
717	1091	2794
718	1534	1963
719	738	1595
720	1762	2334
721	0	1430
722	450	1586
723	737	1882
724	815	2308
725	23	1543
726	296	2148
727	0	1819
728	0	1236
729	1645	2700
730	828	2594
731	389	1662
732	1030	1323
733	313	2304
734	1307	3000
735	72	982
736	873	2316
737	2052	2498
738	944	2690
739	301	1686
740	120	1638
741	1796	2306
742	169	1490
743	579	1013
744	760	2685
745	428	1157
746	1859	2219
747	1310	1694
748	0	1700
749	1740	2084
750	1572	2150
751	225	1928
752	412	1996
753	1584	3000
754	1574	2569
755	973	2628
756	832	1494
757	834	1414
758	1755	2015
759	0	1827
760	783	1806
761	1186	2686
762	591	2002
763	436	1987
764	1222	2375
765	0	1231
766	262	1011
767	831	2777
768	1042	2326
769	702	1000
770	1110	2539
771	547	2164
772	1625	3000
773	186	1231
774	430	807
775	206	1806
776	0	1856
777	1299	2109
778	0	1220
779	1220	1769
780	428	1122
781	273	2058
782	1113	2121
783	629	845
784	443	1037
785	520	909
786	1921	2877
787	125	1810
788	1315	3000
789	1148	1861
790	571	1676
791	921	1697
792	1467	1842
793	1703	2258
794	696	2290
795	1080	2710
796	774	2102
797	40	1930
798	1449	2097
799	0	674
800	771	2645
801	1352	1680
802	219	1998
803	1681	2769
804	490	2179
805	0	1394
806	588	2336
807	638	1857
808	92	1551
809	432	1771
810	817	2619
811	691	2348
812	1707	2336
813	1098	2462
814	781	2697
815	815	1382
816	1771	2874
817	233	1379
818	921	2148
819	1160	2160
820	377	652
821	940	1911
822	231	1426
823	528	1951
824	302	1715
825	1244	2263
826	581	2530
827	8	914
828	269	2243
829	1502	2499
830	0	658
831	1279	1722
832	816	2345
833	0	1560
834	136	1219
835	1069	2758
836	899	2065
837	1289	2277
838	1006	1970
839	619	2304
840	0	1549
841	1108	1752
842	625	2328
843	1070	2019
844	1061	2208
845	3	1874
846	1246	2991
847	1503	3000
848	1258	2513
849	1010	1835
850	571	1229
851	203	2004
852	849	1640
853	1364	2846
854	665	1811
855	232	1370
856	1181	1853
857	393	2334
858	179	2082
859	396	1689
860	783	2294
861	1427	2402
862	374	782
863	1248	2133
864	1118	2429
865	322	904
866	473	1372
867	1949	2170
868	375	2293
869	1564	2371
870	839	2022
871	335	1171
872	832	1117
873	1325	2853
874	1195	2865
875	878	2144
876	1388	1627
877	1233	2625
878	1429	1974
879	633	1578
880	819	2139
881	841	1058
882	202	1144
883	2021	3000
884	1298	2546
885	1618	1924
886	424	1169
887	810	1746
888	1648	2115
889	419	1632
890	256	2071
891	1608	2372
892	385	1341
893	1256	2641
894	575	2468
895	618	1339
896	999	2494
897	0	1264
898	775	1912
899	1546	2083
900	1586	1940
901	2053	2611
902	1303	1703
903	332	1853
904	336	815
905	345	897
906	1430	2584
907	1548	2580
908	931	2864
909	56	655
910	821	2546
911	1595	3000
912	333	2302
913	420	1938
914	536	1393
915	345	1391
916	648	1127
917	968	2850
918	826	2219
919	0	1489
920	311	949
921	589	1060
922	458	2040
923	1027	2903
924	1134	1406
925	496	1206
926	165	2144
927	1066	2583
928	1247	2273
929	1036	2484
930	983	2146
931	879	2456
932	151	1651
933	1691	2059
934	1492	3000
935	291	1224
936	165	2158
937	546	1353
938	781	2664
939	1005	1558
940	487	737
941	1302	2062
942	547	2203
943	387	924
944	400	1881
945	963	2449
946	743	2110
947	1736	2164
948	920	2529
949	1146	3000
950	95	1888
951	1326	1853
952	1554	2216
953	1238	2275
954	1589	2341
955	648	1606
956	1406	2332
957	789	2371
958	807	1979
959	690	2225
960	2177	2934
961	870	2559
962	855	1271
963	416	2377
964	340	798
965	1262	1591
966	851	1898
967	1589	2207
968	1492	1995
969	495	1910
970	1690	2332
971	477	2290
972	628	1380
973	699	2326
974	1049	2328
975	898	1106
976	406	868
977	134	1545
978	1552	2442
979	257	1555
980	1173	2631
981	1626	1968
982	723	1882
983	1931	2727
984	1011	2168
985	574	2510
986	1467	2710
987	0	1578
988	1501	3000
989	2084	2320
990	845	2372
991	278	1946
992	421	1250
993	127	1563
994	139	1463
995	0	1282
996	1933	3000
997	833	1039
998	1545	1957
999	1032	2898
1000	0	1461
1001	625	2118
DEPOT_SECTION
1
-1
EOF
