NAME : n1001-0031
COMMENT : "Generated by pyvrp_manuel (VRPTW)"
TYPE : VRPTW
DIMENSION : 1001
EDGE_WEIGHT_TYPE : EUC_2D
CAPACITY : 150
VEHICLES : 1000
SERVICE_TIME : 200
NODE_COORD_SECTION
1	59	975
2	926	82
3	134	509
4	207	745
5	575	373
6	806	817
7	840	505
8	151	695
9	965	519
10	779	756
11	267	863
12	705	857
13	801	691
14	794	701
15	447	38
16	780	842
17	507	28
18	992	452
19	864	72
20	412	90
21	127	436
22	533	873
23	147	132
24	850	202
25	651	989
26	522	163
27	321	350
28	132	48
29	821	377
30	801	106
31	585	441
32	459	40
33	690	691
34	297	410
35	922	908
36	361	233
37	27	968
38	463	51
39	586	174
40	189	934
41	741	125
42	655	518
43	777	869
44	685	263
45	363	987
46	966	93
47	196	845
48	221	437
49	55	704
50	42	10
51	752	92
52	273	954
53	667	657
54	984	72
55	519	443
56	591	624
57	538	554
58	883	209
59	477	417
60	975	746
61	558	866
62	256	881
63	522	425
64	657	998
65	602	93
66	153	505
67	910	58
68	469	166
69	342	419
70	265	505
71	444	842
72	314	25
73	277	960
74	516	95
75	569	464
76	384	962
77	396	205
78	54	172
79	84	181
80	772	873
81	990	868
82	601	916
83	154	336
84	460	606
85	873	53
86	363	335
87	848	421
88	520	112
89	164	4
90	521	8
91	428	847
92	703	427
93	175	832
94	983	555
95	538	838
96	964	412
97	470	461
98	718	860
99	892	646
100	63	526
101	694	996
102	658	695
103	435	202
104	45	615
105	82	678
106	674	390
107	143	960
108	268	595
109	967	607
110	82	78
111	85	974
112	182	902
113	838	918
114	577	943
115	547	412
116	359	46
117	195	853
118	91	883
119	320	494
120	906	79
121	966	649
122	376	767
123	778	9
124	306	210
125	309	274
126	802	916
127	860	164
128	651	433
129	972	394
130	200	476
131	271	6
132	939	420
133	350	697
134	416	655
135	776	882
136	396	691
137	208	123
138	554	79
139	474	273
140	159	828
141	329	532
142	416	585
143	238	661
144	230	524
145	753	224
146	571	244
147	527	212
148	279	726
149	642	267
150	550	614
151	281	652
152	663	472
153	324	400
154	544	329
155	952	881
156	907	709
157	131	785
158	746	473
159	1	383
160	359	428
161	510	80
162	401	877
163	78	820
164	263	606
165	915	500
166	970	15
167	320	396
168	384	746
169	42	790
170	311	554
171	165	523
172	892	254
173	167	651
174	898	234
175	880	523
176	200	732
177	958	575
178	186	968
179	789	256
180	580	902
181	154	15
182	420	644
183	886	411
184	585	603
185	546	706
186	521	550
187	891	925
188	659	764
189	990	697
190	325	447
191	591	949
192	962	431
193	445	829
194	279	531
195	988	714
196	581	946
197	757	544
198	436	925
199	483	638
200	841	275
201	421	870
202	214	364
203	874	352
204	23	620
205	466	805
206	991	995
207	672	58
208	724	999
209	139	953
210	960	765
211	675	667
212	456	12
213	777	958
214	842	502
215	811	327
216	230	956
217	895	21
218	84	240
219	795	68
220	172	303
221	251	138
222	977	514
223	80	780
224	452	674
225	223	29
226	760	931
227	172	449
228	22	273
229	673	965
230	239	902
231	881	804
232	454	672
233	490	900
234	241	157
235	550	460
236	74	46
237	322	251
238	306	227
239	274	3
240	278	773
241	594	175
242	320	371
243	945	340
244	295	812
245	713	714
246	712	167
247	19	753
248	278	954
249	751	275
250	736	260
251	784	363
252	545	403
253	707	731
254	554	57
255	14	360
256	79	220
257	377	972
258	763	878
259	44	168
260	634	984
261	917	605
262	245	368
263	421	434
264	104	774
265	827	24
266	814	616
267	301	586
268	312	855
269	634	234
270	138	196
271	244	441
272	833	724
273	745	966
274	210	293
275	956	934
276	212	285
277	402	420
278	917	114
279	430	214
280	399	708
281	838	69
282	520	934
283	576	261
284	947	418
285	383	80
286	4	525
287	185	69
288	832	703
289	402	916
290	173	621
291	148	839
292	237	251
293	959	903
294	804	21
295	373	834
296	222	854
297	411	794
298	426	235
299	537	676
300	977	181
301	752	257
302	212	450
303	300	899
304	305	495
305	401	638
306	827	374
307	308	979
308	409	739
309	987	309
310	637	601
311	171	83
312	349	163
313	761	815
314	479	831
315	676	61
316	582	960
317	670	338
318	439	95
319	187	932
320	696	441
321	945	713
322	325	399
323	910	790
324	894	177
325	911	913
326	208	532
327	395	713
328	655	856
329	912	655
330	879	353
331	524	536
332	406	961
333	424	693
334	620	275
335	376	465
336	39	563
337	525	965
338	85	864
339	641	503
340	454	262
341	467	795
342	33	347
343	438	434
344	544	42
345	833	105
346	83	546
347	975	740
348	816	918
349	153	338
350	889	413
351	802	468
352	542	379
353	792	637
354	122	173
355	237	57
356	278	258
357	353	316
358	7	327
359	234	784
360	10	373
361	875	783
362	313	199
363	249	208
364	53	303
365	540	724
366	367	12
367	921	82
368	90	85
369	631	979
370	848	256
371	503	302
372	140	775
373	960	819
374	70	266
375	746	267
376	332	490
377	166	642
378	805	537
379	225	96
380	63	404
381	926	610
382	741	725
383	462	789
384	173	701
385	425	63
386	770	142
387	702	607
388	596	935
389	69	800
390	355	820
391	809	823
392	99	836
393	985	468
394	132	540
395	686	842
396	906	8
397	92	633
398	911	260
399	649	223
400	504	892
401	845	721
402	574	478
403	913	278
404	452	215
405	281	348
406	682	883
407	287	100
408	344	890
409	758	442
410	931	277
411	845	631
412	652	36
413	889	280
414	765	546
415	62	549
416	956	849
417	270	774
418	101	641
419	184	165
420	319	140
421	158	388
422	702	834
423	838	235
424	261	710
425	998	668
426	105	748
427	171	47
428	563	383
429	798	330
430	737	993
431	397	763
432	256	934
433	218	69
434	744	964
435	118	608
436	161	989
437	555	490
438	841	488
439	85	674
440	271	131
441	496	115
442	921	546
443	753	451
444	100	844
445	401	348
446	28	503
447	897	782
448	306	352
449	564	596
450	467	628
451	489	868
452	949	635
453	256	466
454	856	958
455	232	852
456	53	633
457	420	930
458	229	458
459	100	482
460	996	464
461	501	313
462	67	409
463	866	50
464	441	782
465	339	970
466	16	881
467	987	934
468	82	539
469	840	127
470	811	88
471	486	536
472	681	899
473	41	811
474	215	398
475	987	510
476	405	292
477	244	426
478	432	391
479	535	175
480	831	163
481	769	937
482	78	661
483	542	92
484	435	789
485	302	899
486	801	533
487	158	9
488	874	712
489	595	430
490	54	237
491	24	272
492	206	604
493	885	191
494	734	927
495	895	154
496	854	838
497	968	753
498	257	559
499	421	685
500	515	781
501	525	104
502	637	342
503	700	345
504	406	419
505	883	577
506	266	644
507	211	526
508	674	515
509	541	529
510	457	496
511	506	367
512	91	193
513	660	261
514	823	493
515	446	362
516	200	517
517	845	954
518	710	880
519	704	783
520	443	446
521	356	910
522	99	637
523	406	704
524	756	672
525	574	216
526	955	383
527	720	320
528	798	424
529	210	470
530	75	496
531	698	998
532	621	127
533	786	478
534	190	290
535	471	764
536	662	234
537	567	793
538	543	105
539	998	979
540	804	688
541	922	186
542	605	484
543	876	484
544	835	536
545	577	519
546	627	875
547	343	254
548	368	347
549	350	222
550	154	549
551	277	309
552	910	513
553	526	877
554	851	99
555	473	29
556	667	854
557	752	435
558	484	252
559	382	741
560	251	345
561	884	298
562	578	364
563	519	310
564	685	311
565	960	23
566	104	490
567	701	975
568	4	618
569	316	722
570	653	411
571	150	995
572	262	315
573	734	228
574	911	168
575	620	490
576	180	907
577	436	732
578	402	912
579	101	766
580	600	837
581	442	776
582	542	801
583	333	815
584	361	281
585	576	298
586	483	434
587	548	185
588	63	852
589	590	925
590	374	147
591	164	811
592	930	971
593	49	715
594	634	100
595	203	100
596	897	517
597	515	417
598	650	216
599	20	333
600	419	623
601	767	45
602	444	500
603	786	358
604	958	919
605	648	246
606	736	249
607	718	198
608	429	865
609	441	544
610	592	806
611	971	414
612	20	720
613	347	983
614	560	564
615	246	453
616	537	574
617	492	432
618	229	455
619	404	341
620	42	759
621	814	980
622	603	221
623	370	479
624	291	56
625	110	581
626	944	425
627	905	489
628	419	9
629	486	202
630	723	420
631	867	175
632	394	810
633	562	643
634	849	817
635	912	725
636	615	953
637	277	258
638	298	110
639	661	924
640	374	949
641	173	576
642	450	887
643	909	317
644	779	401
645	550	711
646	994	745
647	241	130
648	589	118
649	762	392
650	939	654
651	412	843
652	414	226
653	789	606
654	303	641
655	281	532
656	784	675
657	825	479
658	995	760
659	360	802
660	901	439
661	829	512
662	790	566
663	525	427
664	639	8
665	689	774
666	866	420
667	170	614
668	500	272
669	431	366
670	579	751
671	963	45
672	715	138
673	134	106
674	943	446
675	36	684
676	977	513
677	336	544
678	644	325
679	384	668
680	221	286
681	530	159
682	201	655
683	524	267
684	224	554
685	484	360
686	440	280
687	502	19
688	347	628
689	516	679
690	424	40
691	852	880
692	667	606
693	494	959
694	111	977
695	647	808
696	313	386
697	765	60
698	678	655
699	296	635
700	767	343
701	782	799
702	679	831
703	598	254
704	230	130
705	23	678
706	42	703
707	801	291
708	70	543
709	563	183
710	456	402
711	581	107
712	510	210
713	317	243
714	130	80
715	687	762
716	835	656
717	248	228
718	948	770
719	437	122
720	624	921
721	242	547
722	876	696
723	694	203
724	385	262
725	507	45
726	138	724
727	671	870
728	209	897
729	943	96
730	525	871
731	120	835
732	625	363
733	116	941
734	273	544
735	268	321
736	222	301
737	115	331
738	808	71
739	864	816
740	952	487
741	739	468
742	938	554
743	30	688
744	913	725
745	411	862
746	934	201
747	187	776
748	260	144
749	52	727
750	507	553
751	381	421
752	787	375
753	611	759
754	105	276
755	674	970
756	962	918
757	714	873
758	621	387
759	581	489
760	623	958
761	411	93
762	470	399
763	330	522
764	311	876
765	694	724
766	732	30
767	759	150
768	229	504
769	181	713
770	389	272
771	278	38
772	693	458
773	568	753
774	867	607
775	525	32
776	309	588
777	262	284
778	973	573
779	647	526
780	781	723
781	425	218
782	474	908
783	8	450
784	897	627
785	949	884
786	686	264
787	316	233
788	824	572
789	898	592
790	112	563
791	722	126
792	447	212
793	542	196
794	212	17
795	440	253
796	882	905
797	185	4
798	650	514
799	818	553
800	218	977
801	617	176
802	564	919
803	766	868
804	180	978
805	75	194
806	310	894
807	446	442
808	648	891
809	880	732
810	157	978
811	480	164
812	479	83
813	440	156
814	616	35
815	175	287
816	609	506
817	363	940
818	288	40
819	923	381
820	940	415
821	570	911
822	641	6
823	906	34
824	159	440
825	120	244
826	260	986
827	372	78
828	927	307
829	351	10
830	416	148
831	742	480
832	316	666
833	330	525
834	847	7
835	297	351
836	659	859
837	775	100
838	589	618
839	599	135
840	123	737
841	895	535
842	63	856
843	585	230
844	982	844
845	305	58
846	619	356
847	377	481
848	485	905
849	656	133
850	18	693
851	379	444
852	858	887
853	870	91
854	376	537
855	757	734
856	116	185
857	845	34
858	532	819
859	545	468
860	619	493
861	548	692
862	896	704
863	858	993
864	400	932
865	437	365
866	298	765
867	905	568
868	805	747
869	957	965
870	655	103
871	416	365
872	757	415
873	761	222
874	4	701
875	943	527
876	353	487
877	642	17
878	407	40
879	743	354
880	492	80
881	970	455
882	226	266
883	470	503
884	841	748
885	550	798
886	414	838
887	140	271
888	392	714
889	674	370
890	832	830
891	777	630
892	16	626
893	151	834
894	267	286
895	27	458
896	400	97
897	538	731
898	414	35
899	930	476
900	544	662
901	701	751
902	481	548
903	650	659
904	331	536
905	773	109
906	963	141
907	994	626
908	671	711
909	724	307
910	147	95
911	767	833
912	46	276
913	854	226
914	620	831
915	818	255
916	462	303
917	10	912
918	889	35
919	60	831
920	239	985
921	387	645
922	342	129
923	87	386
924	575	68
925	831	911
926	505	829
927	742	458
928	68	296
929	913	285
930	856	674
931	807	84
932	827	406
933	969	399
934	381	161
935	282	57
936	196	650
937	907	802
938	656	560
939	550	730
940	377	569
941	763	426
942	694	654
943	648	307
944	680	474
945	658	229
946	890	884
947	362	461
948	32	272
949	999	807
950	380	247
951	366	416
952	239	141
953	44	150
954	424	29
955	123	388
956	225	841
957	134	141
958	555	826
959	980	375
960	572	79
961	27	763
962	863	501
963	989	94
964	765	554
965	628	407
966	1000	944
967	520	724
968	103	198
969	174	201
970	187	902
971	32	342
972	293	736
973	798	455
974	310	836
975	376	15
976	514	67
977	783	465
978	258	58
979	62	26
980	43	166
981	433	249
982	899	38
983	604	470
984	970	238
985	946	538
986	471	998
987	127	690
988	27	576
989	224	979
990	941	702
991	880	431
992	5	421
993	724	762
994	362	671
995	63	289
996	507	397
997	999	797
998	419	748
999	728	659
1000	759	288
1001	908	747
DEMAND_SECTION
1	0
2	5
3	8
4	6
5	2
6	5
7	9
8	9
9	8
10	3
11	7
12	8
13	5
14	1
15	3
16	5
17	2
18	3
19	6
20	3
21	2
22	8
23	5
24	4
25	3
26	3
27	4
28	3
29	1
30	2
31	2
32	4
33	2
34	1
35	2
36	6
37	6
38	4
39	8
40	3
41	9
42	3
43	1
44	2
45	2
46	1
47	4
48	2
49	3
50	6
51	4
52	5
53	7
54	3
55	7
56	4
57	6
58	8
59	4
60	4
61	9
62	3
63	6
64	7
65	1
66	8
67	5
68	6
69	8
70	7
71	2
72	8
73	4
74	4
75	4
76	1
77	2
78	3
79	2
80	1
81	7
82	3
83	8
84	7
85	9
86	5
87	8
88	2
89	7
90	8
91	5
92	2
93	6
94	7
95	2
96	3
97	3
98	3
99	3
100	2
101	6
102	5
103	9
104	6
105	9
106	8
107	9
108	4
109	5
110	9
111	9
112	2
113	5
114	3
115	6
116	8
117	2
118	3
119	4
120	4
121	2
122	1
123	5
124	1
125	8
126	9
127	8
128	2
129	1
130	3
131	3
132	1
133	7
134	8
135	1
136	1
137	3
138	8
139	9
140	1
141	7
142	6
143	3
144	8
145	8
146	9
147	8
148	9
149	2
150	8
151	3
152	4
153	8
154	2
155	5
156	6
157	4
158	9
159	2
160	5
161	4
162	7
163	8
164	6
165	4
166	3
167	4
168	5
169	8
170	8
171	4
172	3
173	8
174	8
175	4
176	9
177	7
178	9
179	6
180	8
181	5
182	1
183	6
184	1
185	4
186	9
187	3
188	2
189	5
190	3
191	9
192	8
193	8
194	9
195	4
196	1
197	5
198	7
199	8
200	7
201	9
202	7
203	8
204	9
205	1
206	3
207	9
208	6
209	5
210	7
211	5
212	3
213	8
214	8
215	9
216	5
217	1
218	2
219	7
220	5
221	4
222	6
223	1
224	2
225	8
226	6
227	9
228	5
229	7
230	2
231	1
232	3
233	4
234	4
235	7
236	4
237	8
238	1
239	3
240	2
241	2
242	6
243	6
244	3
245	5
246	2
247	2
248	1
249	6
250	2
251	8
252	5
253	1
254	7
255	3
256	3
257	1
258	2
259	7
260	1
261	2
262	3
263	7
264	1
265	4
266	4
267	7
268	8
269	1
270	1
271	8
272	7
273	2
274	5
275	5
276	9
277	5
278	8
279	8
280	3
281	9
282	6
283	5
284	3
285	6
286	8
287	2
288	7
289	3
290	7
291	3
292	5
293	2
294	2
295	3
296	5
297	5
298	1
299	7
300	6
301	1
302	1
303	7
304	8
305	7
306	5
307	8
308	3
309	8
310	2
311	6
312	6
313	2
314	3
315	5
316	2
317	9
318	8
319	7
320	1
321	9
322	3
323	7
324	2
325	2
326	8
327	4
328	3
329	7
330	4
331	9
332	7
333	4
334	3
335	7
336	9
337	2
338	3
339	7
340	3
341	3
342	3
343	4
344	6
345	9
346	8
347	5
348	1
349	4
350	3
351	7
352	1
353	2
354	5
355	8
356	8
357	7
358	1
359	1
360	6
361	1
362	5
363	4
364	6
365	8
366	7
367	4
368	1
369	1
370	4
371	4
372	2
373	1
374	2
375	7
376	3
377	3
378	1
379	2
380	6
381	4
382	5
383	2
384	4
385	8
386	8
387	2
388	5
389	7
390	2
391	8
392	7
393	8
394	5
395	9
396	4
397	8
398	3
399	5
400	9
401	4
402	3
403	6
404	1
405	6
406	2
407	9
408	4
409	2
410	8
411	7
412	2
413	8
414	2
415	8
416	8
417	6
418	5
419	9
420	1
421	1
422	1
423	4
424	7
425	1
426	4
427	1
428	6
429	3
430	9
431	6
432	5
433	4
434	8
435	9
436	5
437	8
438	6
439	2
440	9
441	6
442	3
443	8
444	8
445	9
446	4
447	8
448	8
449	7
450	2
451	5
452	8
453	7
454	6
455	5
456	4
457	8
458	8
459	9
460	4
461	2
462	2
463	7
464	2
465	1
466	3
467	8
468	7
469	2
470	4
471	2
472	8
473	9
474	8
475	6
476	8
477	3
478	8
479	7
480	5
481	2
482	7
483	1
484	2
485	1
486	4
487	1
488	4
489	6
490	3
491	6
492	2
493	4
494	2
495	2
496	1
497	4
498	8
499	5
500	9
501	1
502	5
503	4
504	2
505	8
506	1
507	6
508	2
509	5
510	6
511	9
512	7
513	5
514	9
515	9
516	2
517	4
518	5
519	7
520	4
521	2
522	3
523	9
524	2
525	6
526	9
527	8
528	3
529	8
530	8
531	8
532	1
533	2
534	8
535	3
536	6
537	7
538	1
539	9
540	2
541	7
542	3
543	3
544	6
545	8
546	6
547	9
548	9
549	4
550	2
551	5
552	5
553	2
554	6
555	4
556	5
557	4
558	8
559	8
560	1
561	2
562	1
563	5
564	2
565	1
566	8
567	1
568	7
569	6
570	4
571	4
572	9
573	7
574	5
575	2
576	2
577	8
578	2
579	4
580	1
581	3
582	2
583	1
584	1
585	5
586	4
587	5
588	1
589	5
590	6
591	9
592	6
593	4
594	9
595	9
596	1
597	1
598	7
599	9
600	8
601	2
602	1
603	3
604	6
605	3
606	5
607	2
608	3
609	9
610	2
611	7
612	4
613	3
614	5
615	2
616	1
617	3
618	1
619	7
620	5
621	2
622	7
623	2
624	1
625	1
626	8
627	9
628	6
629	4
630	5
631	7
632	3
633	6
634	1
635	1
636	5
637	1
638	9
639	5
640	7
641	5
642	9
643	8
644	2
645	5
646	8
647	3
648	6
649	5
650	6
651	7
652	7
653	7
654	1
655	8
656	7
657	6
658	1
659	3
660	1
661	1
662	5
663	5
664	8
665	7
666	9
667	8
668	8
669	1
670	9
671	7
672	5
673	6
674	1
675	8
676	6
677	3
678	5
679	9
680	2
681	8
682	3
683	5
684	1
685	8
686	7
687	2
688	2
689	7
690	1
691	6
692	1
693	1
694	7
695	6
696	6
697	5
698	1
699	1
700	5
701	6
702	7
703	8
704	7
705	3
706	8
707	8
708	2
709	6
710	6
711	9
712	9
713	5
714	8
715	6
716	6
717	9
718	3
719	8
720	9
721	6
722	1
723	6
724	6
725	6
726	7
727	4
728	5
729	1
730	6
731	2
732	7
733	8
734	3
735	2
736	7
737	3
738	9
739	8
740	2
741	4
742	2
743	4
744	2
745	7
746	7
747	7
748	3
749	5
750	3
751	9
752	7
753	5
754	4
755	8
756	5
757	1
758	5
759	9
760	8
761	5
762	5
763	4
764	3
765	3
766	2
767	7
768	8
769	9
770	7
771	1
772	6
773	5
774	4
775	5
776	4
777	6
778	5
779	6
780	5
781	8
782	8
783	3
784	9
785	2
786	3
787	6
788	9
789	5
790	9
791	4
792	9
793	2
794	1
795	7
796	3
797	1
798	3
799	1
800	4
801	8
802	2
803	3
804	9
805	1
806	5
807	9
808	1
809	3
810	5
811	1
812	8
813	1
814	2
815	3
816	1
817	7
818	6
819	3
820	8
821	5
822	1
823	4
824	8
825	9
826	3
827	1
828	3
829	9
830	9
831	6
832	4
833	6
834	1
835	4
836	6
837	6
838	9
839	2
840	8
841	6
842	9
843	6
844	9
845	7
846	3
847	4
848	5
849	2
850	1
851	8
852	1
853	6
854	6
855	1
856	2
857	2
858	1
859	6
860	5
861	5
862	8
863	9
864	5
865	5
866	4
867	3
868	6
869	5
870	9
871	7
872	1
873	2
874	3
875	3
876	6
877	2
878	6
879	1
880	8
881	1
882	5
883	7
884	8
885	7
886	4
887	6
888	2
889	7
890	8
891	2
892	7
893	8
894	9
895	3
896	9
897	5
898	1
899	8
900	4
901	7
902	9
903	9
904	3
905	8
906	6
907	3
908	8
909	5
910	6
911	1
912	8
913	3
914	2
915	3
916	1
917	8
918	5
919	9
920	8
921	1
922	3
923	7
924	5
925	5
926	8
927	9
928	3
929	2
930	6
931	9
932	8
933	2
934	1
935	3
936	1
937	9
938	2
939	3
940	1
941	6
942	6
943	3
944	7
945	7
946	3
947	6
948	4
949	2
950	6
951	1
952	2
953	1
954	6
955	2
956	8
957	8
958	6
959	9
960	6
961	9
962	7
963	3
964	9
965	4
966	7
967	7
968	4
969	2
970	9
971	3
972	2
973	9
974	1
975	1
976	2
977	2
978	8
979	4
980	1
981	7
982	5
983	4
984	6
985	8
986	7
987	2
988	1
989	5
990	4
991	7
992	8
993	8
994	9
995	3
996	5
997	4
998	8
999	8
1000	3
1001	9
TIME_WINDOW_SECTION
1	0	3000
2	570	2134
3	0	953
4	600	2231
5	803	1641
6	762	2185
7	427	1887
8	645	1864
9	150	1968
10	587	2248
11	0	995
12	579	789
13	1619	2291
14	1030	1896
15	916	1313
16	823	2375
17	574	1640
18	573	2314
19	1108	1528
20	292	1938
21	972	1543
22	630	2447
23	1011	1736
24	1218	2122
25	1908	2263
26	223	1986
27	1356	1698
28	1025	2300
29	1272	1874
30	412	2164
31	1216	2680
32	690	1500
33	181	1654
34	1269	1852
35	1347	1927
36	1574	1941
37	0	1047
38	1106	2410
39	838	2135
40	1477	2889
41	321	2151
42	491	1095
43	1059	2363
44	1353	2089
45	1740	2227
46	767	2018
47	486	1414
48	766	2686
49	1262	3000
50	820	1396
51	959	2013
52	136	1772
53	619	2149
54	907	2086
55	1037	1809
56	1103	2068
57	1322	1928
58	612	1862
59	356	1422
60	779	2206
61	1653	2877
62	995	2289
63	987	1633
64	2	1691
65	668	1985
66	1390	2513
67	1235	1596
68	527	1959
69	981	2408
70	1199	2085
71	1421	3000
72	972	2109
73	2228	2660
74	905	1391
75	887	2701
76	1240	2600
77	1259	2326
78	1303	1636
79	666	1665
80	193	2024
81	691	1206
82	913	2271
83	1233	2216
84	977	1332
85	1039	1524
86	1841	2055
87	877	1742
88	1406	1711
89	984	1282
90	354	1955
91	1160	2953
92	947	1147
93	195	1604
94	1026	1249
95	1223	2738
96	365	1914
97	1112	1571
98	0	1553
99	790	2614
100	66	2050
101	1430	1666
102	287	1458
103	636	1494
104	879	1480
105	960	2297
106	1350	2261
107	1261	2697
108	0	1607
109	755	2512
110	1251	1536
111	0	1125
112	335	1024
113	707	1390
114	1327	2748
115	539	2144
116	1182	1754
117	0	1032
118	0	725
119	140	1021
120	581	2357
121	1664	1874
122	771	1929
123	678	2427
124	818	2281
125	787	2325
126	526	2111
127	1012	2014
128	191	2185
129	1018	1916
130	460	1395
131	347	1663
132	836	1733
133	1292	2912
134	1282	2279
135	164	1483
136	1133	2431
137	1140	1391
138	1231	1960
139	783	2530
140	1849	2084
141	1712	2342
142	1091	1449
143	1035	1876
144	1088	2861
145	1093	2151
146	822	2713
147	198	2023
148	0	1327
149	1281	2114
150	751	2138
151	356	749
152	730	1460
153	939	2563
154	85	1654
155	1492	1918
156	684	2510
157	1491	2599
158	1124	2771
159	1015	2149
160	481	1807
161	1219	1592
162	1568	1774
163	985	2411
164	1078	2423
165	755	1983
166	826	1908
167	1243	2404
168	402	2297
169	729	1782
170	777	1245
171	1112	2757
172	697	1699
173	0	1323
174	636	2459
175	1182	1776
176	1551	2830
177	645	1957
178	1590	2670
179	789	1612
180	999	2344
181	1093	2228
182	1482	2381
183	1018	2302
184	818	1060
185	365	1374
186	1347	1573
187	1585	1864
188	1303	1902
189	455	1572
190	1567	2529
191	253	906
192	799	1936
193	490	2272
194	1539	2360
195	207	2158
196	1720	2045
197	1648	1905
198	1457	2385
199	100	2036
200	1489	1770
201	948	2781
202	1290	2607
203	728	2484
204	0	1584
205	2084	2452
206	1128	1779
207	541	1679
208	459	1039
209	884	1303
210	1413	2073
211	1063	1366
212	865	1483
213	859	2680
214	701	1306
215	1248	1733
216	2075	2983
217	1101	1627
218	1452	1754
219	559	2126
220	721	1249
221	1041	2625
222	719	2497
223	1745	3000
224	775	1504
225	386	2196
226	1071	1702
227	726	1927
228	516	972
229	522	1133
230	698	2609
231	1235	1648
232	594	1916
233	1611	2023
234	711	1545
235	873	2768
236	737	2093
237	241	1708
238	844	1541
239	815	2479
240	1889	2369
241	215	1990
242	1126	1735
243	822	1640
244	1023	2661
245	1722	2132
246	372	2295
247	66	597
248	39	778
249	1035	1245
250	1164	1820
251	870	1122
252	1357	1799
253	403	1999
254	772	2195
255	482	2119
256	1360	2350
257	111	971
258	1174	1615
259	553	2016
260	0	1619
261	579	1428
262	0	1903
263	117	1498
264	597	1382
265	1183	1413
266	1048	2236
267	1714	2233
268	237	820
269	1214	1414
270	1000	2611
271	1032	1745
272	995	2621
273	1265	2443
274	320	2181
275	450	1496
276	1144	2697
277	850	1779
278	939	1556
279	988	1828
280	1966	2303
281	868	2316
282	0	1584
283	693	2165
284	670	2344
285	592	2328
286	1130	2352
287	552	2304
288	1170	2042
289	154	1066
290	0	961
291	745	1986
292	291	1752
293	1227	1633
294	626	2523
295	810	2440
296	1855	2770
297	66	981
298	1336	1664
299	429	1541
300	955	1486
301	455	1729
302	973	1291
303	0	1793
304	1300	3000
305	253	1005
306	1449	1866
307	0	1004
308	499	1822
309	1212	1573
310	726	1063
311	1304	2377
312	471	1528
313	357	1915
314	0	1358
315	654	1870
316	370	1473
317	1116	2683
318	1292	2112
319	1639	3000
320	883	1286
321	902	2846
322	866	1679
323	952	1168
324	386	2060
325	1272	1611
326	801	2217
327	434	917
328	1545	2203
329	642	2483
330	664	1954
331	0	1718
332	366	1099
333	1209	1854
334	1110	1375
335	1986	2368
336	486	1733
337	84	885
338	0	1288
339	819	1999
340	904	2199
341	1499	2562
342	578	2218
343	905	1380
344	705	1557
345	672	2247
346	1113	2271
347	949	1207
348	852	1870
349	705	2280
350	650	1631
351	20	1990
352	11	1735
353	333	1863
354	506	1479
355	1323	2234
356	801	2793
357	742	1494
358	363	2125
359	1945	3000
360	592	967
361	1318	2417
362	124	1685
363	510	1974
364	1462	2290
365	807	1098
366	733	1425
367	1018	1800
368	1379	1661
369	1647	2361
370	923	1322
371	1767	2128
372	315	917
373	99	1992
374	1024	1860
375	1383	1975
376	409	2147
377	1477	3000
378	1258	2022
379	820	1105
380	430	2013
381	950	2121
382	595	1042
383	0	1416
384	120	1506
385	220	1819
386	755	1709
387	541	1780
388	1527	1982
389	1012	2306
390	1907	2471
391	1496	1837
392	891	2516
393	272	2085
394	297	1021
395	363	1580
396	1312	1690
397	1471	3000
398	888	2237
399	837	2426
400	506	2451
401	1358	1612
402	1315	2532
403	925	2025
404	1072	1704
405	1653	1874
406	964	1984
407	868	1595
408	386	1253
409	1478	1946
410	925	1894
411	874	1241
412	1046	2220
413	591	2350
414	1594	2135
415	1557	2224
416	840	1262
417	420	740
418	1049	1869
419	715	2513
420	1294	1680
421	156	1054
422	1732	2340
423	896	1850
424	1312	3000
425	898	2087
426	1983	2781
427	386	1707
428	1114	2182
429	1416	1714
430	156	1523
431	461	1553
432	740	2147
433	1430	1897
434	872	1707
435	0	1454
436	0	1261
437	1250	2689
438	1470	1687
439	664	2386
440	1378	2410
441	1200	1409
442	710	2520
443	1045	2569
444	434	1725
445	58	1658
446	1036	2692
447	172	2082
448	1744	2278
449	169	2163
450	617	1739
451	883	2205
452	1715	1948
453	951	1675
454	731	1273
455	2276	2704
456	1015	1933
457	0	1573
458	1307	2860
459	890	1626
460	821	1856
461	564	2402
462	1142	1629
463	863	1645
464	595	1295
465	568	1204
466	2045	2330
467	668	1579
468	1064	2621
469	1403	1760
470	556	2257
471	510	2459
472	1235	2361
473	0	1275
474	40	1676
475	231	2009
476	776	2415
477	0	1669
478	297	1445
479	735	2238
480	483	2406
481	11	1936
482	1634	3000
483	797	2105
484	1293	2681
485	1374	2563
486	737	2020
487	680	2600
488	586	1570
489	1528	1855
490	524	1408
491	1545	2434
492	104	881
493	796	2240
494	931	1912
495	503	1973
496	1275	2568
497	1377	1957
498	1171	2419
499	1273	2264
500	0	1404
501	816	1775
502	301	1453
503	1337	2140
504	917	2623
505	321	1907
506	1811	2650
507	0	1177
508	43	1863
509	496	1110
510	656	1385
511	850	2703
512	1149	2359
513	736	2702
514	702	2186
515	1114	2513
516	792	1991
517	733	1214
518	338	1758
519	1327	2615
520	565	2379
521	395	1375
522	233	665
523	1560	2550
524	574	1130
525	419	1927
526	925	1994
527	1045	1878
528	587	1779
529	891	2468
530	1421	2791
531	1127	1773
532	350	1724
533	1212	2528
534	545	1958
535	1725	2210
536	383	1947
537	844	1246
538	814	1927
539	1218	1805
540	13	1701
541	1003	1682
542	1084	2325
543	675	1491
544	486	1314
545	831	2500
546	1748	1997
547	765	2446
548	1874	2152
549	677	1583
550	344	2250
551	940	1808
552	912	2243
553	522	1490
554	1199	2004
555	1496	1867
556	863	1769
557	874	1121
558	772	1184
559	819	1651
560	604	900
561	1362	1838
562	527	2445
563	365	1630
564	779	1232
565	1064	1758
566	762	2115
567	1275	2942
568	44	1918
569	1078	2866
570	494	1751
571	1406	3000
572	1044	1382
573	1176	1410
574	926	1552
575	839	2727
576	0	1428
577	1339	1959
578	687	1415
579	1661	3000
580	1413	2958
581	739	2606
582	1387	1703
583	237	1470
584	1542	1772
585	1410	1640
586	466	2023
587	1044	1534
588	93	1373
589	949	1582
590	1044	2413
591	1394	2878
592	898	1874
593	715	1751
594	1508	1844
595	852	1591
596	906	1787
597	1386	1766
598	975	1227
599	1717	2452
600	524	1616
601	1103	2059
602	1096	2254
603	714	1419
604	857	1739
605	511	1423
606	226	2185
607	198	2193
608	1550	2125
609	221	958
610	624	1294
611	1182	2177
612	1909	2755
613	1187	3000
614	1318	1909
615	1192	2063
616	216	1294
617	507	1069
618	1355	2534
619	1207	1532
620	718	1841
621	1435	2081
622	1281	1606
623	558	2038
624	586	2326
625	1045	2999
626	1329	2028
627	268	2255
628	719	1471
629	1370	1711
630	597	2145
631	828	2436
632	998	2561
633	944	2145
634	990	1498
635	1551	1986
636	67	1879
637	530	2202
638	1103	2119
639	674	1161
640	248	885
641	1776	2862
642	192	799
643	324	2117
644	717	2198
645	1496	2586
646	1017	2239
647	1312	2305
648	493	1599
649	944	1927
650	1303	1771
651	1640	2063
652	1091	2375
653	271	1508
654	1114	2818
655	406	1223
656	678	1173
657	298	1719
658	735	2124
659	1837	2283
660	810	1993
661	493	1379
662	468	1257
663	585	1571
664	1018	1622
665	1203	1455
666	138	1840
667	1717	2305
668	684	2591
669	392	1623
670	138	2048
671	921	1681
672	888	2185
673	373	1487
674	1368	2080
675	1250	2556
676	1397	2084
677	1883	2147
678	1072	2614
679	1005	2192
680	568	2030
681	1100	1330
682	1110	2219
683	484	1512
684	1082	3000
685	1155	2518
686	1075	2757
687	470	1802
688	169	1840
689	415	2333
690	558	1782
691	926	1988
692	530	1563
693	0	1764
694	0	1214
695	1360	2585
696	1487	2169
697	286	2095
698	1537	1983
699	844	2379
700	1418	1921
701	846	2200
702	945	1763
703	1113	1716
704	1154	1888
705	1665	1953
706	952	1212
707	790	1384
708	748	1482
709	763	2064
710	1379	2126
711	671	1998
712	659	2308
713	941	2008
714	794	1844
715	472	1396
716	1094	1488
717	898	1110
718	0	1899
719	1194	1631
720	689	2017
721	1086	1941
722	827	1303
723	1331	2238
724	1186	1477
725	899	1470
726	1961	2392
727	1320	2587
728	2406	2685
729	907	1722
730	1302	1697
731	2110	2662
732	1587	2171
733	0	1026
734	1229	2309
735	1286	1785
736	881	1763
737	1334	1750
738	952	1719
739	312	1938
740	334	2089
741	925	2281
742	594	2063
743	1262	2898
744	771	2349
745	1752	2406
746	410	2284
747	1422	2686
748	1404	1751
749	1218	2178
750	0	1445
751	998	2447
752	463	2068
753	1331	1751
754	27	1439
755	1826	2189
756	890	2424
757	1540	2722
758	805	2758
759	294	1744
760	61	2024
761	478	1965
762	872	2370
763	182	1046
764	1545	1765
765	572	1384
766	1230	1949
767	839	2118
768	73	1795
769	0	1202
770	464	2222
771	962	2574
772	796	2051
773	783	1115
774	269	1850
775	956	1547
776	1099	2686
777	855	2297
778	900	1491
779	0	1523
780	844	1045
781	694	2582
782	469	1578
783	1872	2380
784	365	1510
785	815	2051
786	710	1912
787	1543	1952
788	798	1214
789	871	2399
790	0	1578
791	812	1527
792	870	2524
793	1293	1595
794	947	1232
795	381	1292
796	844	2205
797	1126	2086
798	1075	2827
799	606	1214
800	1680	3000
801	1117	1387
802	1183	1576
803	1459	2107
804	586	1904
805	815	1764
806	187	1038
807	1745	2047
808	511	1372
809	1360	1950
810	345	987
811	635	2119
812	345	2284
813	1568	2092
814	1023	1888
815	517	2292
816	450	2280
817	977	1677
818	1496	1896
819	940	2060
820	183	1925
821	72	1583
822	797	1557
823	1112	1525
824	1239	2562
825	752	1715
826	1795	2834
827	919	2605
828	360	1844
829	446	2280
830	458	2288
831	659	1928
832	134	1376
833	187	1918
834	557	2279
835	516	1205
836	868	2593
837	646	2321
838	616	1005
839	1398	2155
840	421	1535
841	1148	2038
842	0	1491
843	1213	2041
844	938	2582
845	1058	2450
846	1084	2731
847	1432	2786
848	1611	2303
849	662	2101
850	0	1434
851	1550	1796
852	586	1457
853	526	2378
854	1125	2588
855	1299	2770
856	742	1426
857	958	1559
858	1556	1832
859	1089	1388
860	153	1417
861	1603	1999
862	828	2686
863	673	2079
864	1720	2906
865	685	1201
866	1447	1726
867	793	2543
868	1370	1844
869	229	1604
870	471	2212
871	1059	1634
872	787	1045
873	1078	2047
874	1745	2641
875	666	1473
876	280	1072
877	769	1544
878	875	1351
879	909	1462
880	981	1322
881	768	2126
882	323	1774
883	551	1180
884	733	1291
885	1349	2531
886	1289	3000
887	678	1124
888	873	2826
889	620	2392
890	358	1986
891	1179	1972
892	784	2219
893	0	1340
894	520	1222
895	1056	1896
896	1382	1645
897	930	2551
898	1154	2231
899	935	2335
900	1148	2939
901	817	1234
902	265	1333
903	1776	2300
904	1187	1767
905	239	2159
906	427	2258
907	603	1499
908	171	1927
909	438	1929
910	1234	1799
911	262	1220
912	457	2024
913	815	2047
914	992	1840
915	1181	1794
916	1236	1857
917	29	559
918	670	1947
919	1325	1910
920	44	1859
921	764	1823
922	1293	1937
923	303	1294
924	647	1789
925	257	2022
926	1457	3000
927	473	1813
928	1476	1760
929	564	2173
930	137	2082
931	602	2296
932	1166	1847
933	748	1876
934	346	2172
935	572	2416
936	0	950
937	1124	2235
938	1829	2148
939	824	2316
940	1668	2847
941	799	2728
942	165	1910
943	1597	1854
944	750	2349
945	1563	2100
946	695	2541
947	249	1166
948	466	2018
949	913	2435
950	1366	2621
951	434	1473
952	18	1710
953	948	1902
954	619	1614
955	566	2403
956	341	1024
957	439	1462
958	70	1984
959	985	1314
960	655	1566
961	1788	2862
962	1190	2327
963	1225	1655
964	1213	1753
965	470	2375
966	521	2028
967	969	1689
968	0	1796
969	520	1697
970	912	2130
971	1288	1659
972	980	1568
973	1388	2163
974	327	2174
975	129	2049
976	806	1698
977	757	1203
978	1227	2369
979	704	1942
980	742	956
981	785	1476
982	1300	1665
983	1002	2977
984	1376	1693
985	1227	1593
986	0	1406
987	206	1416
988	105	840
989	250	667
990	509	1816
991	916	2169
992	58	1225
993	834	1355
994	51	1761
995	42	1738
996	1748	2382
997	650	2431
998	592	2471
999	1597	1899
1000	1029	2440
1001	799	1648
DEPOT_SECTION
1
-1
EOF
