NAME : n1001-0020
COMMENT : "Generated by pyvrp_manuel (VRPTW)"
TYPE : VRPTW
DIMENSION : 1001
EDGE_WEIGHT_TYPE : EUC_2D
CAPACITY : 150
VEHICLES : 1000
SERVICE_TIME : 200
NODE_COORD_SECTION
1	766	522
2	591	985
3	934	551
4	846	66
5	709	766
6	585	675
7	783	63
8	742	764
9	45	760
10	215	666
11	43	791
12	619	501
13	913	786
14	673	2
15	750	242
16	285	797
17	582	583
18	915	712
19	84	192
20	925	155
21	261	448
22	639	879
23	520	652
24	876	129
25	553	300
26	157	448
27	240	299
28	676	212
29	805	717
30	950	657
31	271	208
32	630	23
33	452	218
34	159	300
35	325	866
36	240	867
37	690	324
38	549	474
39	657	798
40	200	334
41	556	865
42	357	425
43	180	426
44	466	312
45	392	732
46	548	205
47	793	851
48	617	289
49	838	419
50	877	87
51	410	398
52	994	760
53	169	996
54	116	713
55	190	795
56	325	296
57	821	871
58	698	657
59	239	185
60	911	279
61	517	627
62	900	266
63	200	901
64	800	908
65	724	486
66	561	281
67	719	568
68	792	725
69	740	712
70	573	682
71	894	232
72	540	560
73	692	97
74	482	759
75	942	78
76	140	755
77	679	158
78	682	835
79	655	34
80	961	105
81	506	434
82	545	524
83	26	674
84	934	277
85	199	411
86	712	842
87	635	854
88	140	124
89	507	327
90	328	603
91	424	243
92	68	480
93	470	300
94	455	472
95	914	90
96	720	245
97	173	435
98	718	705
99	121	720
100	2	376
101	134	95
102	485	360
103	507	78
104	282	829
105	234	886
106	963	751
107	570	746
108	609	843
109	582	309
110	410	678
111	379	809
112	387	941
113	583	198
114	45	983
115	311	871
116	429	934
117	392	448
118	885	609
119	712	369
120	773	985
121	236	591
122	424	267
123	425	39
124	829	609
125	26	384
126	928	766
127	866	919
128	949	178
129	766	358
130	482	843
131	395	824
132	784	976
133	822	297
134	323	760
135	372	75
136	853	272
137	462	257
138	358	405
139	97	197
140	217	293
141	452	262
142	842	194
143	666	173
144	130	577
145	308	422
146	750	894
147	803	479
148	145	534
149	674	484
150	854	746
151	850	585
152	673	350
153	399	261
154	469	821
155	163	607
156	235	646
157	748	550
158	950	857
159	669	613
160	679	506
161	2	324
162	536	397
163	793	689
164	727	465
165	466	978
166	944	489
167	247	193
168	890	390
169	222	520
170	312	618
171	393	66
172	635	437
173	844	784
174	965	12
175	733	78
176	361	787
177	150	999
178	890	385
179	628	861
180	238	870
181	902	385
182	104	608
183	196	155
184	875	936
185	86	318
186	292	716
187	906	588
188	659	77
189	364	567
190	32	664
191	709	633
192	397	970
193	456	457
194	38	338
195	814	663
196	951	822
197	829	895
198	553	234
199	867	689
200	883	196
201	187	36
202	534	957
203	949	892
204	490	771
205	130	296
206	537	488
207	540	0
208	976	329
209	842	683
210	277	799
211	239	963
212	771	256
213	621	270
214	597	873
215	711	650
216	794	941
217	823	557
218	978	594
219	672	726
220	784	126
221	614	19
222	62	113
223	537	644
224	910	364
225	396	197
226	319	590
227	891	998
228	141	545
229	582	871
230	491	373
231	639	519
232	735	975
233	596	905
234	677	732
235	898	638
236	493	544
237	968	148
238	366	185
239	335	775
240	954	712
241	594	65
242	201	806
243	497	954
244	584	319
245	695	419
246	939	596
247	891	366
248	685	335
249	155	936
250	864	503
251	988	124
252	387	196
253	549	343
254	217	610
255	478	41
256	517	549
257	217	252
258	202	234
259	197	694
260	396	984
261	93	774
262	281	796
263	658	389
264	714	646
265	156	558
266	901	28
267	548	145
268	164	921
269	256	14
270	383	656
271	528	677
272	149	980
273	526	300
274	502	180
275	846	622
276	900	419
277	580	100
278	831	316
279	955	169
280	991	91
281	875	423
282	22	172
283	379	438
284	673	646
285	996	488
286	497	703
287	922	616
288	613	186
289	968	380
290	552	908
291	168	587
292	962	672
293	194	870
294	650	313
295	839	37
296	917	238
297	83	509
298	199	459
299	834	260
300	745	229
301	192	798
302	775	498
303	842	99
304	734	926
305	673	983
306	62	309
307	562	512
308	494	659
309	314	978
310	552	351
311	695	429
312	456	135
313	629	286
314	954	112
315	587	602
316	839	901
317	127	455
318	351	20
319	5	570
320	120	237
321	599	275
322	731	789
323	702	145
324	65	171
325	61	461
326	577	583
327	135	558
328	962	656
329	105	487
330	991	833
331	656	141
332	822	690
333	990	498
334	757	165
335	660	945
336	51	752
337	451	154
338	246	62
339	133	633
340	97	908
341	900	98
342	656	602
343	355	206
344	66	644
345	672	778
346	167	389
347	920	591
348	911	490
349	759	784
350	412	466
351	535	232
352	63	427
353	661	767
354	404	849
355	241	246
356	939	313
357	223	184
358	931	285
359	141	412
360	361	505
361	626	933
362	306	115
363	463	605
364	558	826
365	180	738
366	609	762
367	436	929
368	796	555
369	794	770
370	885	296
371	595	519
372	124	581
373	129	551
374	40	156
375	933	388
376	77	11
377	761	864
378	692	975
379	933	926
380	874	480
381	819	111
382	332	991
383	731	673
384	553	474
385	132	137
386	180	314
387	370	874
388	372	516
389	459	884
390	503	807
391	684	724
392	236	816
393	639	188
394	962	677
395	654	349
396	653	767
397	622	225
398	703	289
399	829	622
400	780	640
401	671	919
402	94	604
403	317	413
404	318	332
405	625	145
406	664	296
407	162	974
408	225	822
409	794	906
410	271	143
411	671	713
412	270	512
413	220	108
414	935	431
415	198	404
416	865	673
417	612	693
418	248	334
419	542	295
420	805	341
421	547	818
422	312	682
423	574	540
424	189	325
425	908	443
426	813	918
427	528	726
428	312	366
429	243	490
430	625	785
431	55	36
432	355	939
433	258	815
434	834	693
435	291	564
436	840	376
437	628	372
438	286	561
439	624	747
440	516	631
441	46	87
442	815	49
443	1	648
444	73	966
445	269	935
446	115	349
447	193	971
448	32	734
449	17	760
450	419	1000
451	993	60
452	941	213
453	724	386
454	216	895
455	922	145
456	400	696
457	371	421
458	952	582
459	598	137
460	917	808
461	940	475
462	472	495
463	453	567
464	777	65
465	841	166
466	475	455
467	240	284
468	485	494
469	443	30
470	874	123
471	274	904
472	558	34
473	440	707
474	721	896
475	426	166
476	342	1
477	379	8
478	733	177
479	462	378
480	278	719
481	583	626
482	280	45
483	677	290
484	964	103
485	47	474
486	952	136
487	432	161
488	573	578
489	241	910
490	127	192
491	437	291
492	990	421
493	629	759
494	582	899
495	835	446
496	295	684
497	705	395
498	267	269
499	640	717
500	392	385
501	856	632
502	285	367
503	197	698
504	8	560
505	843	993
506	800	563
507	596	351
508	851	814
509	452	23
510	665	862
511	200	845
512	308	385
513	845	422
514	527	67
515	170	665
516	980	39
517	172	858
518	586	368
519	271	983
520	643	98
521	45	534
522	829	364
523	904	803
524	551	988
525	232	888
526	149	775
527	379	674
528	252	969
529	30	91
530	656	654
531	678	777
532	414	243
533	750	960
534	907	967
535	485	92
536	323	478
537	328	173
538	700	24
539	386	455
540	742	375
541	894	854
542	354	292
543	753	642
544	98	110
545	19	466
546	890	437
547	498	391
548	108	616
549	541	574
550	725	593
551	390	982
552	535	348
553	996	805
554	259	403
555	169	942
556	897	650
557	73	240
558	379	920
559	16	803
560	749	502
561	563	992
562	529	5
563	792	211
564	966	629
565	872	400
566	383	37
567	405	852
568	146	900
569	524	393
570	620	814
571	231	177
572	175	618
573	220	285
574	516	949
575	372	654
576	702	656
577	981	196
578	606	155
579	588	665
580	128	411
581	370	495
582	728	470
583	177	218
584	970	491
585	917	691
586	180	939
587	159	797
588	991	853
589	724	930
590	997	2
591	456	258
592	594	119
593	899	148
594	914	776
595	90	437
596	488	701
597	313	746
598	705	518
599	50	199
600	349	566
601	987	966
602	116	571
603	644	898
604	99	350
605	710	372
606	338	857
607	632	645
608	228	258
609	614	21
610	72	363
611	685	843
612	987	334
613	355	104
614	838	817
615	468	815
616	309	691
617	85	536
618	457	660
619	809	1000
620	235	149
621	998	924
622	91	471
623	205	39
624	468	246
625	546	166
626	247	766
627	112	53
628	877	401
629	691	561
630	935	247
631	449	455
632	221	754
633	335	701
634	975	276
635	426	733
636	963	689
637	898	167
638	189	473
639	877	399
640	749	864
641	831	981
642	270	427
643	677	75
644	65	622
645	721	955
646	123	777
647	48	826
648	636	53
649	239	960
650	592	623
651	759	813
652	673	603
653	530	855
654	45	147
655	884	896
656	804	38
657	344	874
658	223	337
659	39	220
660	301	425
661	961	876
662	468	228
663	666	896
664	601	10
665	871	242
666	201	716
667	655	131
668	932	675
669	70	939
670	415	678
671	927	104
672	444	630
673	137	85
674	650	151
675	490	317
676	802	700
677	473	422
678	916	557
679	120	557
680	184	525
681	680	155
682	732	641
683	543	184
684	458	853
685	994	381
686	237	74
687	589	75
688	357	307
689	800	972
690	559	891
691	97	811
692	660	375
693	693	587
694	440	25
695	401	785
696	326	749
697	163	754
698	694	780
699	977	530
700	838	615
701	989	256
702	699	46
703	580	749
704	797	986
705	315	309
706	825	275
707	241	925
708	231	383
709	441	337
710	985	746
711	85	577
712	351	811
713	808	879
714	651	821
715	754	500
716	705	977
717	532	537
718	634	921
719	535	28
720	80	57
721	258	889
722	290	812
723	517	78
724	853	3
725	956	150
726	668	601
727	476	456
728	928	558
729	736	615
730	3	63
731	81	209
732	311	708
733	136	449
734	370	106
735	197	530
736	706	132
737	201	881
738	698	824
739	140	558
740	109	798
741	32	480
742	5	204
743	280	93
744	729	666
745	926	243
746	884	731
747	421	374
748	232	225
749	651	100
750	299	225
751	230	846
752	880	786
753	962	42
754	646	63
755	937	939
756	147	857
757	577	83
758	758	35
759	56	765
760	51	866
761	138	542
762	866	770
763	915	410
764	332	221
765	191	270
766	261	425
767	771	529
768	54	936
769	200	187
770	900	326
771	323	664
772	915	373
773	339	876
774	677	86
775	719	529
776	141	146
777	899	92
778	379	605
779	144	158
780	353	862
781	629	645
782	145	711
783	857	98
784	905	392
785	244	24
786	528	577
787	159	30
788	758	441
789	449	756
790	731	797
791	763	322
792	148	973
793	342	731
794	941	882
795	952	965
796	432	255
797	985	148
798	547	881
799	424	360
800	600	249
801	723	7
802	706	61
803	878	613
804	732	783
805	283	288
806	968	930
807	476	532
808	70	545
809	765	743
810	863	276
811	284	911
812	582	97
813	728	142
814	763	910
815	52	862
816	132	384
817	786	375
818	634	874
819	811	165
820	104	661
821	36	785
822	870	62
823	232	602
824	215	691
825	493	751
826	879	903
827	965	877
828	976	836
829	862	48
830	549	266
831	894	479
832	438	148
833	734	124
834	587	711
835	697	914
836	801	553
837	378	372
838	48	878
839	333	351
840	45	145
841	943	395
842	891	736
843	25	134
844	925	297
845	401	243
846	45	417
847	757	562
848	114	265
849	843	880
850	800	29
851	543	361
852	89	462
853	288	96
854	861	998
855	961	290
856	244	655
857	710	701
858	662	921
859	375	950
860	612	409
861	135	645
862	413	21
863	324	125
864	272	144
865	574	71
866	36	551
867	431	116
868	445	477
869	581	623
870	524	960
871	194	788
872	156	384
873	77	77
874	786	316
875	879	246
876	816	739
877	514	746
878	761	454
879	50	265
880	229	382
881	885	426
882	660	405
883	530	754
884	595	833
885	910	21
886	131	575
887	857	226
888	215	710
889	56	826
890	665	321
891	666	605
892	820	34
893	196	316
894	984	30
895	960	403
896	883	436
897	967	521
898	269	384
899	752	452
900	701	130
901	328	517
902	204	58
903	367	651
904	447	801
905	315	21
906	881	580
907	127	673
908	221	70
909	153	239
910	184	951
911	893	881
912	696	385
913	476	860
914	63	921
915	4	256
916	654	523
917	651	69
918	800	15
919	320	705
920	15	478
921	973	823
922	606	776
923	798	168
924	149	678
925	231	938
926	866	538
927	508	52
928	344	961
929	605	424
930	465	935
931	787	648
932	709	281
933	889	48
934	170	830
935	345	115
936	684	658
937	21	887
938	251	648
939	710	190
940	325	208
941	607	750
942	943	579
943	228	503
944	694	530
945	474	517
946	499	638
947	139	182
948	116	443
949	683	45
950	807	455
951	735	242
952	266	726
953	464	759
954	613	546
955	659	912
956	163	626
957	411	864
958	692	226
959	318	364
960	687	220
961	217	531
962	818	638
963	814	282
964	288	869
965	428	419
966	974	776
967	757	919
968	197	38
969	758	337
970	180	780
971	627	10
972	385	472
973	804	835
974	131	328
975	769	854
976	27	951
977	862	283
978	434	644
979	78	114
980	205	659
981	958	543
982	909	176
983	700	939
984	76	292
985	793	435
986	484	113
987	148	171
988	386	24
989	948	845
990	302	313
991	270	455
992	469	458
993	952	195
994	970	329
995	880	930
996	177	471
997	299	804
998	287	784
999	816	955
1000	535	51
1001	68	75
DEMAND_SECTION
1	0
2	5
3	2
4	7
5	1
6	9
7	4
8	8
9	2
10	2
11	9
12	7
13	6
14	7
15	9
16	8
17	3
18	9
19	8
20	4
21	8
22	2
23	4
24	9
25	5
26	3
27	8
28	8
29	6
30	5
31	7
32	1
33	5
34	4
35	3
36	8
37	6
38	8
39	7
40	6
41	7
42	4
43	6
44	1
45	3
46	2
47	8
48	7
49	3
50	5
51	1
52	5
53	9
54	7
55	1
56	1
57	4
58	5
59	5
60	2
61	8
62	9
63	4
64	1
65	7
66	5
67	9
68	8
69	8
70	3
71	3
72	1
73	7
74	6
75	1
76	4
77	6
78	5
79	2
80	2
81	4
82	2
83	4
84	5
85	2
86	6
87	4
88	8
89	6
90	7
91	2
92	9
93	7
94	7
95	6
96	9
97	4
98	4
99	1
100	9
101	5
102	6
103	3
104	5
105	6
106	5
107	6
108	2
109	4
110	9
111	3
112	4
113	5
114	1
115	3
116	8
117	4
118	4
119	7
120	4
121	4
122	8
123	9
124	2
125	4
126	6
127	6
128	4
129	4
130	2
131	9
132	9
133	1
134	1
135	7
136	5
137	6
138	6
139	9
140	6
141	5
142	9
143	9
144	6
145	2
146	5
147	2
148	4
149	1
150	5
151	7
152	5
153	8
154	3
155	6
156	6
157	5
158	9
159	3
160	9
161	1
162	7
163	1
164	7
165	3
166	2
167	7
168	1
169	6
170	9
171	9
172	3
173	6
174	6
175	6
176	3
177	8
178	8
179	2
180	6
181	5
182	8
183	3
184	8
185	1
186	8
187	8
188	9
189	7
190	2
191	8
192	1
193	8
194	5
195	8
196	2
197	9
198	7
199	8
200	5
201	4
202	1
203	2
204	8
205	2
206	7
207	4
208	7
209	1
210	5
211	9
212	1
213	6
214	4
215	3
216	8
217	1
218	7
219	1
220	3
221	9
222	2
223	2
224	6
225	6
226	1
227	3
228	7
229	6
230	6
231	2
232	1
233	6
234	6
235	3
236	5
237	1
238	4
239	2
240	7
241	8
242	5
243	5
244	7
245	5
246	7
247	9
248	8
249	9
250	9
251	8
252	7
253	2
254	7
255	8
256	4
257	8
258	8
259	4
260	3
261	7
262	4
263	4
264	7
265	2
266	3
267	5
268	1
269	7
270	9
271	4
272	6
273	3
274	7
275	3
276	5
277	6
278	8
279	7
280	9
281	1
282	4
283	7
284	6
285	9
286	4
287	9
288	5
289	2
290	8
291	8
292	8
293	4
294	8
295	4
296	6
297	5
298	3
299	9
300	9
301	8
302	9
303	3
304	7
305	2
306	6
307	7
308	7
309	2
310	3
311	6
312	5
313	3
314	9
315	1
316	1
317	4
318	6
319	5
320	6
321	8
322	3
323	1
324	1
325	9
326	1
327	8
328	3
329	5
330	3
331	7
332	1
333	7
334	6
335	8
336	2
337	8
338	1
339	3
340	3
341	4
342	1
343	2
344	4
345	7
346	8
347	7
348	3
349	5
350	4
351	6
352	4
353	6
354	6
355	3
356	1
357	8
358	5
359	8
360	3
361	8
362	6
363	9
364	9
365	6
366	7
367	8
368	5
369	6
370	9
371	9
372	2
373	4
374	5
375	5
376	7
377	4
378	4
379	9
380	8
381	5
382	3
383	8
384	1
385	4
386	2
387	4
388	4
389	4
390	1
391	6
392	8
393	6
394	7
395	4
396	1
397	8
398	8
399	4
400	1
401	9
402	4
403	1
404	6
405	2
406	5
407	2
408	5
409	7
410	2
411	7
412	4
413	8
414	3
415	3
416	5
417	8
418	9
419	3
420	1
421	6
422	7
423	2
424	2
425	5
426	3
427	4
428	4
429	9
430	2
431	3
432	5
433	1
434	4
435	2
436	4
437	9
438	8
439	5
440	9
441	8
442	6
443	7
444	3
445	9
446	9
447	5
448	6
449	8
450	7
451	1
452	8
453	6
454	8
455	8
456	7
457	7
458	9
459	3
460	5
461	9
462	1
463	9
464	5
465	4
466	2
467	3
468	1
469	7
470	3
471	7
472	7
473	8
474	4
475	7
476	5
477	2
478	9
479	3
480	7
481	3
482	2
483	4
484	1
485	6
486	3
487	3
488	9
489	2
490	9
491	7
492	1
493	1
494	9
495	3
496	4
497	8
498	4
499	2
500	4
501	7
502	9
503	6
504	5
505	9
506	3
507	5
508	4
509	7
510	8
511	5
512	5
513	7
514	1
515	9
516	7
517	4
518	9
519	9
520	1
521	1
522	8
523	5
524	8
525	9
526	8
527	5
528	2
529	4
530	5
531	8
532	2
533	1
534	9
535	9
536	3
537	2
538	3
539	5
540	3
541	3
542	1
543	6
544	1
545	6
546	9
547	4
548	1
549	8
550	3
551	1
552	3
553	7
554	8
555	5
556	5
557	3
558	4
559	8
560	1
561	6
562	6
563	5
564	9
565	7
566	5
567	8
568	8
569	4
570	3
571	2
572	6
573	3
574	7
575	2
576	2
577	3
578	3
579	5
580	6
581	7
582	5
583	7
584	8
585	3
586	1
587	3
588	5
589	9
590	6
591	8
592	6
593	1
594	5
595	7
596	9
597	6
598	7
599	7
600	6
601	8
602	2
603	3
604	5
605	1
606	8
607	2
608	7
609	7
610	7
611	1
612	1
613	1
614	8
615	9
616	3
617	6
618	7
619	1
620	3
621	4
622	1
623	5
624	8
625	8
626	9
627	1
628	4
629	3
630	8
631	1
632	6
633	2
634	5
635	8
636	7
637	6
638	7
639	7
640	7
641	3
642	3
643	2
644	9
645	4
646	7
647	4
648	9
649	3
650	7
651	8
652	1
653	5
654	3
655	3
656	3
657	1
658	8
659	4
660	5
661	7
662	7
663	7
664	5
665	4
666	2
667	7
668	2
669	6
670	4
671	7
672	9
673	8
674	4
675	9
676	7
677	7
678	1
679	2
680	1
681	2
682	1
683	1
684	5
685	2
686	6
687	7
688	6
689	7
690	3
691	3
692	8
693	4
694	1
695	9
696	7
697	3
698	4
699	9
700	4
701	5
702	6
703	3
704	5
705	5
706	2
707	5
708	3
709	2
710	4
711	2
712	5
713	9
714	8
715	3
716	6
717	2
718	7
719	3
720	3
721	5
722	2
723	6
724	1
725	7
726	2
727	2
728	4
729	7
730	5
731	4
732	9
733	5
734	3
735	5
736	2
737	9
738	8
739	9
740	6
741	9
742	2
743	1
744	6
745	9
746	7
747	3
748	6
749	8
750	7
751	5
752	5
753	8
754	6
755	7
756	4
757	2
758	3
759	3
760	9
761	4
762	2
763	1
764	8
765	6
766	4
767	8
768	9
769	4
770	8
771	6
772	2
773	9
774	4
775	6
776	9
777	7
778	4
779	8
780	6
781	9
782	6
783	6
784	5
785	7
786	7
787	3
788	4
789	1
790	8
791	8
792	1
793	2
794	5
795	2
796	5
797	3
798	8
799	8
800	4
801	9
802	2
803	3
804	7
805	8
806	6
807	4
808	4
809	8
810	8
811	2
812	2
813	4
814	1
815	5
816	5
817	1
818	5
819	9
820	4
821	3
822	2
823	8
824	3
825	7
826	2
827	6
828	8
829	9
830	9
831	5
832	6
833	9
834	4
835	7
836	7
837	1
838	9
839	7
840	4
841	7
842	4
843	8
844	9
845	4
846	5
847	8
848	3
849	8
850	2
851	8
852	4
853	2
854	3
855	4
856	7
857	6
858	4
859	7
860	1
861	9
862	4
863	8
864	6
865	4
866	2
867	9
868	2
869	3
870	8
871	5
872	8
873	1
874	1
875	3
876	7
877	2
878	7
879	6
880	2
881	5
882	7
883	8
884	3
885	7
886	9
887	3
888	3
889	5
890	1
891	2
892	7
893	9
894	6
895	4
896	4
897	9
898	7
899	9
900	6
901	1
902	6
903	1
904	7
905	8
906	1
907	1
908	3
909	5
910	4
911	8
912	5
913	1
914	6
915	4
916	7
917	1
918	1
919	8
920	2
921	8
922	6
923	1
924	9
925	9
926	1
927	2
928	5
929	9
930	3
931	5
932	3
933	9
934	3
935	3
936	9
937	9
938	5
939	3
940	8
941	1
942	8
943	2
944	9
945	4
946	7
947	7
948	8
949	2
950	6
951	9
952	3
953	8
954	8
955	7
956	4
957	4
958	7
959	6
960	2
961	6
962	2
963	4
964	8
965	1
966	8
967	9
968	2
969	8
970	5
971	2
972	3
973	3
974	5
975	7
976	8
977	1
978	3
979	2
980	9
981	3
982	2
983	3
984	8
985	5
986	2
987	3
988	4
989	3
990	4
991	2
992	2
993	1
994	4
995	2
996	2
997	1
998	3
999	2
1000	2
1001	8
TIME_WINDOW_SECTION
1	0	3000
2	1820	2237
3	1415	1677
4	1043	2321
5	469	2418
6	766	2519
7	938	1412
8	1281	2112
9	706	951
10	746	1672
11	683	2312
12	0	1378
13	0	1259
14	1239	2564
15	176	458
16	1683	2344
17	1852	2200
18	842	1515
19	1032	1663
20	0	1627
21	664	1702
22	649	2512
23	2094	2837
24	1485	2563
25	1327	2652
26	1070	2406
27	85	2078
28	0	1246
29	1360	2468
30	443	1188
31	76	2036
32	850	1644
33	754	1442
34	528	1449
35	880	1202
36	1523	2600
37	98	668
38	1274	2693
39	1466	2247
40	262	1208
41	671	2438
42	827	1587
43	829	1650
44	1657	2493
45	213	1096
46	1322	2266
47	596	922
48	1462	2559
49	659	1590
50	0	1528
51	534	1346
52	144	748
53	1272	2584
54	371	2064
55	1061	2409
56	100	1904
57	0	1812
58	1090	2162
59	930	2535
60	963	2459
61	403	1153
62	530	2395
63	1254	2551
64	628	2168
65	519	1063
66	1361	1891
67	899	2281
68	52	813
69	2141	2977
70	0	1031
71	398	2361
72	451	1851
73	807	2245
74	1408	2947
75	1496	3000
76	1115	1721
77	952	2809
78	1551	2260
79	1094	2688
80	1804	2221
81	1989	2293
82	171	1318
83	166	1493
84	710	2599
85	460	1487
86	748	1916
87	1991	2602
88	1028	2736
89	2054	2349
90	1709	2165
91	621	1346
92	1069	2171
93	221	624
94	543	1871
95	892	2560
96	137	828
97	297	2144
98	2113	3000
99	928	2869
100	496	2172
101	1337	1719
102	1136	2759
103	1510	2128
104	784	1764
105	1067	2846
106	1330	3000
107	306	1221
108	594	2133
109	642	1834
110	855	2666
111	808	2164
112	1390	1699
113	509	2214
114	1507	2168
115	408	2068
116	295	1737
117	1744	2398
118	197	578
119	2017	3000
120	2024	2507
121	985	2074
122	1247	1573
123	1658	2080
124	0	1311
125	1336	1658
126	2311	2697
127	1160	2325
128	230	849
129	1245	2914
130	963	2376
131	1879	2286
132	812	1937
133	1815	2403
134	668	2564
135	95	1529
136	983	1838
137	1072	2901
138	628	1231
139	28	1525
140	537	865
141	260	716
142	912	1937
143	843	2237
144	405	1207
145	1937	2439
146	147	2019
147	0	815
148	1100	1318
149	446	1003
150	225	1992
151	0	1208
152	1905	2976
153	798	1895
154	1644	2823
155	1177	2732
156	1732	2021
157	1406	2222
158	0	1357
159	1453	3000
160	2198	3000
161	448	2259
162	1396	2181
163	0	976
164	1675	3000
165	807	2087
166	990	1717
167	1562	2413
168	90	2026
169	244	1464
170	1697	2684
171	1687	2449
172	307	1581
173	0	778
174	151	1487
175	201	1583
176	789	2545
177	869	2179
178	241	1170
179	794	2586
180	1077	1919
181	1068	2827
182	501	1448
183	1360	1626
184	1014	1237
185	91	1822
186	958	1689
187	0	1318
188	698	2207
189	808	2193
190	1145	2953
191	1191	1736
192	943	1547
193	721	2415
194	337	1463
195	0	695
196	1558	3000
197	671	2553
198	1194	2505
199	658	2285
200	0	1245
201	246	1602
202	1515	2815
203	1220	3000
204	772	1396
205	1333	2519
206	794	1539
207	1221	1442
208	2144	2526
209	200	1234
210	0	1549
211	194	1827
212	744	2173
213	1837	3000
214	153	1022
215	249	613
216	0	1055
217	891	1860
218	0	1070
219	398	689
220	954	2525
221	1276	3000
222	632	1948
223	59	1909
224	1038	1645
225	1525	2415
226	521	2193
227	1181	1461
228	413	1473
229	1222	2620
230	1076	2935
231	411	1502
232	661	1735
233	730	2327
234	1250	1898
235	2201	2600
236	1110	1326
237	1881	2513
238	514	1982
239	121	1542
240	1131	2633
241	1764	2138
242	478	853
243	669	2109
244	0	1748
245	1037	2663
246	853	2708
247	1094	1312
248	1027	2127
249	813	2170
250	706	2334
251	1508	3000
252	217	1082
253	806	1886
254	737	2201
255	918	1620
256	1729	2676
257	1180	3000
258	1347	2141
259	1148	3000
260	0	1761
261	1425	2662
262	1333	3000
263	738	2539
264	999	2601
265	33	1860
266	264	1783
267	1373	3000
268	1788	2271
269	972	1606
270	973	2240
271	1465	2373
272	209	1628
273	1784	2220
274	1866	2355
275	518	2046
276	1707	1912
277	116	1706
278	1413	1896
279	805	1779
280	1209	1460
281	193	1590
282	1621	2089
283	658	1606
284	1498	2778
285	829	2747
286	1013	1338
287	1920	2973
288	622	953
289	997	2652
290	170	1553
291	545	2354
292	318	1628
293	1435	1740
294	214	756
295	692	1234
296	213	708
297	670	2141
298	67	2015
299	1841	3000
300	1544	1912
301	426	1086
302	2195	2503
303	2027	2424
304	1086	2188
305	1056	2297
306	1615	2044
307	127	352
308	1284	2987
309	927	1944
310	1394	2590
311	1459	2915
312	537	1557
313	2217	2521
314	1095	1436
315	0	1124
316	2062	2445
317	703	1362
318	1027	2473
319	411	1652
320	475	2436
321	1330	2277
322	984	1612
323	1805	2189
324	360	1264
325	422	2168
326	321	968
327	1496	2047
328	1823	2358
329	837	1828
330	408	834
331	1301	2540
332	223	848
333	1032	2510
334	964	2263
335	1188	1748
336	884	1641
337	1741	2091
338	696	985
339	312	1899
340	703	2226
341	759	1241
342	157	729
343	917	1563
344	1615	2007
345	1697	2480
346	1127	1455
347	2084	2986
348	2089	2999
349	454	1299
350	481	1925
351	1430	2048
352	837	2133
353	377	2251
354	991	2214
355	1172	1703
356	123	1025
357	145	2133
358	1222	2734
359	1243	2441
360	0	1437
361	484	1970
362	0	1734
363	43	1976
364	1485	3000
365	554	1944
366	38	1516
367	2075	2352
368	263	583
369	1889	2719
370	1734	2512
371	973	1475
372	789	2585
373	1274	2731
374	343	1922
375	1065	2920
376	820	2136
377	704	2154
378	1074	2425
379	0	1756
380	1863	3000
381	0	1471
382	1577	2263
383	1776	3000
384	1881	2704
385	644	1036
386	1098	2177
387	0	1907
388	0	1404
389	1248	3000
390	1101	2084
391	0	1388
392	1382	1695
393	225	1945
394	324	1807
395	514	1308
396	1361	2360
397	2127	2489
398	1476	3000
399	1982	2615
400	530	1648
401	202	1437
402	1268	2949
403	485	1329
404	522	1332
405	237	1937
406	932	2101
407	1251	1990
408	1613	2177
409	654	1078
410	1503	2802
411	0	1361
412	969	1837
413	1105	2926
414	1132	2495
415	893	1937
416	52	842
417	1265	3000
418	1115	3000
419	1472	2133
420	841	1553
421	463	2436
422	1762	2603
423	1512	2926
424	970	1675
425	0	847
426	610	1785
427	550	2497
428	932	2315
429	486	2403
430	1209	2508
431	665	1967
432	985	2246
433	689	2581
434	290	1829
435	1417	2305
436	1829	2363
437	282	2070
438	402	2017
439	1587	3000
440	0	941
441	1336	2368
442	935	1970
443	794	2451
444	763	1125
445	808	1153
446	661	2659
447	379	1679
448	1043	1344
449	1356	1902
450	1117	2880
451	1394	3000
452	1741	2357
453	1826	3000
454	1875	2207
455	647	1194
456	278	557
457	1240	3000
458	1296	2841
459	1331	1735
460	1314	3000
461	267	1295
462	0	1612
463	1104	2957
464	2158	2434
465	1214	1904
466	509	2397
467	1153	2806
468	367	1965
469	0	1643
470	1408	1985
471	930	1464
472	1068	2098
473	1107	2148
474	582	2388
475	1095	1611
476	341	1050
477	427	1066
478	1126	2816
479	1026	2134
480	887	1601
481	1362	2453
482	985	1844
483	1032	1294
484	0	1510
485	559	2072
486	423	1980
487	781	1565
488	1750	3000
489	1813	2155
490	458	2388
491	942	1662
492	1103	2241
493	664	918
494	349	2293
495	853	2803
496	587	1578
497	696	1952
498	1505	2661
499	0	1260
500	532	1518
501	803	1967
502	101	1707
503	544	2114
504	649	1222
505	219	962
506	0	955
507	1724	2559
508	1225	2174
509	1971	2290
510	1814	2388
511	475	1899
512	0	1137
513	1272	1717
514	922	1359
515	1457	2315
516	1739	2725
517	1556	2017
518	0	1032
519	1463	2290
520	322	2296
521	1133	2437
522	1119	2542
523	0	754
524	191	1142
525	1446	2204
526	504	2118
527	1024	2962
528	481	1680
529	1017	2173
530	1366	2284
531	569	2398
532	20	1266
533	1486	2898
534	1010	1676
535	997	2667
536	1901	2233
537	335	1504
538	665	1005
539	1915	2117
540	1605	3000
541	619	2418
542	1971	2207
543	1203	2510
544	497	1373
545	1368	1754
546	1291	2532
547	1491	3000
548	1520	2487
549	0	1702
550	1976	2422
551	286	1628
552	1842	2978
553	1984	2856
554	358	2088
555	939	1878
556	0	901
557	366	1325
558	1401	2809
559	938	1661
560	103	2099
561	1137	2705
562	0	1592
563	1475	1852
564	1097	1592
565	1325	3000
566	800	1496
567	807	2522
568	1238	2153
569	0	1593
570	1797	2258
571	1657	2540
572	1227	2660
573	1027	1378
574	1250	2045
575	70	2035
576	1867	2754
577	1037	2812
578	912	1789
579	0	1335
580	1093	1877
581	0	1858
582	1460	3000
583	872	2322
584	1406	2570
585	1598	2757
586	1731	2269
587	465	2018
588	246	1409
589	743	1671
590	1279	2924
591	0	1454
592	465	1916
593	0	1761
594	777	2405
595	1695	2285
596	731	2023
597	778	1416
598	1749	3000
599	720	2056
600	47	1092
601	453	1581
602	713	1180
603	772	1410
604	43	1693
605	205	866
606	756	2745
607	574	1437
608	863	2665
609	683	919
610	1494	2106
611	1423	2795
612	0	662
613	609	1207
614	624	2300
615	853	2293
616	52	1490
617	533	884
618	1359	2568
619	452	2144
620	0	1948
621	1357	1792
622	672	1406
623	491	2271
624	1323	2138
625	828	1108
626	1689	2050
627	1071	2709
628	1224	3000
629	988	2552
630	1687	2145
631	616	1662
632	892	1918
633	1136	1969
634	1165	2202
635	1176	1733
636	1603	3000
637	777	1984
638	1051	1694
639	287	1427
640	173	2081
641	245	1355
642	1561	1817
643	1889	2235
644	698	1437
645	546	1206
646	500	2161
647	38	1744
648	13	1359
649	473	1640
650	0	1879
651	1023	1694
652	1458	2723
653	427	1278
654	653	1890
655	1093	2856
656	1259	1504
657	935	2906
658	403	2213
659	500	1647
660	1112	2059
661	1378	2880
662	0	1135
663	1592	1962
664	952	2239
665	971	2127
666	79	1141
667	1641	1953
668	641	2343
669	490	1299
670	685	1695
671	474	2395
672	1945	2955
673	617	1894
674	1182	2804
675	467	2150
676	260	1273
677	2033	2592
678	970	2608
679	0	1927
680	962	2810
681	2020	2313
682	276	955
683	975	2669
684	1094	2425
685	1775	2719
686	692	1512
687	575	1098
688	775	2701
689	1145	2681
690	834	2398
691	0	1687
692	942	1548
693	835	1577
694	820	2806
695	1220	2680
696	1378	2040
697	465	2036
698	1440	2798
699	1195	2283
700	282	721
701	1567	2539
702	1938	2573
703	441	820
704	96	1065
705	0	1501
706	1736	2862
707	1328	2565
708	744	1207
709	1415	1681
710	1730	2863
711	395	2139
712	1557	2246
713	628	1363
714	558	2338
715	571	1664
716	0	1308
717	1306	2895
718	1667	2058
719	954	2269
720	276	1652
721	1551	2549
722	1451	2348
723	1089	1952
724	130	1879
725	2130	2507
726	1839	2152
727	960	2480
728	1174	2769
729	729	2139
730	646	2230
731	427	2137
732	1222	1946
733	732	1206
734	1493	2101
735	201	1323
736	766	1107
737	1369	1597
738	611	2397
739	517	2169
740	746	2626
741	1082	1989
742	1237	1943
743	1121	2825
744	0	1256
745	1228	1871
746	0	1531
747	744	1101
748	533	1995
749	202	1117
750	175	1805
751	489	956
752	1313	2567
753	756	2688
754	806	2674
755	1000	2692
756	1293	1771
757	71	1593
758	127	1268
759	174	1450
760	0	1778
761	1421	2078
762	0	874
763	1828	2042
764	2026	2315
765	767	2309
766	669	2146
767	15	1718
768	1227	2563
769	1132	2007
770	1712	2120
771	272	1053
772	1673	2869
773	641	1083
774	1814	2146
775	362	1311
776	1049	2624
777	155	1486
778	1620	2175
779	1268	1902
780	1166	2307
781	0	777
782	1639	2267
783	1190	3000
784	393	2362
785	1399	2427
786	1033	2432
787	1507	1957
788	287	1728
789	847	1805
790	410	918
791	1141	2613
792	1290	2750
793	786	1510
794	862	1376
795	525	2290
796	1152	2421
797	198	1629
798	4	1815
799	2165	2400
800	0	1489
801	1412	2484
802	1529	2355
803	882	2387
804	823	1106
805	1358	2117
806	741	2325
807	1106	2546
808	816	1645
809	824	2421
810	3	1698
811	211	1575
812	969	2223
813	988	1778
814	0	1493
815	1717	1993
816	1240	1848
817	48	1876
818	318	1921
819	495	757
820	641	2530
821	1162	2725
822	558	1806
823	1565	1902
824	1264	1540
825	0	1188
826	912	2578
827	673	2222
828	0	1397
829	1261	2738
830	608	2194
831	753	1456
832	1728	2508
833	1083	1632
834	1240	1712
835	926	2676
836	506	1803
837	622	2566
838	1059	1747
839	705	1598
840	1171	2327
841	0	1708
842	156	501
843	1011	2738
844	1049	2893
845	452	1216
846	1142	1418
847	778	2300
848	1209	1800
849	1693	2803
850	907	2893
851	1620	2957
852	273	1952
853	185	1437
854	183	979
855	768	1878
856	800	1954
857	682	1523
858	209	1861
859	451	1649
860	94	430
861	173	1851
862	1310	2851
863	691	1115
864	1244	2118
865	813	2403
866	878	2320
867	693	2144
868	805	1016
869	547	1617
870	1341	1727
871	1020	1851
872	1079	1617
873	1335	2124
874	639	1994
875	1658	3000
876	1484	3000
877	145	1247
878	0	1336
879	588	2117
880	843	1896
881	2240	3000
882	918	2120
883	690	1965
884	968	2052
885	1777	2552
886	1618	2703
887	1556	2334
888	1225	2825
889	1124	1752
890	1715	2807
891	82	1745
892	863	2751
893	1867	2105
894	1729	2402
895	485	1382
896	49	412
897	1366	2573
898	0	1603
899	958	1225
900	900	2273
901	968	2181
902	1324	2584
903	201	1821
904	1561	2614
905	0	1837
906	5	1256
907	0	1732
908	1447	2528
909	177	1402
910	1798	2142
911	2010	2403
912	1346	2194
913	300	2130
914	674	1977
915	1541	2035
916	1637	3000
917	651	1667
918	0	1349
919	1887	2360
920	545	1382
921	0	1039
922	944	2183
923	0	1518
924	80	1811
925	1118	2351
926	341	1040
927	834	1303
928	709	1619
929	1253	2154
930	182	1383
931	281	754
932	90	835
933	1393	2122
934	478	2233
935	573	1760
936	0	1065
937	1166	1886
938	1025	2652
939	1292	3000
940	1383	1589
941	1372	2047
942	540	2172
943	1206	2705
944	851	1170
945	1870	2613
946	1370	1803
947	727	1007
948	782	1621
949	1410	2168
950	2345	2766
951	840	1535
952	1276	2362
953	1191	1765
954	1772	2536
955	420	700
956	636	1420
957	0	1467
958	138	1798
959	1069	2481
960	1604	2446
961	1375	2309
962	578	1376
963	0	1014
964	0	1741
965	1318	3000
966	32	1170
967	1215	1915
968	544	1248
969	2045	2792
970	1267	2249
971	1796	2379
972	653	1852
973	124	1716
974	967	2749
975	1264	1936
976	618	2113
977	0	1344
978	1725	2794
979	677	1073
980	939	2568
981	0	984
982	505	1712
983	608	2483
984	838	1774
985	958	1374
986	1148	2995
987	1530	1815
988	1304	1829
989	506	2423
990	450	1052
991	1523	2345
992	559	815
993	0	1242
994	112	870
995	947	1877
996	530	1288
997	446	840
998	1051	1595
999	1534	3000
1000	810	1020
1001	359	2221
DEPOT_SECTION
1
-1
EOF
