NAME : n1001-0034
COMMENT : "Generated by pyvrp_manuel (VRPTW)"
TYPE : VRPTW
DIMENSION : 1001
EDGE_WEIGHT_TYPE : EUC_2D
CAPACITY : 150
VEHICLES : 1000
SERVICE_TIME : 200
NODE_COORD_SECTION
1	231	358
2	679	832
3	158	543
4	387	732
5	651	552
6	694	464
7	784	465
8	277	297
9	155	106
10	7	354
11	640	918
12	326	708
13	411	601
14	414	206
15	149	939
16	329	233
17	352	128
18	898	930
19	953	202
20	250	654
21	681	500
22	591	852
23	1	982
24	46	810
25	968	519
26	759	557
27	604	501
28	708	652
29	74	395
30	98	776
31	163	15
32	191	954
33	697	873
34	737	900
35	353	21
36	432	178
37	317	537
38	503	355
39	992	782
40	124	801
41	798	629
42	243	538
43	45	843
44	762	585
45	672	463
46	721	964
47	645	693
48	886	695
49	667	78
50	659	996
51	538	526
52	50	519
53	629	128
54	938	285
55	401	381
56	993	960
57	429	217
58	347	581
59	720	865
60	900	481
61	591	833
62	25	266
63	550	601
64	90	727
65	403	982
66	896	708
67	589	842
68	439	701
69	898	370
70	38	987
71	912	831
72	921	413
73	217	193
74	434	97
75	114	234
76	304	725
77	951	781
78	871	752
79	716	146
80	207	460
81	11	799
82	990	118
83	509	741
84	488	862
85	427	476
86	391	792
87	835	322
88	35	110
89	419	150
90	848	455
91	450	464
92	713	647
93	784	117
94	395	209
95	970	187
96	467	108
97	984	162
98	189	422
99	213	439
100	274	966
101	145	30
102	834	596
103	457	964
104	676	199
105	707	572
106	588	681
107	309	615
108	523	484
109	735	557
110	62	495
111	490	250
112	182	895
113	462	511
114	895	210
115	849	290
116	671	563
117	628	335
118	193	464
119	852	568
120	923	818
121	689	292
122	142	798
123	486	696
124	839	780
125	794	643
126	939	467
127	75	94
128	23	475
129	904	193
130	890	320
131	549	907
132	629	742
133	105	805
134	782	719
135	66	66
136	14	613
137	724	702
138	651	267
139	752	659
140	472	549
141	896	539
142	242	781
143	349	177
144	914	265
145	487	361
146	833	793
147	851	673
148	705	543
149	714	89
150	151	737
151	450	986
152	367	501
153	798	585
154	127	407
155	612	149
156	862	621
157	201	728
158	35	679
159	290	653
160	214	71
161	768	875
162	256	496
163	132	176
164	649	493
165	172	600
166	972	154
167	818	802
168	273	596
169	276	845
170	68	902
171	115	585
172	628	371
173	5	341
174	723	470
175	515	413
176	169	215
177	561	47
178	958	104
179	119	931
180	568	340
181	947	628
182	231	625
183	394	790
184	999	59
185	754	200
186	84	572
187	327	367
188	876	709
189	896	730
190	895	834
191	118	15
192	90	584
193	26	836
194	674	325
195	396	373
196	979	712
197	329	678
198	321	391
199	404	47
200	629	609
201	661	779
202	368	146
203	650	825
204	142	526
205	569	214
206	734	999
207	111	872
208	412	766
209	556	113
210	180	344
211	981	129
212	816	402
213	474	232
214	406	92
215	755	387
216	212	128
217	462	77
218	959	390
219	420	583
220	142	276
221	599	131
222	536	515
223	275	343
224	848	868
225	885	857
226	410	916
227	619	216
228	457	681
229	812	270
230	418	109
231	802	71
232	975	585
233	360	306
234	438	401
235	987	319
236	510	967
237	893	545
238	918	457
239	766	641
240	523	849
241	995	473
242	745	699
243	877	198
244	204	789
245	253	780
246	686	360
247	421	875
248	277	650
249	722	83
250	3	770
251	941	675
252	137	947
253	871	940
254	483	269
255	802	178
256	248	524
257	999	249
258	455	285
259	439	111
260	698	819
261	452	826
262	393	962
263	538	448
264	500	217
265	676	124
266	805	621
267	911	234
268	756	191
269	838	314
270	869	412
271	687	113
272	203	47
273	704	934
274	87	922
275	436	669
276	182	305
277	430	944
278	175	213
279	329	328
280	317	259
281	621	694
282	735	601
283	328	855
284	313	880
285	589	853
286	616	505
287	502	535
288	871	337
289	637	536
290	397	804
291	880	13
292	209	322
293	626	584
294	237	714
295	217	250
296	546	300
297	394	555
298	849	154
299	260	965
300	174	297
301	21	943
302	904	461
303	877	699
304	988	616
305	239	172
306	772	920
307	471	901
308	358	355
309	725	6
310	956	938
311	789	466
312	382	864
313	696	592
314	351	469
315	226	240
316	426	534
317	276	761
318	108	544
319	834	831
320	162	428
321	109	590
322	413	817
323	324	248
324	846	416
325	437	972
326	971	603
327	954	418
328	759	300
329	854	915
330	787	284
331	851	259
332	891	948
333	771	468
334	719	862
335	354	299
336	755	155
337	294	957
338	554	438
339	892	608
340	535	117
341	819	100
342	685	541
343	876	657
344	271	395
345	243	358
346	267	970
347	830	700
348	124	287
349	37	31
350	935	825
351	39	236
352	948	113
353	191	425
354	61	893
355	394	739
356	457	41
357	380	396
358	501	436
359	709	473
360	801	236
361	441	788
362	768	496
363	816	215
364	531	501
365	164	204
366	107	18
367	86	104
368	577	182
369	626	568
370	153	454
371	557	541
372	194	16
373	305	317
374	381	129
375	509	314
376	382	125
377	599	5
378	13	395
379	756	535
380	264	99
381	468	801
382	103	291
383	727	513
384	175	366
385	517	959
386	84	285
387	95	271
388	851	578
389	529	703
390	689	172
391	279	982
392	856	311
393	440	99
394	197	104
395	431	486
396	572	565
397	620	286
398	866	800
399	431	823
400	523	981
401	614	898
402	134	297
403	895	624
404	917	169
405	496	269
406	389	810
407	291	866
408	846	829
409	137	20
410	649	971
411	61	791
412	66	637
413	566	343
414	936	683
415	649	548
416	639	111
417	131	413
418	1000	902
419	638	646
420	346	637
421	592	122
422	222	794
423	766	157
424	647	358
425	111	843
426	321	361
427	584	175
428	854	624
429	174	145
430	879	929
431	183	624
432	801	705
433	617	773
434	951	245
435	208	918
436	116	137
437	464	705
438	38	807
439	977	990
440	739	982
441	519	59
442	16	21
443	784	726
444	525	848
445	393	249
446	25	951
447	167	297
448	11	905
449	178	506
450	733	508
451	646	1
452	787	154
453	810	703
454	808	883
455	136	431
456	243	848
457	506	589
458	842	827
459	357	105
460	369	191
461	270	229
462	960	196
463	49	813
464	197	102
465	497	551
466	281	377
467	839	533
468	67	21
469	8	158
470	984	200
471	560	970
472	700	574
473	115	820
474	752	226
475	575	472
476	356	718
477	385	323
478	62	887
479	346	477
480	801	979
481	632	385
482	671	725
483	242	536
484	298	992
485	490	297
486	63	483
487	684	477
488	756	711
489	206	690
490	670	858
491	112	905
492	638	477
493	121	802
494	460	583
495	868	146
496	37	520
497	244	350
498	238	538
499	681	830
500	348	443
501	691	32
502	175	309
503	382	290
504	858	14
505	406	825
506	99	95
507	538	298
508	693	67
509	701	725
510	824	325
511	970	962
512	502	628
513	349	679
514	280	459
515	486	392
516	273	681
517	729	258
518	303	389
519	268	136
520	938	611
521	866	727
522	646	569
523	240	230
524	700	690
525	251	763
526	355	688
527	121	884
528	779	848
529	929	517
530	74	808
531	741	878
532	259	923
533	52	165
534	225	867
535	211	315
536	553	887
537	621	122
538	288	684
539	885	886
540	511	8
541	781	737
542	629	830
543	866	724
544	571	617
545	337	478
546	575	428
547	329	791
548	723	988
549	102	198
550	159	326
551	60	113
552	234	17
553	375	944
554	797	313
555	118	740
556	310	978
557	329	228
558	668	808
559	512	227
560	903	683
561	985	899
562	149	548
563	275	925
564	190	660
565	933	763
566	112	683
567	950	910
568	458	263
569	515	111
570	958	129
571	759	268
572	674	593
573	931	180
574	655	827
575	370	404
576	552	694
577	371	784
578	960	964
579	33	886
580	133	110
581	406	98
582	379	719
583	481	121
584	630	53
585	408	607
586	316	822
587	64	23
588	51	230
589	746	592
590	641	619
591	56	621
592	409	987
593	222	461
594	629	603
595	605	435
596	330	430
597	291	89
598	107	451
599	99	162
600	516	250
601	319	725
602	886	867
603	950	90
604	68	663
605	377	71
606	626	231
607	478	728
608	950	997
609	861	784
610	65	867
611	108	190
612	273	895
613	930	717
614	2	184
615	416	159
616	711	20
617	395	782
618	574	36
619	920	573
620	430	180
621	342	866
622	334	410
623	571	314
624	86	122
625	807	761
626	807	505
627	814	988
628	156	914
629	367	626
630	80	538
631	399	920
632	816	265
633	776	817
634	740	62
635	424	7
636	429	550
637	933	699
638	813	389
639	905	822
640	587	821
641	251	187
642	769	917
643	371	475
644	861	441
645	836	694
646	732	888
647	8	939
648	99	476
649	341	560
650	490	355
651	430	695
652	805	115
653	465	812
654	311	44
655	418	998
656	729	635
657	633	274
658	691	363
659	211	104
660	501	452
661	257	182
662	821	630
663	546	965
664	776	559
665	808	605
666	974	402
667	288	271
668	66	347
669	819	982
670	821	114
671	365	610
672	566	592
673	172	866
674	517	340
675	727	131
676	653	622
677	299	385
678	565	338
679	984	500
680	797	416
681	742	751
682	358	583
683	545	506
684	666	980
685	349	973
686	143	366
687	60	106
688	82	873
689	986	426
690	520	3
691	767	160
692	488	944
693	470	586
694	978	947
695	493	956
696	366	433
697	294	343
698	829	962
699	640	753
700	440	2
701	243	497
702	99	311
703	431	853
704	594	659
705	846	662
706	937	478
707	586	908
708	380	693
709	782	541
710	947	129
711	681	229
712	872	211
713	567	847
714	589	187
715	346	596
716	924	767
717	851	581
718	258	602
719	594	439
720	492	889
721	801	655
722	389	489
723	564	235
724	52	411
725	350	857
726	619	970
727	879	778
728	209	440
729	868	205
730	211	125
731	297	611
732	201	327
733	855	455
734	517	599
735	458	953
736	595	118
737	785	189
738	342	859
739	388	535
740	111	848
741	556	615
742	150	894
743	64	366
744	802	315
745	6	436
746	93	225
747	500	635
748	426	772
749	977	67
750	246	251
751	790	530
752	27	885
753	295	124
754	746	720
755	77	119
756	879	109
757	429	312
758	435	739
759	506	199
760	455	795
761	910	110
762	709	886
763	779	808
764	834	141
765	323	31
766	239	938
767	401	922
768	29	124
769	182	198
770	402	889
771	385	134
772	933	861
773	536	764
774	515	166
775	608	512
776	569	657
777	157	66
778	220	84
779	866	106
780	262	223
781	20	488
782	349	252
783	49	183
784	867	216
785	20	266
786	624	418
787	639	855
788	164	682
789	201	433
790	198	395
791	514	279
792	718	315
793	53	9
794	675	917
795	144	146
796	592	694
797	280	681
798	256	873
799	484	960
800	488	482
801	323	681
802	948	715
803	819	254
804	920	670
805	880	102
806	621	989
807	322	85
808	382	363
809	79	60
810	449	106
811	591	952
812	553	1
813	397	127
814	838	873
815	385	585
816	671	427
817	640	304
818	572	687
819	22	82
820	291	60
821	867	182
822	833	983
823	809	906
824	235	780
825	370	682
826	750	955
827	618	358
828	987	95
829	497	504
830	209	871
831	31	382
832	654	157
833	177	868
834	904	92
835	270	547
836	183	46
837	392	667
838	221	911
839	677	317
840	803	38
841	870	390
842	326	76
843	906	762
844	925	793
845	166	611
846	148	499
847	122	323
848	427	973
849	608	717
850	756	905
851	931	402
852	756	678
853	726	818
854	738	594
855	445	701
856	297	140
857	193	525
858	536	909
859	659	584
860	107	924
861	619	144
862	316	159
863	804	946
864	311	414
865	775	16
866	340	338
867	219	688
868	69	464
869	658	340
870	187	811
871	648	943
872	73	568
873	522	372
874	478	905
875	842	750
876	830	149
877	283	264
878	72	45
879	817	886
880	953	504
881	73	1
882	967	569
883	108	597
884	193	327
885	668	523
886	269	961
887	223	798
888	91	69
889	314	731
890	176	290
891	633	657
892	172	278
893	634	695
894	52	769
895	146	158
896	459	676
897	657	389
898	193	822
899	931	666
900	172	288
901	139	647
902	570	292
903	991	609
904	13	455
905	618	34
906	942	245
907	281	786
908	300	421
909	450	819
910	985	618
911	545	909
912	886	223
913	557	297
914	363	626
915	748	244
916	873	167
917	139	101
918	418	189
919	571	960
920	29	452
921	805	553
922	177	33
923	821	700
924	872	148
925	965	898
926	995	253
927	326	280
928	195	520
929	391	528
930	185	727
931	986	409
932	822	921
933	394	454
934	152	330
935	666	709
936	672	810
937	638	826
938	682	358
939	380	5
940	9	62
941	422	301
942	834	519
943	531	163
944	266	390
945	269	587
946	529	419
947	861	331
948	822	278
949	408	305
950	628	244
951	590	430
952	740	772
953	799	297
954	318	228
955	413	55
956	624	260
957	875	331
958	995	595
959	88	930
960	968	85
961	462	429
962	611	10
963	389	621
964	637	540
965	515	210
966	339	793
967	120	310
968	145	471
969	288	46
970	274	845
971	60	892
972	446	868
973	330	844
974	894	713
975	900	103
976	182	491
977	735	322
978	563	593
979	254	373
980	863	22
981	288	6
982	519	734
983	360	650
984	984	38
985	223	740
986	725	819
987	826	502
988	199	399
989	28	436
990	384	764
991	559	87
992	364	574
993	189	143
994	435	378
995	699	220
996	594	349
997	625	415
998	265	851
999	655	990
1000	814	745
1001	987	35
DEMAND_SECTION
1	0
2	1
3	4
4	1
5	5
6	2
7	8
8	4
9	4
10	6
11	1
12	2
13	2
14	3
15	7
16	9
17	1
18	7
19	1
20	9
21	5
22	2
23	9
24	5
25	9
26	8
27	5
28	3
29	7
30	7
31	6
32	6
33	5
34	9
35	6
36	6
37	3
38	9
39	2
40	6
41	9
42	3
43	3
44	8
45	3
46	4
47	5
48	4
49	8
50	6
51	6
52	3
53	7
54	8
55	5
56	1
57	5
58	5
59	5
60	9
61	4
62	5
63	3
64	3
65	5
66	8
67	4
68	5
69	2
70	6
71	7
72	3
73	4
74	6
75	6
76	9
77	1
78	7
79	1
80	1
81	7
82	6
83	2
84	3
85	7
86	4
87	2
88	5
89	3
90	4
91	3
92	6
93	6
94	8
95	9
96	4
97	4
98	8
99	2
100	3
101	1
102	1
103	3
104	9
105	8
106	9
107	5
108	1
109	2
110	5
111	1
112	3
113	7
114	6
115	9
116	6
117	5
118	3
119	8
120	8
121	5
122	7
123	5
124	8
125	5
126	7
127	8
128	8
129	6
130	5
131	6
132	1
133	7
134	8
135	1
136	1
137	8
138	7
139	1
140	2
141	6
142	4
143	3
144	4
145	9
146	9
147	7
148	2
149	7
150	7
151	5
152	6
153	8
154	4
155	7
156	1
157	8
158	2
159	8
160	8
161	3
162	9
163	6
164	9
165	4
166	1
167	3
168	4
169	7
170	3
171	1
172	6
173	1
174	6
175	3
176	7
177	8
178	9
179	2
180	4
181	2
182	8
183	6
184	7
185	4
186	5
187	7
188	1
189	5
190	5
191	8
192	7
193	6
194	5
195	6
196	4
197	8
198	4
199	1
200	7
201	4
202	1
203	6
204	8
205	1
206	9
207	4
208	3
209	8
210	7
211	3
212	2
213	5
214	5
215	7
216	7
217	3
218	2
219	2
220	6
221	7
222	2
223	7
224	3
225	7
226	5
227	7
228	1
229	3
230	3
231	3
232	1
233	3
234	3
235	3
236	6
237	2
238	9
239	5
240	7
241	6
242	8
243	9
244	9
245	2
246	1
247	1
248	5
249	4
250	4
251	1
252	1
253	1
254	8
255	4
256	8
257	6
258	1
259	1
260	4
261	3
262	3
263	3
264	3
265	3
266	4
267	3
268	7
269	1
270	3
271	2
272	5
273	1
274	3
275	2
276	1
277	7
278	9
279	1
280	7
281	2
282	9
283	6
284	6
285	8
286	2
287	4
288	4
289	4
290	5
291	5
292	9
293	5
294	7
295	7
296	7
297	7
298	5
299	3
300	8
301	1
302	4
303	4
304	1
305	5
306	4
307	2
308	3
309	9
310	1
311	9
312	3
313	6
314	6
315	4
316	7
317	6
318	9
319	5
320	9
321	9
322	9
323	8
324	3
325	4
326	6
327	3
328	2
329	1
330	6
331	3
332	1
333	7
334	9
335	1
336	3
337	2
338	4
339	7
340	4
341	8
342	5
343	3
344	6
345	8
346	9
347	8
348	6
349	4
350	9
351	3
352	9
353	7
354	9
355	1
356	3
357	2
358	8
359	5
360	5
361	6
362	8
363	4
364	6
365	6
366	2
367	8
368	6
369	3
370	7
371	2
372	7
373	2
374	2
375	8
376	3
377	6
378	1
379	7
380	2
381	2
382	8
383	6
384	8
385	5
386	6
387	9
388	8
389	7
390	6
391	6
392	4
393	2
394	7
395	1
396	6
397	4
398	4
399	4
400	1
401	2
402	4
403	6
404	6
405	1
406	6
407	2
408	7
409	7
410	7
411	9
412	7
413	1
414	2
415	6
416	9
417	9
418	3
419	6
420	1
421	4
422	3
423	5
424	2
425	6
426	7
427	6
428	1
429	8
430	5
431	5
432	5
433	4
434	2
435	1
436	8
437	2
438	5
439	4
440	8
441	6
442	1
443	9
444	3
445	1
446	6
447	4
448	9
449	7
450	1
451	6
452	9
453	1
454	8
455	8
456	5
457	4
458	2
459	8
460	1
461	6
462	8
463	7
464	1
465	6
466	9
467	1
468	6
469	2
470	5
471	9
472	4
473	5
474	2
475	1
476	9
477	6
478	1
479	8
480	2
481	4
482	9
483	9
484	7
485	5
486	8
487	7
488	3
489	5
490	8
491	3
492	4
493	5
494	9
495	3
496	7
497	3
498	4
499	5
500	8
501	2
502	6
503	2
504	9
505	1
506	2
507	9
508	8
509	8
510	8
511	6
512	3
513	8
514	2
515	8
516	6
517	8
518	9
519	1
520	3
521	3
522	6
523	2
524	8
525	7
526	9
527	1
528	8
529	3
530	8
531	9
532	1
533	6
534	3
535	6
536	7
537	5
538	9
539	2
540	8
541	5
542	6
543	8
544	3
545	7
546	2
547	7
548	7
549	7
550	3
551	7
552	2
553	7
554	3
555	1
556	8
557	8
558	6
559	9
560	2
561	4
562	1
563	3
564	1
565	3
566	9
567	1
568	6
569	4
570	7
571	1
572	1
573	9
574	1
575	1
576	5
577	2
578	6
579	7
580	7
581	4
582	1
583	5
584	6
585	9
586	3
587	2
588	8
589	6
590	7
591	9
592	6
593	3
594	5
595	6
596	8
597	7
598	3
599	8
600	7
601	5
602	5
603	3
604	5
605	9
606	3
607	6
608	4
609	7
610	9
611	7
612	8
613	9
614	9
615	5
616	7
617	1
618	1
619	9
620	1
621	8
622	1
623	4
624	7
625	5
626	6
627	5
628	3
629	4
630	3
631	6
632	8
633	7
634	8
635	9
636	3
637	8
638	7
639	1
640	1
641	1
642	9
643	9
644	4
645	4
646	3
647	9
648	5
649	7
650	9
651	1
652	5
653	4
654	7
655	9
656	9
657	6
658	1
659	5
660	8
661	2
662	2
663	8
664	3
665	6
666	2
667	6
668	5
669	4
670	4
671	5
672	1
673	2
674	6
675	2
676	7
677	4
678	7
679	6
680	7
681	6
682	7
683	5
684	8
685	5
686	6
687	8
688	3
689	6
690	4
691	8
692	8
693	5
694	4
695	4
696	6
697	2
698	8
699	9
700	2
701	6
702	9
703	7
704	7
705	1
706	8
707	8
708	7
709	1
710	9
711	4
712	8
713	4
714	9
715	1
716	5
717	8
718	5
719	5
720	4
721	5
722	2
723	1
724	7
725	7
726	6
727	7
728	8
729	1
730	3
731	7
732	1
733	6
734	6
735	3
736	3
737	3
738	3
739	1
740	9
741	8
742	5
743	2
744	8
745	8
746	1
747	9
748	7
749	8
750	6
751	8
752	4
753	5
754	7
755	5
756	2
757	1
758	7
759	3
760	7
761	3
762	8
763	2
764	1
765	5
766	8
767	6
768	7
769	2
770	5
771	9
772	4
773	2
774	2
775	5
776	9
777	4
778	6
779	1
780	5
781	5
782	2
783	2
784	7
785	5
786	3
787	6
788	8
789	5
790	5
791	5
792	3
793	2
794	1
795	9
796	7
797	3
798	9
799	8
800	2
801	2
802	1
803	2
804	6
805	2
806	2
807	3
808	3
809	5
810	7
811	9
812	7
813	4
814	2
815	8
816	2
817	2
818	1
819	5
820	7
821	9
822	6
823	2
824	4
825	2
826	4
827	2
828	9
829	7
830	3
831	6
832	4
833	7
834	7
835	5
836	9
837	8
838	1
839	8
840	3
841	3
842	9
843	1
844	9
845	5
846	3
847	1
848	3
849	4
850	2
851	6
852	4
853	4
854	1
855	3
856	4
857	5
858	2
859	2
860	5
861	5
862	7
863	8
864	5
865	9
866	2
867	2
868	8
869	8
870	7
871	4
872	5
873	8
874	6
875	3
876	9
877	9
878	6
879	9
880	9
881	9
882	5
883	6
884	8
885	9
886	3
887	8
888	7
889	4
890	4
891	2
892	6
893	1
894	3
895	8
896	5
897	7
898	4
899	7
900	9
901	7
902	3
903	5
904	2
905	7
906	2
907	9
908	6
909	2
910	8
911	1
912	9
913	2
914	8
915	7
916	1
917	3
918	1
919	6
920	2
921	8
922	3
923	5
924	2
925	1
926	8
927	5
928	3
929	5
930	8
931	9
932	9
933	2
934	1
935	9
936	9
937	5
938	9
939	4
940	4
941	4
942	8
943	5
944	7
945	4
946	8
947	4
948	4
949	3
950	5
951	2
952	2
953	8
954	5
955	8
956	6
957	4
958	5
959	4
960	8
961	9
962	2
963	3
964	5
965	8
966	7
967	8
968	1
969	9
970	7
971	6
972	5
973	5
974	6
975	1
976	7
977	1
978	2
979	5
980	3
981	8
982	3
983	5
984	9
985	2
986	8
987	5
988	3
989	7
990	9
991	9
992	3
993	5
994	2
995	4
996	2
997	4
998	7
999	1
1000	9
1001	5
TIME_WINDOW_SECTION
1	0	3000
2	523	1285
3	1645	3000
4	480	878
5	171	1816
6	412	2362
7	858	2085
8	1457	3000
9	125	2107
10	1276	1511
11	1221	2249
12	1609	1817
13	0	1126
14	1032	1343
15	221	1220
16	2136	2669
17	147	1000
18	437	1799
19	0	1534
20	1895	2660
21	737	1182
22	224	1841
23	1014	1288
24	324	1365
25	1399	2091
26	723	2558
27	549	2120
28	21	1676
29	1360	3000
30	551	948
31	1480	3000
32	656	1670
33	525	2153
34	556	2090
35	570	1067
36	0	1155
37	1509	2872
38	351	2332
39	1099	1651
40	207	1231
41	407	1728
42	1364	1770
43	1090	2376
44	1398	2210
45	1858	2102
46	389	1776
47	1129	2787
48	0	1667
49	1116	2632
50	1228	2743
51	762	2754
52	851	1295
53	1308	1775
54	1652	2281
55	2177	2772
56	1195	2435
57	1007	1472
58	0	1123
59	1852	2164
60	716	1822
61	627	1626
62	0	1159
63	1239	1676
64	359	2313
65	298	1664
66	359	2009
67	1287	3000
68	1089	2221
69	561	2319
70	1159	2878
71	290	2117
72	947	2796
73	1301	2740
74	1647	2357
75	2103	2964
76	0	1401
77	1483	1907
78	551	2348
79	2117	2401
80	506	1647
81	1357	3000
82	983	2021
83	552	1940
84	147	1165
85	1107	1780
86	1757	2903
87	1070	2085
88	185	1592
89	1560	2346
90	1486	2000
91	1318	2462
92	1411	1983
93	392	1273
94	766	2190
95	741	2538
96	881	1780
97	1060	2926
98	248	661
99	1407	1744
100	820	1617
101	289	724
102	490	1499
103	449	1111
104	1300	2620
105	1229	1820
106	1577	2091
107	469	808
108	1110	2642
109	596	2289
110	964	2161
111	454	1843
112	1503	1710
113	1740	2580
114	615	1271
115	1363	2064
116	1083	1544
117	1714	3000
118	2008	3000
119	285	1506
120	603	1354
121	0	1435
122	1082	1331
123	1244	1878
124	1718	2260
125	429	1424
126	804	2674
127	1292	1977
128	1000	2363
129	1462	2290
130	1369	2633
131	1208	3000
132	752	2360
133	991	1600
134	886	1914
135	1748	2511
136	0	1509
137	1643	2145
138	1512	2845
139	1271	2139
140	0	964
141	872	2865
142	2003	2334
143	725	1163
144	1610	2301
145	941	2487
146	769	2186
147	1570	1825
148	1849	2148
149	992	2641
150	1630	2500
151	1244	2999
152	50	1818
153	1485	1779
154	236	1493
155	313	1497
156	1383	2160
157	0	1823
158	161	1130
159	944	2141
160	762	1843
161	919	1276
162	140	2114
163	1753	2829
164	1242	1509
165	0	1314
166	83	1974
167	511	2280
168	1193	2949
169	0	1681
170	508	1407
171	351	1046
172	0	1136
173	326	1340
174	1564	2762
175	534	1417
176	0	849
177	1556	2022
178	223	2129
179	854	1867
180	839	2361
181	542	1718
182	1162	2571
183	590	1398
184	605	1630
185	1246	1857
186	1902	3000
187	508	1298
188	719	2008
189	1045	1316
190	1284	2200
191	1158	2655
192	196	2127
193	0	1555
194	682	1176
195	1981	2777
196	780	2161
197	8	727
198	111	1285
199	495	2448
200	613	2184
201	1753	2084
202	32	1466
203	512	838
204	2152	2447
205	1467	1849
206	947	1316
207	354	1962
208	308	847
209	404	1230
210	1433	3000
211	1511	2217
212	91	1114
213	172	1899
214	1552	1987
215	267	1558
216	526	1664
217	1840	2268
218	548	2010
219	1853	2733
220	234	1678
221	1259	2251
222	1457	3000
223	0	1184
224	243	2003
225	995	2006
226	950	1775
227	0	1244
228	291	2063
229	524	2068
230	1619	2246
231	1691	2155
232	1142	1754
233	0	1906
234	401	1301
235	1169	1588
236	471	953
237	1844	2065
238	853	2236
239	0	1916
240	1503	2727
241	1144	1774
242	1017	1926
243	811	2513
244	1577	2986
245	1513	3000
246	1301	2823
247	1111	1744
248	1768	2202
249	14	1454
250	864	2180
251	1035	2588
252	411	1373
253	326	2071
254	651	2276
255	1071	2719
256	1040	1506
257	309	2141
258	341	1913
259	1686	2795
260	427	1553
261	1505	1883
262	0	1471
263	1215	1831
264	351	1478
265	1559	2931
266	1527	1832
267	1287	2477
268	0	1177
269	860	2323
270	1021	2253
271	684	1898
272	0	1909
273	843	2263
274	982	2283
275	1070	1651
276	1659	3000
277	1303	1805
278	1544	2901
279	1190	2125
280	1408	2796
281	0	1529
282	1779	2674
283	877	1240
284	1255	2791
285	1273	1599
286	465	1555
287	1131	2055
288	0	1681
289	138	870
290	244	1648
291	517	1206
292	925	1421
293	552	2051
294	0	1530
295	1145	1627
296	1534	3000
297	637	2582
298	1074	1947
299	655	1023
300	0	1083
301	1213	1920
302	409	1528
303	299	1689
304	262	2231
305	846	1730
306	1215	2681
307	259	1727
308	1295	1871
309	73	1305
310	605	2588
311	252	1163
312	1295	1913
313	653	1200
314	0	1023
315	1229	2807
316	1669	2092
317	1085	2285
318	459	1186
319	1318	2014
320	834	1378
321	952	2047
322	284	1624
323	781	2176
324	1076	2776
325	1321	1805
326	1810	2196
327	697	1678
328	638	1472
329	1018	1700
330	1775	2203
331	904	2048
332	815	1290
333	99	1807
334	1089	1571
335	762	1980
336	1695	2121
337	996	1658
338	932	2073
339	350	1816
340	909	1746
341	252	1639
342	1718	2752
343	823	2136
344	366	1064
345	1230	2296
346	1315	2884
347	709	2183
348	0	1270
349	1119	1879
350	1423	2241
351	948	1385
352	221	1711
353	411	2298
354	259	2148
355	1337	2824
356	1781	2956
357	0	1163
358	1271	2928
359	1819	2245
360	1771	2335
361	226	1510
362	121	1947
363	1076	2006
364	1810	2564
365	1246	2632
366	1162	1703
367	479	842
368	1108	2500
369	1548	1954
370	544	2271
371	424	1629
372	311	1331
373	380	1787
374	184	2104
375	461	2100
376	1662	2209
377	1614	2445
378	423	916
379	857	2594
380	85	1554
381	214	2048
382	187	2155
383	1615	1885
384	729	1781
385	853	1061
386	969	1462
387	1922	2692
388	1308	2888
389	0	1418
390	632	1670
391	516	2268
392	1817	2227
393	1282	1906
394	2176	2730
395	1848	2124
396	1499	2413
397	183	1119
398	142	1901
399	375	746
400	1083	2609
401	610	2294
402	1451	1684
403	870	1384
404	890	2764
405	950	1551
406	4	1673
407	0	1845
408	1144	2332
409	329	1796
410	379	1548
411	1336	2665
412	1041	1376
413	674	1167
414	450	1837
415	1468	2710
416	0	1449
417	1912	2191
418	677	2583
419	1914	2138
420	804	1605
421	927	1973
422	1241	1961
423	1529	2299
424	1147	2843
425	1562	2420
426	0	649
427	270	2067
428	1154	2853
429	1460	2125
430	0	1842
431	2190	2818
432	196	1475
433	505	1355
434	636	2057
435	1046	1550
436	44	1091
437	1516	2112
438	105	1222
439	583	2400
440	1269	1470
441	192	1384
442	550	832
443	897	1862
444	368	2210
445	0	1089
446	927	1782
447	1506	2751
448	982	1539
449	2386	2879
450	399	2362
451	496	1673
452	1547	2685
453	427	2280
454	413	2140
455	0	1287
456	608	1545
457	1362	3000
458	1180	2199
459	1159	2768
460	1535	2953
461	203	1506
462	1200	2673
463	1159	3000
464	0	591
465	962	1801
466	1421	2096
467	1220	1875
468	1714	2927
469	528	979
470	125	2093
471	830	1380
472	743	1475
473	0	1937
474	1075	2020
475	618	1984
476	1396	3000
477	1312	2986
478	801	1912
479	0	1523
480	995	1536
481	1217	2950
482	1545	2682
483	139	774
484	68	1693
485	941	1765
486	0	1466
487	854	2211
488	734	1426
489	602	1216
490	412	1926
491	455	1923
492	1645	2963
493	1868	2089
494	1214	2971
495	472	2358
496	0	1336
497	2016	2616
498	3	1690
499	746	1411
500	452	1285
501	844	1331
502	713	1336
503	1626	2727
504	955	1528
505	322	1907
506	1653	2632
507	818	2643
508	1472	2447
509	1349	2065
510	1170	2557
511	1118	1663
512	1710	3000
513	371	998
514	607	1995
515	1238	1620
516	634	1101
517	117	1667
518	2293	2507
519	203	2073
520	1634	2227
521	409	1930
522	126	1335
523	1404	1808
524	449	918
525	1344	2045
526	1174	1430
527	773	1357
528	1073	1570
529	945	1490
530	1219	1481
531	1378	2080
532	1641	2375
533	0	1238
534	796	2411
535	590	1700
536	485	980
537	750	1350
538	533	1571
539	966	2354
540	185	1336
541	1637	2476
542	634	1157
543	743	2298
544	1021	1896
545	463	1949
546	358	2209
547	346	1199
548	381	1764
549	449	1262
550	691	1150
551	786	1087
552	403	1145
553	766	1711
554	539	1224
555	0	1439
556	778	2016
557	794	1423
558	0	1776
559	1096	1866
560	724	1046
561	886	1717
562	1635	2559
563	283	1007
564	0	1288
565	859	1304
566	1796	2833
567	652	2138
568	876	2346
569	827	1260
570	303	1528
571	965	2393
572	783	1622
573	250	1829
574	865	1154
575	762	1933
576	0	1902
577	316	1211
578	1398	1840
579	1160	2108
580	0	884
581	1658	2357
582	1360	3000
583	321	1979
584	572	1301
585	0	1286
586	0	1592
587	413	1419
588	1858	3000
589	1008	1551
590	443	1079
591	180	1459
592	140	1231
593	134	1008
594	249	726
595	1226	1720
596	46	307
597	1196	1459
598	1540	2368
599	0	1313
600	1856	2496
601	1474	1848
602	301	1849
603	1224	2444
604	1179	2705
605	117	834
606	974	1907
607	262	1547
608	452	1810
609	92	1788
610	324	2085
611	919	2340
612	1225	3000
613	1291	2637
614	187	1372
615	99	1573
616	0	1539
617	946	2028
618	1354	2052
619	864	1656
620	77	1184
621	667	1288
622	0	1055
623	843	1430
624	745	1745
625	1259	1901
626	667	922
627	652	1081
628	0	1487
629	1136	2972
630	558	874
631	751	1982
632	1371	2664
633	1155	1445
634	1413	2848
635	176	1202
636	1970	2509
637	1112	2399
638	1384	1590
639	1274	2379
640	1750	2643
641	1308	2730
642	809	1837
643	763	1335
644	252	2174
645	1426	2728
646	832	2664
647	775	1034
648	1496	2482
649	674	1705
650	570	2293
651	865	1678
652	550	2255
653	980	2967
654	0	1581
655	167	1733
656	773	2254
657	1623	2665
658	850	1261
659	1727	3000
660	1556	2477
661	132	1190
662	637	2511
663	904	2618
664	849	1386
665	533	1852
666	707	963
667	0	940
668	575	2098
669	1481	2270
670	1092	2629
671	1214	1650
672	1433	2069
673	761	1085
674	0	1037
675	0	1543
676	408	2214
677	0	840
678	339	1256
679	633	1738
680	527	2500
681	1040	1905
682	82	1922
683	1683	3000
684	1405	1758
685	1480	1889
686	1676	1994
687	348	1066
688	436	2092
689	591	1525
690	728	1137
691	736	2588
692	129	1553
693	480	2078
694	999	2200
695	557	1911
696	1142	3000
697	884	2474
698	569	2359
699	11	1994
700	871	2199
701	59	1816
702	145	368
703	1572	2086
704	1453	3000
705	1736	2135
706	770	1772
707	1036	1744
708	0	1691
709	1009	2017
710	1128	2457
711	933	2264
712	1394	2146
713	1737	2279
714	136	1336
715	1316	2997
716	124	1779
717	709	1486
718	1874	3000
719	2	1399
720	658	1022
721	1182	2394
722	1568	2057
723	444	2138
724	1204	2616
725	368	2243
726	1076	2839
727	693	2051
728	1762	2260
729	480	1195
730	115	1413
731	191	1134
732	3	980
733	4	1617
734	1558	2216
735	651	1500
736	1019	2044
737	723	2129
738	1403	1846
739	1522	1824
740	529	2502
741	8	1610
742	1365	1750
743	873	2502
744	1064	1926
745	1195	3000
746	1054	3000
747	602	1375
748	1125	2016
749	1383	2243
750	0	1127
751	1150	2911
752	543	1937
753	149	1781
754	905	1634
755	843	2641
756	0	1582
757	162	1378
758	1288	3000
759	523	1719
760	153	1838
761	301	1189
762	946	2678
763	1116	2500
764	987	1578
765	265	1914
766	593	2372
767	742	1958
768	0	1441
769	483	2318
770	1163	2813
771	1501	2191
772	1100	1383
773	287	1136
774	1876	2077
775	790	2118
776	656	1884
777	1337	2699
778	403	1251
779	893	2281
780	796	2435
781	648	1214
782	1926	2737
783	1470	2452
784	1121	1857
785	994	2587
786	621	1333
787	449	962
788	962	1691
789	0	1791
790	0	542
791	1068	2333
792	1209	1624
793	1091	1421
794	832	1626
795	1389	2129
796	0	1057
797	42	1051
798	72	1913
799	1800	2234
800	0	853
801	1414	2193
802	685	2684
803	1486	1714
804	575	1210
805	570	2565
806	774	2197
807	0	1347
808	2364	2892
809	910	2735
810	342	2098
811	14	1812
812	22	1727
813	1976	2374
814	869	2114
815	1228	1778
816	1291	1800
817	1986	2711
818	900	2435
819	599	2077
820	543	2163
821	443	1464
822	0	1773
823	1217	1818
824	1549	3000
825	450	1996
826	973	1302
827	1411	2841
828	698	1193
829	362	1694
830	675	2571
831	1287	2369
832	1050	1769
833	1573	2890
834	693	2612
835	1005	2585
836	584	2576
837	0	1760
838	131	1009
839	111	1918
840	958	1258
841	793	2331
842	1269	1889
843	794	2298
844	0	1740
845	0	1345
846	2060	3000
847	1812	2278
848	13	1854
849	46	1586
850	617	2549
851	974	1782
852	1623	2539
853	1383	2430
854	431	968
855	0	1577
856	501	1859
857	1046	1635
858	1297	2330
859	1918	2326
860	1536	2191
861	0	1604
862	330	634
863	1097	1661
864	2319	2657
865	612	1593
866	1699	3000
867	1551	2191
868	1733	2342
869	1403	2053
870	1221	2829
871	1189	2443
872	1992	2351
873	1452	2924
874	325	881
875	628	2552
876	1313	1589
877	0	1159
878	1579	2651
879	775	2469
880	810	1953
881	1601	2175
882	1681	1957
883	690	2602
884	2221	2712
885	286	1014
886	6	1259
887	500	1511
888	0	1362
889	1250	1603
890	1689	2373
891	497	1367
892	396	1596
893	517	1678
894	225	1328
895	1415	2704
896	886	1545
897	955	2307
898	914	2114
899	1150	1962
900	986	1634
901	2056	2847
902	1481	1998
903	1535	2201
904	1699	3000
905	496	1992
906	1818	2048
907	1144	1431
908	1367	1620
909	200	1581
910	1066	2820
911	936	2419
912	902	1592
913	1138	2473
914	16	972
915	565	1014
916	982	1923
917	1340	2796
918	1263	2097
919	1175	2487
920	1703	1928
921	780	1226
922	711	1349
923	1381	2593
924	878	1700
925	738	1320
926	595	1224
927	252	1043
928	1964	3000
929	565	913
930	1574	2069
931	286	2196
932	920	1446
933	1194	3000
934	809	2450
935	13	1743
936	1265	2371
937	1528	1750
938	517	1335
939	395	1782
940	284	1050
941	122	475
942	1049	2911
943	544	1478
944	2232	2881
945	287	737
946	1718	3000
947	383	1948
948	819	1825
949	1110	2140
950	1308	2697
951	802	1563
952	553	1355
953	376	1194
954	1517	2086
955	994	1607
956	1213	1739
957	1413	2481
958	0	1726
959	546	1392
960	582	2180
961	368	1804
962	1052	2309
963	0	783
964	1300	2604
965	1324	2976
966	0	1531
967	0	862
968	525	2191
969	1215	2639
970	998	2166
971	8	1715
972	533	2039
973	440	1263
974	714	1148
975	697	1701
976	1758	3000
977	1086	2222
978	1378	2162
979	0	1125
980	428	1458
981	526	2395
982	1777	2275
983	2005	2410
984	1392	1905
985	0	1461
986	330	1346
987	782	1928
988	148	1124
989	401	641
990	1228	2669
991	0	1235
992	892	1136
993	1131	2915
994	1312	2583
995	1173	2058
996	666	2423
997	1734	2581
998	1403	2521
999	769	1819
1000	937	1988
1001	1276	2180
DEPOT_SECTION
1
-1
EOF
