NAME : n51-0021
COMMENT : "Generated by pyvrp_manuel (VRPBTW)"
TYPE : VRPBTW
DIMENSION : 51
EDGE_WEIGHT_TYPE : EUC_2D
CAPACITY : 40
VEHICLES : 50
SERVICE_TIME : 200
NODE_COORD_SECTION
1	526	244
2	2	549
3	458	384
4	841	922
5	565	323
6	872	814
7	590	363
8	521	946
9	554	401
10	77	232
11	861	482
12	467	695
13	171	466
14	359	762
15	907	814
16	873	53
17	322	559
18	75	636
19	172	714
20	905	72
21	919	733
22	170	979
23	67	163
24	251	475
25	590	353
26	26	442
27	879	885
28	750	573
29	624	115
30	702	2
31	294	369
32	867	485
33	272	587
34	85	368
35	638	467
36	447	806
37	120	248
38	984	599
39	419	759
40	801	416
41	292	418
42	682	436
43	791	92
44	255	881
45	566	601
46	664	382
47	300	643
48	367	293
49	566	621
50	455	162
51	424	217
DEMAND_SECTION
1	0
2	7
3	5
4	3
5	4
6	7
7	4
8	4
9	9
10	2
11	4
12	4
13	2
14	6
15	4
16	7
17	5
18	9
19	6
20	8
21	2
22	9
23	3
24	1
25	1
26	5
27	3
28	2
29	3
30	3
31	4
32	5
33	8
34	6
35	2
36	4
37	2
38	1
39	2
40	5
41	1
42	3
43	2
44	4
45	2
46	5
47	8
48	6
49	7
50	3
51	6
TIME_WINDOW_SECTION
1	0	3000
2	1107	2299
3	0	624
4	1308	1758
5	0	578
6	697	1241
7	813	2196
8	358	1502
9	0	1272
10	1789	2498
11	441	2004
12	134	1372
13	511	2492
14	347	1370
15	434	1251
16	1919	2475
17	192	1491
18	1609	2666
19	765	1019
20	1400	2489
21	1414	1866
22	1148	1367
23	2037	2371
24	1090	1782
25	1583	2108
26	988	1267
27	845	2034
28	2122	2500
29	971	2441
30	536	1921
31	430	1126
32	1140	2782
33	1269	2714
34	450	1502
35	1577	2603
36	1202	2256
37	1783	3000
38	1191	2004
39	1981	2212
40	531	1932
41	201	806
42	448	1328
43	2048	2578
44	583	949
45	1737	2923
46	1219	2506
47	145	1600
48	140	1489
49	96	1579
50	1046	2368
51	2247	2821
BACKHAUL_SECTION
4	6	8	10	23	36	38	44	46	48	-1
DEPOT_SECTION
1
-1
EOF
