NAME : n501-0046
COMMENT : "Generated by pyvrp_manuel (OVRPBLTW)"
TYPE : OVRPBLTW
DIMENSION : 501
EDGE_WEIGHT_TYPE : EUC_2D
CAPACITY : 100
VEHICLES : 500
OPEN_ROUTE : YES
DISTANCE : 3000
SERVICE_TIME : 200
NODE_COORD_SECTION
1	1	793
2	50	4
3	662	253
4	123	118
5	216	235
6	584	237
7	197	422
8	394	786
9	12	247
10	225	719
11	40	806
12	3	767
13	63	93
14	215	446
15	410	504
16	582	211
17	448	639
18	446	770
19	894	649
20	428	135
21	795	321
22	11	881
23	428	757
24	696	46
25	260	243
26	722	857
27	714	380
28	142	668
29	365	228
30	208	825
31	936	69
32	338	192
33	368	259
34	465	26
35	465	653
36	915	158
37	934	965
38	56	994
39	874	586
40	599	326
41	965	435
42	488	278
43	677	84
44	121	918
45	682	394
46	73	218
47	57	254
48	872	754
49	766	471
50	573	412
51	872	615
52	437	875
53	181	325
54	569	57
55	758	555
56	380	169
57	627	270
58	626	383
59	360	130
60	427	124
61	408	505
62	158	96
63	747	749
64	715	371
65	507	797
66	50	523
67	283	793
68	575	99
69	716	293
70	185	452
71	307	554
72	226	285
73	914	618
74	439	864
75	892	579
76	541	255
77	803	847
78	909	75
79	718	307
80	133	546
81	173	634
82	516	163
83	630	260
84	277	654
85	656	479
86	160	989
87	53	567
88	569	740
89	576	988
90	420	546
91	914	394
92	825	398
93	160	699
94	588	391
95	814	436
96	413	783
97	856	692
98	118	633
99	564	632
100	669	69
101	78	510
102	969	849
103	515	17
104	974	50
105	857	416
106	638	757
107	152	533
108	69	93
109	332	556
110	554	24
111	87	969
112	619	153
113	6	600
114	278	579
115	620	661
116	300	59
117	931	915
118	460	274
119	505	124
120	310	211
121	386	511
122	901	153
123	222	585
124	117	140
125	828	689
126	842	839
127	647	912
128	640	868
129	326	594
130	720	658
131	108	12
132	433	369
133	406	695
134	639	498
135	730	704
136	563	313
137	409	797
138	679	369
139	647	842
140	641	693
141	522	663
142	905	512
143	101	526
144	643	603
145	135	509
146	828	225
147	832	202
148	909	896
149	269	369
150	368	61
151	964	343
152	187	645
153	387	956
154	884	282
155	564	750
156	87	822
157	888	863
158	527	752
159	158	503
160	510	279
161	352	766
162	948	995
163	972	487
164	868	740
165	134	958
166	77	821
167	776	492
168	747	555
169	445	605
170	424	897
171	246	537
172	932	117
173	201	781
174	808	439
175	660	184
176	519	514
177	548	230
178	336	853
179	110	82
180	601	775
181	801	986
182	930	193
183	543	989
184	653	10
185	665	43
186	516	450
187	709	612
188	247	599
189	889	173
190	570	927
191	686	618
192	834	701
193	992	321
194	967	674
195	785	471
196	871	3
197	889	391
198	269	368
199	319	579
200	592	571
201	117	467
202	544	732
203	357	471
204	836	322
205	528	542
206	164	288
207	678	176
208	654	227
209	622	417
210	37	598
211	75	211
212	895	940
213	702	787
214	439	819
215	868	679
216	598	198
217	587	735
218	698	417
219	705	645
220	326	911
221	974	589
222	909	106
223	207	210
224	625	906
225	720	662
226	179	344
227	253	534
228	347	554
229	628	184
230	119	901
231	656	538
232	551	685
233	50	564
234	721	978
235	164	417
236	233	278
237	768	216
238	516	145
239	526	94
240	428	665
241	755	852
242	159	286
243	4	774
244	677	771
245	372	111
246	946	545
247	226	782
248	585	443
249	991	923
250	32	476
251	874	851
252	336	770
253	292	800
254	135	943
255	102	111
256	34	821
257	955	824
258	717	665
259	927	32
260	272	615
261	975	90
262	790	118
263	44	223
264	752	246
265	719	107
266	140	481
267	281	737
268	274	583
269	39	330
270	277	930
271	153	384
272	150	938
273	96	603
274	972	520
275	646	880
276	584	155
277	761	183
278	428	335
279	644	13
280	963	594
281	807	547
282	660	741
283	720	907
284	971	170
285	89	585
286	634	850
287	364	595
288	47	866
289	908	470
290	611	441
291	598	320
292	302	380
293	526	412
294	833	455
295	147	463
296	141	103
297	615	402
298	416	775
299	162	455
300	329	660
301	514	536
302	499	987
303	44	931
304	540	602
305	332	869
306	837	591
307	110	644
308	837	288
309	315	483
310	0	590
311	410	390
312	422	424
313	751	502
314	934	148
315	464	930
316	958	719
317	893	519
318	141	121
319	45	765
320	260	596
321	798	505
322	471	275
323	452	458
324	716	741
325	634	969
326	769	320
327	953	153
328	695	687
329	995	214
330	607	266
331	843	615
332	868	852
333	675	657
334	739	615
335	617	514
336	665	34
337	592	948
338	305	461
339	913	981
340	512	159
341	513	996
342	930	625
343	940	73
344	216	732
345	120	971
346	765	904
347	520	581
348	941	620
349	674	855
350	84	375
351	598	480
352	479	712
353	390	677
354	965	485
355	699	759
356	813	121
357	330	906
358	145	94
359	318	96
360	742	597
361	712	591
362	575	122
363	659	523
364	856	622
365	771	127
366	647	633
367	368	380
368	934	692
369	346	77
370	975	7
371	347	262
372	717	903
373	553	707
374	184	339
375	28	765
376	53	230
377	429	286
378	440	179
379	488	59
380	490	450
381	645	469
382	392	124
383	838	851
384	869	865
385	953	915
386	582	781
387	52	473
388	138	967
389	937	822
390	947	636
391	679	573
392	152	192
393	888	161
394	532	856
395	660	596
396	412	788
397	466	105
398	235	589
399	490	829
400	686	313
401	865	255
402	525	475
403	873	46
404	342	773
405	478	637
406	834	162
407	721	372
408	236	959
409	549	340
410	384	404
411	726	660
412	19	851
413	844	31
414	524	205
415	380	523
416	84	821
417	142	997
418	63	237
419	95	844
420	608	96
421	688	955
422	906	545
423	874	862
424	989	463
425	269	679
426	475	612
427	778	994
428	699	806
429	809	375
430	7	643
431	789	199
432	791	424
433	79	202
434	40	281
435	191	405
436	490	655
437	533	970
438	828	315
439	786	841
440	248	376
441	400	25
442	961	655
443	106	53
444	250	652
445	910	940
446	213	878
447	869	794
448	768	943
449	326	628
450	191	162
451	228	539
452	917	567
453	197	13
454	372	583
455	459	128
456	126	792
457	959	32
458	190	81
459	866	960
460	20	894
461	379	357
462	365	568
463	231	107
464	435	901
465	577	32
466	8	698
467	170	568
468	610	532
469	517	965
470	289	956
471	408	437
472	207	337
473	652	324
474	646	172
475	847	802
476	355	984
477	399	584
478	924	626
479	944	89
480	491	927
481	60	609
482	986	681
483	816	904
484	172	422
485	855	620
486	991	573
487	98	232
488	505	44
489	570	989
490	684	972
491	542	194
492	173	805
493	191	42
494	9	539
495	309	237
496	45	602
497	894	161
498	101	603
499	908	673
500	368	696
501	897	202
DEMAND_SECTION
1	0
2	2
3	8
4	7
5	8
6	1
7	3
8	1
9	7
10	6
11	7
12	1
13	3
14	9
15	5
16	4
17	3
18	1
19	3
20	2
21	5
22	7
23	4
24	1
25	4
26	6
27	9
28	5
29	4
30	4
31	2
32	8
33	8
34	1
35	8
36	6
37	6
38	3
39	1
40	5
41	6
42	5
43	4
44	6
45	5
46	3
47	6
48	2
49	1
50	9
51	3
52	3
53	5
54	6
55	2
56	2
57	2
58	9
59	1
60	9
61	2
62	9
63	4
64	6
65	9
66	7
67	6
68	6
69	7
70	2
71	5
72	4
73	4
74	1
75	6
76	3
77	6
78	1
79	8
80	4
81	2
82	9
83	5
84	9
85	7
86	3
87	9
88	3
89	7
90	8
91	6
92	4
93	2
94	3
95	9
96	7
97	6
98	2
99	3
100	2
101	4
102	3
103	8
104	3
105	3
106	2
107	9
108	6
109	1
110	1
111	8
112	2
113	5
114	1
115	2
116	7
117	9
118	7
119	8
120	8
121	9
122	8
123	3
124	8
125	6
126	6
127	3
128	3
129	9
130	5
131	7
132	3
133	7
134	3
135	6
136	8
137	4
138	9
139	6
140	4
141	9
142	8
143	5
144	9
145	9
146	3
147	9
148	3
149	4
150	7
151	5
152	8
153	8
154	9
155	5
156	7
157	4
158	3
159	1
160	7
161	1
162	2
163	4
164	6
165	7
166	1
167	2
168	7
169	4
170	9
171	2
172	7
173	7
174	6
175	6
176	6
177	8
178	9
179	8
180	7
181	5
182	6
183	2
184	4
185	5
186	6
187	1
188	4
189	7
190	1
191	3
192	9
193	1
194	8
195	7
196	5
197	4
198	9
199	4
200	2
201	7
202	8
203	7
204	4
205	3
206	3
207	8
208	7
209	9
210	5
211	6
212	2
213	7
214	3
215	3
216	2
217	6
218	6
219	8
220	4
221	4
222	6
223	8
224	8
225	2
226	1
227	8
228	7
229	3
230	8
231	5
232	7
233	7
234	6
235	5
236	8
237	5
238	8
239	7
240	5
241	6
242	7
243	1
244	5
245	4
246	1
247	8
248	1
249	3
250	9
251	1
252	4
253	9
254	8
255	3
256	1
257	7
258	9
259	2
260	1
261	4
262	4
263	3
264	9
265	3
266	9
267	9
268	6
269	1
270	7
271	5
272	7
273	5
274	3
275	3
276	6
277	2
278	4
279	5
280	8
281	3
282	3
283	5
284	2
285	1
286	4
287	5
288	5
289	9
290	8
291	8
292	9
293	5
294	8
295	7
296	7
297	6
298	2
299	7
300	5
301	5
302	3
303	2
304	2
305	3
306	2
307	1
308	7
309	7
310	9
311	7
312	1
313	5
314	2
315	7
316	1
317	5
318	8
319	3
320	2
321	4
322	1
323	9
324	4
325	3
326	4
327	2
328	6
329	3
330	8
331	4
332	9
333	8
334	5
335	2
336	7
337	1
338	3
339	2
340	2
341	3
342	3
343	1
344	2
345	4
346	4
347	4
348	3
349	5
350	4
351	5
352	9
353	2
354	1
355	3
356	8
357	3
358	1
359	5
360	6
361	2
362	5
363	6
364	9
365	2
366	8
367	4
368	5
369	8
370	3
371	2
372	4
373	2
374	3
375	3
376	4
377	3
378	6
379	5
380	8
381	7
382	1
383	8
384	4
385	2
386	7
387	9
388	1
389	6
390	9
391	6
392	6
393	6
394	1
395	6
396	2
397	6
398	1
399	6
400	7
401	7
402	8
403	9
404	8
405	3
406	7
407	1
408	2
409	2
410	8
411	9
412	9
413	7
414	1
415	8
416	7
417	6
418	8
419	8
420	1
421	5
422	4
423	6
424	2
425	7
426	3
427	1
428	6
429	7
430	2
431	5
432	6
433	4
434	9
435	2
436	4
437	8
438	1
439	8
440	5
441	1
442	4
443	1
444	6
445	3
446	5
447	3
448	5
449	7
450	5
451	9
452	2
453	2
454	9
455	9
456	6
457	2
458	1
459	4
460	1
461	4
462	9
463	5
464	5
465	2
466	1
467	2
468	5
469	7
470	1
471	5
472	2
473	1
474	3
475	4
476	5
477	2
478	2
479	7
480	5
481	9
482	6
483	5
484	8
485	1
486	6
487	8
488	8
489	2
490	5
491	2
492	3
493	8
494	2
495	7
496	2
497	7
498	1
499	5
500	1
501	6
TIME_WINDOW_SECTION
1	0	3000
2	1139	2590
3	845	1173
4	255	1157
5	57	1151
6	353	2175
7	0	1596
8	257	981
9	1772	2613
10	1479	2370
11	2442	2704
12	285	595
13	1429	2627
14	544	1415
15	1406	2656
16	1673	2114
17	1440	3000
18	2096	2481
19	870	1969
20	1618	1866
21	506	2134
22	1707	3000
23	1508	2519
24	926	2603
25	560	1928
26	1498	2115
27	820	1654
28	1908	3000
29	1245	1619
30	1772	2496
31	814	2279
32	1000	1674
33	1145	1636
34	804	1452
35	1441	1747
36	1012	2265
37	861	1902
38	0	1195
39	709	1780
40	1662	2135
41	767	1444
42	1250	2230
43	1609	1945
44	1086	2021
45	857	2857
46	1479	2582
47	344	2271
48	752	2429
49	869	2835
50	531	973
51	549	2264
52	434	2227
53	1093	2598
54	581	2543
55	264	1552
56	1635	2024
57	401	1285
58	1080	1679
59	1373	2298
60	488	1339
61	1619	2875
62	491	1340
63	516	1110
64	271	2256
65	0	1413
66	155	1713
67	711	1065
68	1305	2487
69	440	2322
70	1991	2494
71	0	1497
72	1137	2746
73	467	1640
74	26	1934
75	463	2323
76	1132	1444
77	0	1817
78	1029	1455
79	882	1517
80	72	1889
81	1261	1783
82	860	1395
83	1327	2410
84	158	916
85	1133	1463
86	1337	3000
87	1680	2314
88	1073	2294
89	285	2234
90	675	2557
91	1278	2216
92	1259	2401
93	0	1287
94	219	2154
95	1162	1878
96	1350	2925
97	1078	2621
98	1899	2422
99	333	1004
100	719	2136
101	1684	2360
102	752	2294
103	1062	2072
104	1116	1445
105	1452	2215
106	1341	1909
107	574	946
108	521	2297
109	408	2126
110	1225	1863
111	0	1058
112	607	2007
113	295	2051
114	764	2426
115	995	2088
116	485	2180
117	1120	1508
118	754	1687
119	687	1789
120	446	2006
121	1562	2640
122	1250	1714
123	176	1685
124	69	1647
125	1012	2705
126	968	1290
127	887	1340
128	1121	2286
129	454	2025
130	426	1271
131	518	1484
132	1479	2671
133	1768	2162
134	1089	2524
135	504	1909
136	1166	1660
137	2087	2495
138	1486	2254
139	0	1751
140	549	1827
141	759	1616
142	657	1978
143	0	1304
144	1582	2221
145	13	891
146	518	2459
147	1151	1656
148	397	1670
149	1217	1751
150	599	1906
151	386	2053
152	769	2110
153	0	1429
154	931	1674
155	454	1723
156	1613	3000
157	723	1431
158	733	2027
159	0	1463
160	205	1646
161	0	1373
162	541	2179
163	1226	1599
164	67	2038
165	1504	2062
166	1964	2266
167	526	1525
168	1110	2888
169	727	2411
170	1304	1712
171	64	1011
172	778	1561
173	0	1446
174	906	1346
175	378	1651
176	895	2796
177	860	1349
178	1506	2659
179	1749	2136
180	1323	1986
181	1177	1633
182	566	2518
183	672	2623
184	784	1635
185	813	2148
186	0	1472
187	832	2138
188	1890	2607
189	1430	1853
190	1833	2157
191	1281	2006
192	549	1702
193	1440	1954
194	1507	1753
195	567	1749
196	1387	1848
197	667	1605
198	1849	2214
199	1049	2877
200	1261	2301
201	276	2106
202	723	1481
203	1028	2521
204	1613	2016
205	465	1475
206	70	1782
207	228	1778
208	737	2635
209	1129	3000
210	1964	2273
211	1047	2494
212	656	1679
213	681	1586
214	208	1074
215	1011	2704
216	717	2666
217	778	1515
218	911	2277
219	849	1860
220	1274	2315
221	560	2195
222	1053	1499
223	1238	1636
224	1247	1977
225	1046	1849
226	1143	2893
227	1130	2961
228	1467	3000
229	1095	2539
230	1825	2387
231	0	1806
232	1233	2696
233	366	953
234	18	1982
235	0	1964
236	1297	2050
237	280	2112
238	1113	2289
239	378	1573
240	446	1899
241	774	2728
242	0	1743
243	1713	3000
244	822	2327
245	902	1909
246	1110	2362
247	1703	2336
248	843	1672
249	1319	1843
250	928	1938
251	1015	1599
252	942	2358
253	1340	2281
254	375	1387
255	1641	2197
256	425	983
257	1137	1764
258	1018	2162
259	1244	1896
260	684	1282
261	875	2311
262	495	1829
263	1586	2529
264	282	2021
265	745	2421
266	88	1033
267	767	1219
268	243	1512
269	997	1571
270	413	1867
271	1355	2035
272	1262	3000
273	1594	3000
274	1155	1503
275	313	2153
276	1119	1622
277	1256	2361
278	1189	3000
279	1327	1966
280	286	2236
281	1128	2560
282	1009	1605
283	565	1871
284	1036	1289
285	2197	2792
286	1345	1958
287	250	636
288	53	877
289	803	1403
290	496	1353
291	682	1331
292	1168	1687
293	141	1593
294	828	1569
295	177	1769
296	1370	2241
297	243	2011
298	1137	2212
299	1339	3000
300	971	2013
301	1050	3000
302	990	1969
303	1526	2736
304	767	1290
305	1130	2119
306	997	1747
307	1221	1923
308	901	2312
309	603	850
310	0	867
311	162	1208
312	1434	2755
313	869	2842
314	893	1841
315	1191	1717
316	102	2058
317	547	2190
318	699	1341
319	211	1603
320	1533	2054
321	1564	1941
322	484	1270
323	1869	2144
324	158	1791
325	565	1564
326	1235	1471
327	662	1820
328	1517	1905
329	1059	2031
330	312	2108
331	1660	1875
332	474	1320
333	732	2059
334	740	2183
335	804	2528
336	735	2209
337	0	1556
338	574	2143
339	827	2131
340	785	999
341	1360	2330
342	1341	2214
343	723	2049
344	235	620
345	134	855
346	195	1949
347	0	1535
348	447	1878
349	1031	1788
350	1888	2187
351	1136	1565
352	1890	2214
353	493	1899
354	879	1960
355	442	2005
356	659	1999
357	326	2112
358	868	1556
359	1441	2127
360	387	1239
361	965	2965
362	1384	2089
363	440	1508
364	428	1960
365	253	2203
366	239	2033
367	518	2455
368	186	1890
369	1358	1768
370	841	2159
371	480	1746
372	1666	2070
373	369	1771
374	872	1455
375	491	1282
376	1079	1945
377	384	1120
378	993	2925
379	644	2238
380	1231	2763
381	747	2593
382	1650	2080
383	866	1241
384	427	1491
385	699	1366
386	970	1262
387	1135	2580
388	918	1138
389	1027	2043
390	1244	2240
391	667	1022
392	1127	1785
393	1271	1608
394	443	2365
395	281	1805
396	889	2232
397	979	2673
398	21	620
399	968	1216
400	1325	1651
401	1136	1507
402	1279	2285
403	927	1383
404	1200	1837
405	908	2245
406	910	1331
407	372	2235
408	1386	1830
409	1023	2104
410	546	2315
411	0	1751
412	592	2590
413	1147	1538
414	1098	2846
415	502	2390
416	309	1723
417	1636	2849
418	1664	1960
419	2220	2790
420	1103	2321
421	175	1655
422	660	2550
423	1467	2289
424	668	2555
425	1661	2793
426	1870	2611
427	613	2520
428	531	2254
429	442	1890
430	224	553
431	577	2284
432	1279	2513
433	977	1432
434	693	2549
435	858	2325
436	585	2020
437	1255	1806
438	749	2301
439	684	1068
440	585	2040
441	1381	2045
442	1260	2048
443	632	2523
444	268	1920
445	1301	2333
446	204	669
447	331	1696
448	1118	2351
449	26	1702
450	109	1553
451	1923	2254
452	885	2312
453	1007	1434
454	665	1512
455	693	1506
456	0	678
457	376	2099
458	1227	2428
459	812	1304
460	0	1293
461	118	1306
462	485	1071
463	851	2484
464	75	1956
465	689	2161
466	2236	3000
467	1469	3000
468	470	2272
469	1112	1821
470	1621	2498
471	1183	3000
472	1298	2895
473	298	1758
474	570	2463
475	1293	2295
476	49	1973
477	207	1326
478	653	2236
479	1228	1596
480	0	1445
481	1183	2653
482	1129	1438
483	1510	2257
484	1986	2346
485	937	2418
486	878	2405
487	985	2821
488	1266	1684
489	540	1097
490	1484	2362
491	0	1883
492	281	1437
493	1433	1993
494	197	1554
495	1688	1970
496	1079	2948
497	1076	2320
498	850	2132
499	697	1270
500	0	1794
501	843	1805
BACKHAUL_SECTION
2	6	16	21	33	41	43	44	45	48	49	50	67	76	77	88	90	105	106	107	112	116	118	119	122	130	132	133	134	145	156	157	169	170	180	186	188	192	195	197	198	207	212	213	214	216	219	222	231	234	236	237	243	245	254	259	261	264	268	269	277	291	295	298	302	303	311	325	329	332	338	346	347	350	351	356	370	379	389	391	398	406	408	411	412	417	421	422	427	432	433	459	477	482	484	485	486	492	498	500	-1
DEPOT_SECTION
1
-1
EOF
