NAME : n501-0032
COMMENT : "Generated by pyvrp_manuel (OVRPBLTW)"
TYPE : OVRPBLTW
DIMENSION : 501
EDGE_WEIGHT_TYPE : EUC_2D
CAPACITY : 100
VEHICLES : 500
OPEN_ROUTE : YES
DISTANCE : 3000
SERVICE_TIME : 200
NODE_COORD_SECTION
1	39	46
2	707	369
3	401	674
4	245	364
5	517	634
6	939	460
7	559	941
8	722	636
9	561	608
10	163	896
11	579	543
12	397	936
13	343	774
14	547	60
15	17	425
16	969	619
17	690	649
18	477	49
19	46	273
20	979	776
21	933	811
22	517	168
23	390	108
24	220	302
25	39	619
26	328	72
27	278	111
28	137	743
29	167	773
30	581	743
31	211	348
32	524	539
33	179	646
34	189	24
35	595	130
36	528	487
37	379	247
38	230	939
39	378	363
40	643	585
41	41	800
42	531	161
43	398	560
44	528	833
45	759	178
46	804	331
47	251	703
48	400	399
49	848	714
50	980	649
51	456	222
52	854	21
53	508	55
54	366	472
55	57	722
56	918	57
57	652	468
58	109	686
59	561	72
60	264	464
61	648	451
62	919	854
63	293	226
64	4	627
65	267	596
66	201	331
67	505	90
68	258	917
69	91	77
70	538	934
71	343	978
72	134	356
73	362	234
74	602	392
75	269	809
76	584	397
77	78	5
78	507	25
79	998	921
80	101	699
81	499	867
82	214	301
83	32	224
84	275	241
85	142	248
86	525	576
87	762	573
88	724	670
89	445	440
90	223	445
91	868	196
92	944	465
93	210	370
94	936	647
95	98	312
96	709	679
97	988	870
98	168	988
99	377	696
100	77	192
101	95	199
102	937	496
103	228	436
104	460	494
105	95	163
106	230	394
107	409	19
108	352	275
109	965	976
110	958	937
111	640	471
112	432	52
113	683	523
114	9	847
115	940	205
116	682	938
117	432	346
118	397	769
119	544	374
120	813	473
121	335	852
122	55	586
123	703	14
124	265	942
125	855	563
126	950	38
127	322	223
128	994	760
129	859	662
130	588	506
131	38	446
132	215	123
133	691	332
134	939	212
135	143	440
136	740	848
137	686	149
138	147	373
139	4	955
140	614	54
141	680	154
142	930	109
143	893	630
144	532	85
145	45	117
146	635	923
147	393	952
148	625	179
149	770	225
150	954	979
151	221	169
152	607	786
153	53	150
154	569	702
155	595	317
156	118	271
157	422	254
158	935	166
159	344	892
160	811	697
161	888	325
162	794	247
163	150	261
164	247	455
165	978	779
166	824	770
167	900	849
168	38	364
169	691	709
170	449	669
171	760	107
172	235	476
173	71	24
174	473	559
175	434	776
176	576	222
177	622	160
178	781	121
179	278	367
180	259	177
181	890	301
182	583	145
183	680	843
184	424	699
185	204	272
186	358	311
187	460	821
188	836	58
189	396	861
190	367	692
191	713	590
192	948	575
193	148	992
194	136	682
195	253	541
196	599	519
197	808	693
198	301	409
199	279	986
200	421	987
201	428	108
202	726	404
203	160	87
204	383	802
205	849	975
206	506	370
207	540	734
208	781	858
209	418	453
210	114	408
211	158	843
212	588	184
213	171	237
214	688	317
215	772	119
216	815	428
217	259	56
218	214	888
219	372	691
220	240	146
221	493	982
222	667	660
223	218	271
224	693	612
225	358	687
226	544	242
227	976	606
228	546	419
229	73	334
230	232	168
231	633	87
232	669	896
233	312	713
234	197	197
235	772	422
236	581	493
237	438	18
238	441	380
239	505	585
240	390	820
241	892	387
242	446	999
243	65	777
244	350	835
245	486	453
246	278	663
247	432	970
248	668	277
249	210	76
250	433	166
251	336	951
252	987	461
253	750	540
254	895	84
255	431	852
256	580	40
257	927	183
258	111	779
259	652	691
260	375	274
261	747	24
262	864	789
263	411	547
264	954	778
265	748	660
266	72	171
267	338	635
268	810	504
269	849	688
270	635	311
271	951	666
272	430	550
273	933	465
274	427	468
275	696	488
276	11	87
277	646	461
278	740	888
279	420	87
280	927	293
281	895	185
282	444	451
283	201	661
284	406	665
285	283	223
286	496	661
287	528	365
288	39	546
289	91	609
290	847	197
291	418	785
292	605	670
293	356	542
294	322	101
295	483	86
296	652	196
297	59	150
298	63	905
299	880	468
300	459	607
301	799	826
302	967	982
303	773	839
304	977	686
305	638	141
306	2	592
307	628	838
308	814	344
309	989	194
310	935	879
311	443	438
312	846	336
313	364	900
314	288	529
315	145	580
316	118	693
317	988	123
318	286	451
319	424	987
320	833	702
321	72	812
322	574	721
323	315	115
324	89	849
325	547	412
326	590	989
327	635	867
328	32	186
329	710	167
330	435	610
331	620	518
332	39	375
333	599	642
334	221	770
335	391	341
336	682	827
337	886	660
338	621	956
339	48	758
340	251	61
341	493	633
342	631	149
343	992	970
344	652	485
345	770	498
346	540	849
347	85	689
348	680	226
349	938	491
350	329	462
351	889	661
352	669	550
353	289	329
354	957	317
355	946	209
356	915	156
357	714	24
358	388	570
359	154	888
360	581	308
361	323	269
362	744	104
363	786	670
364	623	690
365	289	159
366	822	511
367	771	6
368	993	752
369	239	418
370	780	978
371	980	928
372	99	428
373	145	919
374	356	541
375	821	896
376	513	163
377	139	139
378	238	315
379	732	49
380	359	155
381	828	404
382	807	114
383	961	149
384	676	473
385	591	939
386	291	878
387	408	834
388	482	738
389	656	182
390	299	104
391	313	318
392	360	619
393	196	557
394	710	328
395	178	685
396	393	153
397	546	103
398	185	296
399	969	834
400	555	861
401	415	25
402	456	618
403	506	928
404	982	989
405	103	629
406	76	644
407	700	641
408	420	220
409	815	690
410	762	33
411	130	169
412	965	300
413	688	438
414	66	973
415	540	718
416	219	784
417	785	716
418	792	746
419	546	43
420	142	663
421	144	692
422	166	532
423	568	412
424	752	11
425	786	38
426	921	51
427	985	757
428	883	420
429	691	667
430	851	903
431	397	849
432	420	170
433	470	265
434	62	77
435	44	858
436	563	547
437	967	406
438	796	663
439	47	696
440	720	465
441	490	108
442	829	714
443	286	815
444	759	609
445	292	957
446	911	928
447	824	995
448	777	518
449	746	325
450	346	144
451	931	861
452	448	209
453	249	942
454	322	858
455	321	591
456	488	237
457	377	683
458	466	375
459	391	90
460	265	999
461	7	211
462	459	9
463	704	66
464	517	292
465	447	668
466	333	500
467	188	308
468	395	716
469	923	61
470	754	927
471	427	212
472	142	875
473	275	237
474	462	725
475	236	698
476	991	146
477	362	536
478	550	425
479	963	817
480	345	432
481	142	855
482	222	457
483	410	368
484	950	817
485	489	151
486	667	381
487	348	344
488	815	736
489	504	421
490	448	894
491	868	652
492	385	993
493	876	394
494	660	144
495	199	28
496	508	235
497	283	820
498	927	32
499	707	452
500	30	650
501	410	364
DEMAND_SECTION
1	0
2	3
3	1
4	2
5	2
6	9
7	6
8	1
9	1
10	7
11	8
12	8
13	8
14	3
15	4
16	4
17	8
18	1
19	2
20	3
21	7
22	9
23	6
24	4
25	4
26	8
27	2
28	7
29	7
30	9
31	5
32	7
33	6
34	2
35	5
36	9
37	2
38	3
39	5
40	6
41	2
42	5
43	5
44	5
45	1
46	3
47	8
48	4
49	9
50	3
51	1
52	3
53	4
54	9
55	9
56	7
57	3
58	4
59	5
60	5
61	1
62	5
63	4
64	9
65	9
66	6
67	6
68	8
69	8
70	9
71	5
72	6
73	4
74	1
75	4
76	7
77	9
78	3
79	5
80	3
81	6
82	8
83	1
84	3
85	9
86	9
87	4
88	1
89	7
90	4
91	6
92	7
93	1
94	3
95	6
96	7
97	8
98	2
99	5
100	7
101	9
102	2
103	5
104	5
105	6
106	7
107	5
108	1
109	1
110	9
111	3
112	9
113	6
114	8
115	3
116	7
117	5
118	2
119	2
120	2
121	3
122	5
123	8
124	9
125	2
126	3
127	6
128	2
129	7
130	1
131	4
132	4
133	3
134	6
135	7
136	3
137	3
138	3
139	2
140	3
141	4
142	2
143	6
144	6
145	5
146	9
147	8
148	1
149	8
150	5
151	6
152	5
153	9
154	8
155	4
156	2
157	3
158	7
159	4
160	4
161	9
162	8
163	6
164	9
165	7
166	8
167	9
168	3
169	6
170	4
171	2
172	5
173	1
174	5
175	8
176	4
177	1
178	4
179	6
180	1
181	6
182	7
183	4
184	6
185	3
186	3
187	7
188	7
189	2
190	3
191	3
192	1
193	9
194	5
195	4
196	5
197	9
198	1
199	4
200	9
201	1
202	9
203	4
204	2
205	9
206	8
207	7
208	6
209	2
210	4
211	6
212	8
213	4
214	5
215	5
216	8
217	8
218	9
219	6
220	1
221	3
222	1
223	8
224	4
225	7
226	6
227	2
228	2
229	1
230	9
231	5
232	2
233	7
234	8
235	8
236	1
237	2
238	1
239	4
240	2
241	5
242	8
243	8
244	6
245	7
246	4
247	5
248	5
249	9
250	5
251	9
252	3
253	6
254	3
255	6
256	1
257	1
258	7
259	5
260	6
261	9
262	1
263	6
264	4
265	9
266	8
267	7
268	1
269	7
270	3
271	3
272	4
273	4
274	5
275	6
276	9
277	9
278	4
279	5
280	3
281	9
282	2
283	5
284	8
285	5
286	3
287	6
288	7
289	8
290	1
291	8
292	1
293	2
294	3
295	8
296	1
297	1
298	1
299	3
300	1
301	4
302	2
303	6
304	4
305	4
306	6
307	1
308	8
309	3
310	8
311	2
312	7
313	9
314	7
315	2
316	4
317	4
318	3
319	9
320	4
321	7
322	4
323	3
324	7
325	1
326	2
327	3
328	3
329	4
330	1
331	3
332	4
333	4
334	5
335	2
336	4
337	9
338	7
339	9
340	3
341	4
342	8
343	2
344	6
345	8
346	9
347	1
348	6
349	9
350	9
351	5
352	6
353	2
354	9
355	9
356	7
357	3
358	1
359	7
360	4
361	3
362	2
363	5
364	2
365	9
366	3
367	9
368	1
369	3
370	5
371	4
372	9
373	7
374	3
375	3
376	2
377	3
378	6
379	1
380	2
381	8
382	2
383	1
384	7
385	3
386	2
387	2
388	1
389	6
390	8
391	8
392	7
393	6
394	4
395	8
396	9
397	8
398	5
399	8
400	8
401	4
402	9
403	7
404	8
405	1
406	5
407	1
408	2
409	8
410	3
411	1
412	6
413	9
414	6
415	4
416	5
417	5
418	4
419	2
420	9
421	7
422	6
423	4
424	8
425	4
426	2
427	1
428	3
429	3
430	1
431	4
432	3
433	2
434	6
435	6
436	4
437	5
438	9
439	7
440	3
441	3
442	1
443	9
444	5
445	3
446	7
447	9
448	1
449	4
450	1
451	5
452	7
453	5
454	3
455	3
456	5
457	6
458	6
459	7
460	2
461	8
462	8
463	1
464	5
465	5
466	5
467	7
468	9
469	9
470	6
471	4
472	7
473	6
474	7
475	1
476	6
477	7
478	4
479	9
480	2
481	6
482	4
483	1
484	5
485	6
486	9
487	9
488	1
489	2
490	4
491	5
492	3
493	6
494	8
495	3
496	8
497	9
498	9
499	4
500	5
501	1
TIME_WINDOW_SECTION
1	0	3000
2	980	2499
3	0	1910
4	0	1516
5	425	2323
6	849	2253
7	1310	1563
8	502	2249
9	652	1634
10	1119	1518
11	881	2809
12	923	2715
13	1404	2337
14	1924	2411
15	159	1180
16	804	2102
17	1264	1627
18	0	1490
19	257	1747
20	994	1930
21	777	2021
22	874	1782
23	1392	1878
24	11	1571
25	1834	2170
26	357	1816
27	860	1618
28	930	2444
29	210	1493
30	170	2067
31	421	1111
32	993	2918
33	48	1676
34	82	303
35	236	2071
36	1172	2882
37	275	2123
38	511	1448
39	48	1466
40	372	2231
41	1220	2378
42	530	791
43	1146	1414
44	969	2539
45	448	2286
46	569	2234
47	1212	2935
48	257	1535
49	287	2209
50	1431	1814
51	1693	2495
52	1292	1775
53	706	2009
54	11	1210
55	461	993
56	1106	1313
57	992	1307
58	1380	2720
59	0	1510
60	1737	2586
61	1534	1817
62	1082	1982
63	275	1551
64	722	2685
65	676	1257
66	1892	3000
67	1255	3000
68	931	2583
69	0	1689
70	615	2607
71	532	2268
72	1452	2225
73	46	759
74	723	2355
75	579	2360
76	667	1291
77	607	855
78	1286	2805
79	448	2160
80	1746	2492
81	983	2276
82	252	1242
83	784	1330
84	0	1460
85	957	2108
86	713	1418
87	534	2147
88	731	2725
89	826	2142
90	492	1778
91	294	2212
92	1434	1660
93	1796	2025
94	724	2691
95	1626	2098
96	665	1222
97	440	2167
98	727	1180
99	53	2009
100	875	2083
101	1426	2637
102	1608	1901
103	213	920
104	523	996
105	1485	3000
106	1924	2581
107	911	1603
108	989	2778
109	1222	1594
110	429	2396
111	1020	2679
112	1794	2371
113	1085	2411
114	300	1967
115	1056	2486
116	557	2209
117	293	1929
118	785	2589
119	670	1690
120	1458	2320
121	183	1739
122	561	1604
123	1207	1929
124	1125	2078
125	858	1668
126	431	1571
127	563	1468
128	453	1953
129	857	1252
130	1133	1521
131	99	1980
132	1285	2778
133	165	2101
134	384	1524
135	0	1642
136	562	1797
137	1190	1873
138	1449	1895
139	810	1242
140	1999	2347
141	171	2072
142	730	2176
143	1407	1946
144	1095	1827
145	0	1870
146	242	2082
147	697	1949
148	427	831
149	646	950
150	1064	1813
151	817	2334
152	66	1877
153	352	1389
154	566	1887
155	226	1210
156	926	1796
157	940	1691
158	687	1479
159	569	2026
160	1020	1591
161	815	1273
162	1599	1963
163	0	1647
164	1708	2335
165	493	2457
166	944	1883
167	818	1704
168	513	1713
169	581	2511
170	1425	2634
171	1059	2552
172	308	2191
173	193	1597
174	498	1750
175	971	1873
176	1879	2328
177	803	2182
178	395	1426
179	0	1158
180	1519	2337
181	742	1677
182	1290	2476
183	1559	1900
184	449	2348
185	850	2627
186	285	2034
187	567	2065
188	294	1320
189	382	2297
190	965	1381
191	1196	1613
192	799	1756
193	677	2177
194	701	2687
195	602	2409
196	470	1256
197	1173	1702
198	1022	1285
199	1382	2236
200	890	2559
201	673	1189
202	777	2198
203	1163	1970
204	489	1290
205	665	2276
206	641	2449
207	1337	1791
208	703	2100
209	780	2329
210	1823	2809
211	783	984
212	1665	2099
213	2108	2685
214	414	1259
215	285	2145
216	1283	2085
217	43	1725
218	1515	1740
219	928	1969
220	527	1118
221	761	2433
222	867	1330
223	408	961
224	1773	2079
225	314	1175
226	167	1019
227	722	1767
228	0	1365
229	659	2274
230	299	1296
231	936	2893
232	1262	1751
233	443	1638
234	1504	2613
235	486	1263
236	652	1723
237	1634	2950
238	603	1674
239	1578	1840
240	513	1274
241	906	2143
242	1568	1804
243	929	2295
244	236	1955
245	1335	2042
246	912	2692
247	705	2048
248	1838	2311
249	0	1575
250	1109	3000
251	682	2551
252	132	2056
253	805	1380
254	969	2831
255	1418	2172
256	1929	2327
257	259	2046
258	150	1448
259	1396	2321
260	339	970
261	1112	2527
262	654	1770
263	151	1378
264	878	2263
265	1012	2276
266	1312	2018
267	890	2324
268	1615	2075
269	1042	2294
270	815	1427
271	1073	1864
272	1587	1808
273	1037	2535
274	1911	2207
275	266	2038
276	468	2014
277	1726	2377
278	1207	1579
279	701	1141
280	1195	1535
281	1200	2570
282	428	1826
283	323	1481
284	916	1288
285	947	2740
286	487	1839
287	941	2127
288	1414	2915
289	1142	2855
290	324	2211
291	1368	1589
292	1061	1574
293	196	1085
294	938	1599
295	364	653
296	1252	2985
297	1542	2557
298	498	1282
299	771	2168
300	955	1370
301	1323	1543
302	891	1901
303	1165	2195
304	842	1603
305	1588	2621
306	1063	2549
307	362	1667
308	199	1676
309	1459	1870
310	684	2102
311	1811	2347
312	460	1772
313	863	1544
314	586	2308
315	504	801
316	1206	2011
317	1064	2407
318	1325	2971
319	1045	1398
320	312	1978
321	1430	1994
322	1186	2459
323	520	1005
324	0	1838
325	632	1064
326	655	1713
327	1247	1892
328	0	1108
329	998	2593
330	447	2255
331	1541	1867
332	1080	3000
333	754	2494
334	758	2033
335	128	1288
336	1521	1958
337	1006	1227
338	901	1977
339	318	2058
340	1185	3000
341	421	1484
342	501	2433
343	1273	1542
344	327	1864
345	1136	1410
346	575	2223
347	704	2055
348	479	1131
349	1550	1948
350	220	1746
351	1059	2267
352	691	1951
353	808	1469
354	889	1509
355	38	1909
356	943	1902
357	711	1167
358	0	1784
359	1807	2058
360	842	1545
361	0	1553
362	1204	1764
363	651	1852
364	564	1430
365	0	1209
366	1275	1965
367	1697	2114
368	1255	1864
369	637	1923
370	800	2037
371	1056	1959
372	965	1300
373	429	1505
374	1108	2842
375	1050	2108
376	1072	2764
377	2090	3000
378	0	1723
379	309	1668
380	0	1314
381	339	1868
382	1826	2085
383	1444	2125
384	1034	2645
385	314	1980
386	229	1578
387	1375	2322
388	1389	2536
389	1451	2877
390	856	1630
391	1071	2353
392	1293	2726
393	895	2388
394	1088	2590
395	713	2365
396	855	2236
397	300	1197
398	1631	3000
399	1243	1718
400	318	1741
401	0	1769
402	452	2203
403	970	1424
404	418	2413
405	743	1280
406	1934	2155
407	67	2014
408	993	2350
409	1062	1939
410	611	1223
411	1267	2041
412	448	2001
413	1155	2038
414	1346	2041
415	1276	2199
416	1122	2421
417	979	1377
418	1268	1877
419	319	1359
420	757	2478
421	374	2324
422	0	1785
423	653	1445
424	799	2711
425	947	1221
426	908	2436
427	935	1509
428	819	1378
429	1067	2532
430	900	2315
431	1694	2052
432	520	941
433	860	2178
434	1293	2341
435	1337	1911
436	1805	2095
437	799	2433
438	128	1986
439	596	1851
440	636	1799
441	0	1271
442	798	1543
443	285	2266
444	772	1691
445	889	1326
446	881	1895
447	945	1591
448	176	1730
449	1119	1509
450	1535	2827
451	766	2108
452	450	973
453	913	1135
454	746	1973
455	313	2136
456	619	2588
457	112	2010
458	1406	2621
459	0	1911
460	89	2042
461	2178	2522
462	29	1904
463	543	845
464	1301	2237
465	356	2075
466	1309	2491
467	307	1032
468	784	1463
469	516	1725
470	788	1724
471	1276	1639
472	958	2243
473	697	1831
474	868	2651
475	854	2107
476	1504	1784
477	1690	2148
478	549	1342
479	816	1600
480	640	2600
481	1201	2026
482	0	1236
483	826	1744
484	459	2308
485	166	1177
486	395	1495
487	0	1312
488	434	1903
489	987	1941
490	646	2458
491	1496	1766
492	1231	1913
493	655	1335
494	1108	2487
495	0	1542
496	1430	2649
497	684	1568
498	1053	1358
499	506	1452
500	960	1881
501	392	1565
BACKHAUL_SECTION
2	6	16	21	33	41	43	44	45	48	49	50	67	76	77	88	90	105	106	107	112	116	118	119	122	130	132	133	134	145	156	157	169	170	180	186	188	192	195	197	198	207	212	213	214	216	219	222	231	234	236	237	243	245	254	259	261	264	268	269	277	291	295	298	302	303	311	325	329	332	338	346	347	350	351	356	370	379	389	391	398	406	408	411	412	417	421	422	427	432	433	459	477	482	484	485	486	492	498	500	-1
DEPOT_SECTION
1
-1
EOF
