NAME : n501-0034
COMMENT : "Generated by pyvrp_manuel (OVRPBLTW)"
TYPE : OVRPBLTW
DIMENSION : 501
EDGE_WEIGHT_TYPE : EUC_2D
CAPACITY : 100
VEHICLES : 500
OPEN_ROUTE : YES
DISTANCE : 3000
SERVICE_TIME : 200
NODE_COORD_SECTION
1	86	89
2	768	274
3	382	882
4	876	649
5	494	820
6	119	628
7	473	89
8	686	959
9	748	597
10	92	282
11	658	187
12	136	30
13	581	342
14	238	646
15	745	131
16	451	255
17	575	501
18	292	722
19	484	844
20	233	370
21	240	66
22	192	4
23	994	710
24	836	95
25	144	784
26	269	279
27	342	866
28	132	250
29	505	170
30	280	901
31	947	94
32	165	638
33	362	298
34	95	285
35	14	174
36	424	250
37	830	299
38	584	721
39	687	716
40	827	794
41	819	707
42	952	424
43	837	162
44	76	702
45	760	35
46	16	501
47	615	480
48	440	570
49	673	383
50	443	136
51	209	22
52	904	902
53	523	922
54	851	667
55	244	391
56	469	842
57	130	261
58	590	609
59	192	83
60	228	236
61	465	980
62	429	844
63	807	883
64	911	610
65	996	803
66	399	684
67	744	334
68	160	684
69	664	200
70	225	845
71	711	363
72	627	876
73	698	162
74	23	37
75	270	139
76	140	57
77	660	606
78	34	877
79	458	439
80	468	413
81	710	529
82	756	244
83	84	764
84	920	587
85	898	943
86	370	963
87	353	308
88	898	934
89	553	596
90	714	785
91	907	111
92	499	352
93	486	514
94	971	763
95	610	889
96	289	78
97	893	27
98	526	189
99	729	377
100	516	532
101	338	362
102	707	974
103	878	680
104	812	71
105	679	586
106	744	869
107	16	628
108	851	123
109	138	536
110	532	993
111	600	839
112	223	94
113	413	159
114	920	463
115	223	149
116	765	983
117	361	506
118	345	971
119	627	686
120	864	382
121	449	800
122	400	645
123	753	758
124	64	405
125	794	609
126	618	989
127	921	696
128	656	166
129	366	215
130	181	310
131	365	670
132	91	349
133	908	49
134	242	176
135	102	77
136	618	776
137	815	613
138	651	413
139	44	214
140	40	792
141	386	876
142	722	963
143	124	190
144	336	383
145	92	727
146	774	523
147	179	425
148	749	927
149	714	771
150	579	102
151	280	677
152	408	711
153	846	583
154	366	512
155	823	963
156	784	543
157	635	927
158	690	951
159	242	6
160	365	878
161	394	387
162	373	24
163	356	264
164	689	8
165	236	120
166	256	594
167	727	950
168	65	259
169	452	687
170	583	623
171	918	196
172	805	662
173	636	456
174	114	258
175	452	217
176	97	217
177	804	677
178	677	351
179	515	883
180	355	898
181	338	240
182	784	349
183	977	146
184	786	79
185	769	788
186	993	648
187	233	944
188	426	122
189	250	471
190	203	439
191	884	655
192	562	75
193	92	40
194	500	100
195	385	818
196	645	15
197	486	684
198	402	333
199	43	855
200	95	931
201	790	424
202	967	930
203	468	547
204	888	431
205	239	321
206	158	582
207	462	385
208	228	803
209	894	371
210	7	815
211	332	322
212	756	346
213	405	880
214	22	507
215	952	753
216	49	934
217	660	229
218	343	589
219	371	425
220	564	7
221	147	653
222	939	231
223	365	686
224	604	107
225	911	287
226	616	482
227	716	804
228	803	368
229	774	211
230	538	356
231	991	892
232	883	660
233	36	34
234	316	858
235	859	690
236	562	654
237	865	829
238	870	975
239	525	376
240	928	945
241	864	286
242	416	546
243	68	429
244	878	717
245	246	229
246	863	756
247	625	276
248	301	537
249	878	132
250	604	305
251	705	51
252	630	273
253	888	496
254	35	233
255	28	29
256	281	540
257	143	747
258	296	302
259	224	164
260	717	126
261	894	126
262	835	635
263	839	909
264	271	358
265	698	358
266	616	146
267	937	231
268	867	703
269	377	933
270	141	194
271	916	993
272	81	993
273	801	799
274	556	735
275	29	2
276	731	123
277	778	442
278	168	24
279	793	649
280	360	667
281	414	488
282	873	601
283	384	494
284	441	72
285	192	849
286	919	494
287	843	802
288	963	312
289	317	427
290	582	448
291	224	134
292	815	274
293	795	268
294	525	131
295	782	103
296	640	438
297	300	135
298	795	979
299	77	357
300	212	540
301	354	388
302	46	289
303	66	636
304	63	745
305	574	956
306	646	395
307	279	86
308	580	377
309	342	430
310	42	156
311	72	732
312	290	333
313	913	22
314	554	226
315	193	874
316	399	153
317	453	625
318	940	437
319	255	407
320	732	156
321	28	836
322	217	665
323	149	219
324	619	707
325	844	919
326	242	630
327	37	816
328	387	346
329	714	609
330	484	777
331	371	3
332	670	639
333	298	435
334	497	806
335	302	99
336	93	402
337	883	831
338	671	809
339	87	389
340	581	517
341	560	63
342	609	683
343	200	835
344	309	314
345	512	517
346	903	570
347	657	736
348	3	911
349	845	835
350	828	124
351	895	968
352	224	399
353	104	314
354	557	411
355	106	242
356	940	491
357	761	484
358	480	248
359	965	921
360	582	131
361	477	260
362	727	9
363	288	923
364	860	750
365	191	233
366	407	57
367	695	677
368	793	207
369	920	266
370	734	6
371	698	265
372	762	67
373	102	697
374	875	769
375	994	513
376	468	418
377	293	202
378	819	27
379	588	141
380	899	434
381	778	317
382	481	669
383	185	812
384	64	381
385	998	246
386	156	721
387	600	38
388	597	416
389	999	489
390	519	770
391	310	582
392	115	549
393	37	134
394	582	301
395	636	193
396	33	536
397	761	948
398	483	928
399	337	337
400	232	617
401	952	356
402	227	761
403	435	27
404	42	580
405	92	807
406	157	795
407	600	207
408	388	624
409	281	525
410	108	161
411	671	424
412	733	169
413	561	698
414	160	476
415	94	859
416	114	129
417	898	590
418	856	786
419	601	97
420	468	688
421	73	965
422	124	142
423	435	558
424	208	986
425	339	420
426	640	314
427	680	691
428	824	161
429	879	438
430	390	903
431	5	20
432	567	939
433	700	350
434	810	656
435	794	352
436	452	928
437	479	426
438	751	643
439	552	190
440	158	753
441	957	511
442	227	625
443	102	337
444	268	514
445	680	605
446	435	472
447	448	754
448	980	248
449	503	558
450	867	814
451	415	944
452	283	388
453	337	44
454	311	274
455	755	518
456	770	978
457	12	773
458	241	458
459	237	501
460	409	262
461	536	346
462	146	75
463	272	107
464	464	68
465	724	307
466	183	117
467	231	960
468	795	883
469	214	206
470	150	248
471	344	128
472	338	210
473	858	584
474	806	85
475	954	780
476	729	796
477	568	805
478	191	128
479	457	451
480	478	856
481	697	492
482	690	603
483	323	503
484	749	627
485	676	157
486	987	37
487	377	237
488	355	130
489	179	778
490	706	90
491	595	846
492	495	782
493	583	136
494	777	44
495	938	78
496	128	71
497	945	20
498	257	46
499	607	85
500	931	515
501	25	625
DEMAND_SECTION
1	0
2	4
3	8
4	1
5	2
6	8
7	6
8	6
9	5
10	9
11	1
12	3
13	2
14	5
15	5
16	2
17	6
18	1
19	4
20	1
21	8
22	3
23	2
24	1
25	5
26	3
27	4
28	9
29	8
30	8
31	6
32	4
33	1
34	9
35	9
36	2
37	4
38	3
39	8
40	1
41	4
42	8
43	4
44	3
45	4
46	1
47	8
48	2
49	9
50	9
51	5
52	2
53	3
54	9
55	3
56	9
57	7
58	9
59	1
60	2
61	9
62	6
63	6
64	5
65	3
66	6
67	5
68	7
69	3
70	6
71	2
72	3
73	6
74	6
75	7
76	5
77	5
78	9
79	6
80	5
81	9
82	3
83	7
84	5
85	9
86	7
87	3
88	4
89	7
90	4
91	7
92	9
93	8
94	7
95	5
96	8
97	7
98	3
99	4
100	2
101	3
102	2
103	6
104	1
105	5
106	5
107	6
108	4
109	9
110	5
111	1
112	7
113	1
114	4
115	7
116	3
117	7
118	8
119	2
120	1
121	9
122	3
123	5
124	4
125	8
126	1
127	2
128	8
129	4
130	2
131	2
132	1
133	7
134	2
135	4
136	4
137	8
138	4
139	9
140	8
141	3
142	6
143	4
144	1
145	4
146	8
147	8
148	7
149	6
150	6
151	3
152	5
153	2
154	5
155	4
156	8
157	2
158	2
159	4
160	7
161	3
162	5
163	8
164	1
165	5
166	2
167	6
168	8
169	3
170	3
171	6
172	2
173	9
174	2
175	9
176	8
177	9
178	5
179	1
180	4
181	4
182	7
183	4
184	2
185	4
186	7
187	8
188	3
189	1
190	5
191	3
192	2
193	1
194	5
195	6
196	5
197	6
198	5
199	8
200	5
201	6
202	4
203	3
204	9
205	8
206	2
207	6
208	1
209	2
210	4
211	1
212	1
213	5
214	3
215	5
216	1
217	7
218	4
219	1
220	4
221	6
222	6
223	1
224	8
225	9
226	6
227	1
228	2
229	9
230	8
231	2
232	9
233	1
234	7
235	6
236	8
237	4
238	1
239	6
240	1
241	6
242	7
243	7
244	1
245	4
246	5
247	7
248	6
249	3
250	1
251	3
252	6
253	7
254	2
255	1
256	2
257	7
258	9
259	2
260	5
261	8
262	6
263	3
264	1
265	8
266	6
267	1
268	7
269	8
270	3
271	7
272	4
273	8
274	1
275	4
276	9
277	1
278	7
279	4
280	8
281	2
282	1
283	2
284	2
285	6
286	5
287	3
288	1
289	8
290	7
291	7
292	7
293	6
294	9
295	3
296	9
297	6
298	3
299	2
300	2
301	4
302	9
303	1
304	4
305	6
306	5
307	6
308	9
309	8
310	1
311	7
312	5
313	8
314	9
315	1
316	7
317	3
318	1
319	2
320	3
321	6
322	7
323	6
324	9
325	8
326	6
327	6
328	4
329	8
330	9
331	6
332	8
333	1
334	1
335	6
336	4
337	7
338	2
339	7
340	3
341	6
342	2
343	2
344	6
345	5
346	8
347	8
348	9
349	5
350	9
351	2
352	7
353	2
354	4
355	4
356	8
357	2
358	5
359	9
360	2
361	3
362	2
363	9
364	4
365	1
366	8
367	8
368	8
369	8
370	2
371	4
372	7
373	1
374	4
375	9
376	1
377	8
378	3
379	3
380	2
381	9
382	3
383	4
384	9
385	5
386	9
387	9
388	4
389	9
390	8
391	9
392	3
393	9
394	9
395	6
396	6
397	8
398	5
399	8
400	5
401	4
402	1
403	8
404	8
405	7
406	4
407	6
408	1
409	1
410	9
411	1
412	3
413	6
414	4
415	7
416	1
417	1
418	6
419	9
420	8
421	2
422	5
423	9
424	4
425	6
426	9
427	6
428	1
429	2
430	5
431	9
432	9
433	4
434	5
435	2
436	7
437	9
438	4
439	8
440	3
441	9
442	7
443	6
444	6
445	8
446	6
447	1
448	1
449	5
450	9
451	5
452	9
453	7
454	6
455	4
456	8
457	7
458	4
459	2
460	4
461	3
462	5
463	4
464	5
465	8
466	5
467	5
468	2
469	6
470	1
471	2
472	8
473	5
474	3
475	4
476	3
477	1
478	5
479	2
480	6
481	5
482	9
483	7
484	3
485	1
486	5
487	8
488	6
489	6
490	2
491	3
492	2
493	6
494	9
495	3
496	2
497	9
498	9
499	1
500	2
501	6
TIME_WINDOW_SECTION
1	0	3000
2	891	1603
3	1612	2022
4	707	1827
5	838	1180
6	1352	2833
7	0	1751
8	1202	2280
9	1056	1826
10	0	1272
11	949	1349
12	1723	2860
13	1618	1853
14	770	1979
15	1587	1827
16	116	932
17	1213	1825
18	1187	1424
19	416	1367
20	388	1284
21	1140	2316
22	1262	3000
23	681	2564
24	570	2501
25	1063	2153
26	626	2306
27	984	2775
28	660	1728
29	356	1409
30	412	1518
31	141	1781
32	1047	2973
33	1180	2110
34	1041	2131
35	1059	1588
36	1307	2840
37	834	2796
38	1010	1426
39	829	1191
40	393	2335
41	497	1951
42	1143	2482
43	678	1163
44	290	1999
45	1918	2165
46	803	2135
47	366	1244
48	186	1012
49	1129	1637
50	479	1129
51	1275	1700
52	819	2083
53	662	2068
54	977	2094
55	760	1649
56	586	1996
57	1315	1745
58	1151	2860
59	923	2227
60	0	1024
61	1181	1806
62	896	2433
63	878	1853
64	257	2090
65	498	1865
66	1029	1454
67	1441	2320
68	873	1487
69	1400	2243
70	862	1514
71	890	2465
72	1588	1992
73	473	2416
74	970	1799
75	1842	2842
76	1409	1918
77	686	2680
78	752	2428
79	1661	2205
80	93	1139
81	399	1750
82	1085	3000
83	941	1374
84	1432	2066
85	443	2118
86	1333	1902
87	1610	2609
88	428	1961
89	1242	2720
90	755	2336
91	1112	2519
92	817	1997
93	486	2469
94	1210	1785
95	1029	1711
96	520	2078
97	636	1744
98	0	1671
99	1037	2698
100	1179	3000
101	1800	2288
102	1516	1916
103	792	1416
104	930	1489
105	96	1988
106	921	1740
107	751	2677
108	1115	1586
109	1080	2731
110	367	1661
111	1372	2408
112	1087	2225
113	0	1520
114	536	1374
115	886	2600
116	1163	2089
117	0	1079
118	596	1800
119	559	2344
120	1230	2352
121	370	1373
122	424	1349
123	1121	2512
124	107	1520
125	629	1379
126	1036	1244
127	862	1465
128	1148	2373
129	778	1959
130	631	1351
131	1095	1741
132	1987	2641
133	1107	1518
134	350	1557
135	667	1011
136	292	1913
137	795	1914
138	1318	2026
139	1073	2727
140	1200	1836
141	594	2368
142	829	2311
143	1153	2361
144	1078	2632
145	682	1328
146	1693	1939
147	1906	2379
148	488	2123
149	905	1433
150	453	1653
151	500	2238
152	848	1870
153	1022	1255
154	1053	2741
155	971	1922
156	1082	1421
157	660	2316
158	1083	1883
159	550	1152
160	698	1475
161	604	1574
162	1413	2009
163	348	1995
164	1573	2612
165	223	1040
166	245	830
167	449	1854
168	1665	2760
169	1735	1998
170	1054	1545
171	0	1913
172	450	2143
173	1218	2591
174	341	898
175	637	1444
176	296	1331
177	1004	2452
178	1286	2586
179	817	1930
180	1079	2085
181	1853	3000
182	337	2090
183	1165	2048
184	503	1633
185	1413	2055
186	505	2324
187	1570	2207
188	359	2274
189	64	865
190	971	2316
191	785	2623
192	966	1243
193	1465	2140
194	1361	1756
195	435	1568
196	456	2297
197	962	2482
198	454	1195
199	1706	2176
200	1173	2246
201	1406	1803
202	633	1982
203	1061	2350
204	522	1808
205	1265	2243
206	1983	2188
207	1636	2373
208	1033	2295
209	1048	1671
210	728	1830
211	1153	2063
212	811	2144
213	584	1922
214	1638	2705
215	931	1733
216	1503	2218
217	506	1541
218	1162	3000
219	1122	1587
220	971	1803
221	159	1039
222	1154	1801
223	213	1741
224	1267	3000
225	1007	2866
226	543	1660
227	1644	1865
228	1006	2474
229	1370	2650
230	1449	1827
231	1448	1728
232	933	2398
233	0	1061
234	444	2099
235	1548	1828
236	75	1880
237	1174	1850
238	1272	1631
239	1340	1853
240	941	1862
241	1446	2202
242	277	1225
243	1335	2957
244	1066	1507
245	1163	1399
246	227	2116
247	1493	1851
248	500	1808
249	1363	1858
250	366	2137
251	664	920
252	464	1315
253	583	1223
254	873	2640
255	1409	1967
256	1610	2640
257	1010	2907
258	687	1428
259	0	773
260	1302	1914
261	709	1803
262	944	2645
263	611	2274
264	1489	3000
265	1073	1772
266	951	2663
267	777	2738
268	1010	1464
269	990	1753
270	604	2411
271	575	2060
272	1007	2007
273	1299	1648
274	711	2159
275	724	1034
276	1587	2140
277	873	2148
278	0	1369
279	1358	1825
280	499	1952
281	564	1234
282	908	1828
283	811	2057
284	58	1525
285	1577	2124
286	1210	2320
287	857	2427
288	1008	2062
289	1466	2744
290	1936	2146
291	2351	2784
292	1429	2051
293	872	2045
294	0	1597
295	667	1777
296	1225	1518
297	1249	1452
298	788	2193
299	907	2292
300	1435	2760
301	887	1511
302	1774	3000
303	1754	2691
304	91	1648
305	662	1585
306	1590	1795
307	1508	2995
308	1375	1940
309	0	1510
310	423	797
311	323	1047
312	0	916
313	899	2423
314	0	1395
315	761	2297
316	191	1947
317	451	2365
318	582	1833
319	214	919
320	0	1876
321	1526	2325
322	857	2092
323	2326	2606
324	706	1463
325	368	2124
326	1772	2092
327	370	1942
328	180	1238
329	1318	2568
330	629	1378
331	377	1464
332	816	2591
333	1577	1788
334	229	2086
335	261	628
336	944	1209
337	682	1710
338	496	1755
339	51	1233
340	1795	2013
341	2042	2592
342	646	2343
343	986	1502
344	386	1667
345	731	1416
346	728	2031
347	1482	1738
348	619	1177
349	706	1793
350	1217	2865
351	1097	1622
352	0	1802
353	591	937
354	0	1815
355	1231	2978
356	961	2655
357	1211	2244
358	731	2331
359	651	2475
360	617	1834
361	1474	2529
362	348	1531
363	122	1650
364	828	1419
365	340	731
366	335	2050
367	1025	1777
368	1419	2661
369	1592	1838
370	1159	3000
371	0	1704
372	303	1105
373	737	2272
374	599	2315
375	907	2530
376	1586	2518
377	1770	2053
378	848	1275
379	710	1658
380	1045	2150
381	1131	1751
382	1058	2859
383	549	1247
384	421	1512
385	1360	1640
386	895	2108
387	0	1878
388	1754	2073
389	662	1947
390	638	2494
391	978	2387
392	579	2144
393	2500	2778
394	88	1964
395	441	1998
396	1555	1842
397	402	2335
398	1217	2221
399	2094	2485
400	1326	2235
401	1515	2272
402	1226	2327
403	1768	2688
404	737	2516
405	771	1866
406	541	924
407	1513	2494
408	0	1814
409	0	1606
410	2007	2518
411	1008	2514
412	9	1366
413	1484	1740
414	133	1365
415	1069	2261
416	275	1744
417	887	1217
418	674	1655
419	98	2033
420	535	2297
421	1610	2029
422	205	829
423	812	2148
424	584	2279
425	1289	1962
426	1075	2555
427	239	2228
428	600	2598
429	1293	2055
430	31	1866
431	100	483
432	530	2146
433	633	2022
434	751	2369
435	899	1736
436	1200	1892
437	1828	2360
438	872	2766
439	509	2096
440	1248	1966
441	890	1450
442	45	1717
443	0	812
444	1352	2299
445	593	2093
446	0	1768
447	1296	2255
448	835	1524
449	623	1308
450	794	2308
451	986	1599
452	955	1902
453	571	1473
454	902	2346
455	641	2081
456	885	2264
457	1077	2054
458	347	1263
459	0	1096
460	1376	2847
461	1311	1660
462	0	1019
463	0	1163
464	1993	2488
465	1884	2240
466	62	909
467	399	2372
468	1033	2099
469	611	1363
470	796	1586
471	849	2593
472	1171	3000
473	980	2311
474	1203	2129
475	1147	1443
476	188	1897
477	798	1760
478	0	1081
479	972	2865
480	259	1770
481	1651	2188
482	1085	2032
483	963	1447
484	1360	2440
485	822	2583
486	759	2209
487	872	2867
488	1608	2242
489	899	2628
490	2033	2278
491	347	1668
492	302	1522
493	791	1550
494	1018	2362
495	1085	2406
496	479	1765
497	879	1539
498	135	2060
499	1341	2002
500	333	1744
501	943	2891
BACKHAUL_SECTION
2	6	16	21	33	41	43	44	45	48	49	50	67	76	77	88	90	105	106	107	112	116	118	119	122	130	132	133	134	145	156	157	169	170	180	186	188	192	195	197	198	207	212	213	214	216	219	222	231	234	236	237	243	245	254	259	261	264	268	269	277	291	295	298	302	303	311	325	329	332	338	346	347	350	351	356	370	379	389	391	398	406	408	411	412	417	421	422	427	432	433	459	477	482	484	485	486	492	498	500	-1
DEPOT_SECTION
1
-1
EOF
