NAME : n501-0013
COMMENT : "Generated by pyvrp_manuel (OVRPBLTW)"
TYPE : OVRPBLTW
DIMENSION : 501
EDGE_WEIGHT_TYPE : EUC_2D
CAPACITY : 100
VEHICLES : 500
OPEN_ROUTE : YES
DISTANCE : 3000
SERVICE_TIME : 200
NODE_COORD_SECTION
1	301	443
2	915	837
3	146	601
4	256	938
5	405	141
6	68	276
7	144	193
8	16	528
9	562	330
10	315	286
11	384	638
12	962	820
13	773	276
14	839	500
15	859	562
16	981	42
17	338	843
18	633	616
19	580	818
20	739	119
21	978	121
22	249	904
23	731	739
24	451	381
25	778	881
26	808	462
27	996	303
28	868	49
29	686	278
30	457	744
31	801	621
32	14	798
33	250	651
34	434	949
35	125	235
36	225	741
37	822	5
38	110	743
39	487	712
40	5	290
41	552	60
42	520	641
43	504	867
44	309	568
45	235	655
46	982	649
47	167	140
48	981	809
49	112	455
50	116	724
51	857	431
52	569	436
53	964	220
54	57	623
55	643	994
56	56	997
57	312	540
58	320	64
59	197	919
60	152	486
61	989	570
62	202	267
63	85	494
64	114	355
65	268	371
66	685	841
67	36	593
68	1	411
69	871	795
70	854	369
71	596	239
72	995	635
73	361	387
74	73	533
75	236	95
76	414	45
77	102	79
78	841	18
79	824	204
80	943	565
81	793	861
82	939	415
83	960	771
84	764	648
85	395	89
86	874	658
87	303	633
88	480	882
89	183	905
90	525	587
91	372	773
92	590	878
93	526	734
94	803	158
95	32	11
96	74	870
97	212	362
98	132	296
99	499	578
100	425	631
101	463	735
102	706	509
103	288	998
104	415	346
105	566	923
106	668	150
107	55	365
108	122	471
109	678	476
110	387	239
111	494	900
112	155	287
113	47	781
114	297	708
115	865	280
116	805	655
117	704	620
118	673	977
119	774	969
120	174	71
121	202	852
122	14	467
123	23	885
124	578	13
125	796	283
126	276	860
127	278	736
128	184	782
129	119	536
130	847	571
131	495	194
132	165	659
133	286	418
134	174	920
135	602	335
136	865	588
137	990	569
138	662	874
139	389	564
140	635	543
141	494	72
142	201	922
143	753	590
144	683	393
145	254	478
146	677	544
147	156	225
148	224	503
149	253	447
150	170	834
151	324	34
152	96	446
153	387	479
154	112	53
155	480	56
156	415	326
157	587	753
158	401	796
159	537	857
160	540	104
161	765	209
162	796	2
163	52	971
164	751	40
165	250	162
166	61	948
167	644	719
168	10	428
169	712	565
170	379	530
171	639	753
172	693	396
173	823	648
174	177	230
175	12	645
176	998	941
177	929	185
178	271	378
179	60	626
180	903	588
181	939	346
182	977	167
183	975	924
184	448	356
185	298	63
186	874	985
187	100	758
188	852	268
189	542	618
190	743	388
191	597	233
192	692	683
193	143	180
194	707	559
195	211	347
196	249	34
197	806	933
198	144	635
199	858	0
200	368	553
201	938	894
202	549	934
203	760	905
204	285	882
205	463	407
206	574	481
207	431	255
208	777	454
209	871	120
210	146	902
211	562	141
212	244	523
213	779	114
214	231	237
215	645	698
216	884	452
217	263	526
218	709	380
219	530	470
220	146	190
221	673	819
222	802	352
223	853	244
224	350	630
225	956	216
226	21	583
227	380	69
228	102	163
229	445	596
230	211	196
231	687	521
232	642	947
233	588	847
234	524	921
235	740	583
236	912	504
237	531	658
238	604	439
239	158	348
240	281	342
241	345	793
242	431	495
243	451	778
244	252	761
245	848	411
246	945	111
247	662	723
248	106	782
249	456	863
250	220	956
251	467	146
252	9	408
253	538	629
254	717	794
255	754	583
256	177	191
257	809	705
258	951	169
259	379	448
260	589	246
261	684	188
262	342	392
263	995	274
264	544	324
265	976	47
266	344	679
267	581	463
268	182	330
269	198	28
270	108	785
271	966	627
272	22	753
273	829	142
274	842	632
275	498	984
276	589	303
277	561	10
278	270	200
279	575	241
280	641	436
281	121	861
282	137	447
283	748	587
284	956	664
285	508	34
286	891	888
287	765	870
288	557	841
289	850	515
290	99	208
291	647	118
292	808	556
293	619	157
294	707	879
295	628	95
296	413	39
297	974	686
298	937	267
299	48	344
300	968	903
301	799	719
302	30	799
303	80	961
304	440	663
305	171	149
306	709	467
307	261	443
308	175	851
309	789	467
310	403	568
311	316	213
312	391	844
313	320	157
314	140	264
315	897	938
316	627	978
317	592	561
318	703	96
319	864	722
320	896	662
321	715	204
322	968	898
323	807	515
324	862	113
325	334	419
326	202	374
327	606	813
328	113	342
329	338	356
330	34	113
331	588	755
332	619	382
333	188	582
334	223	641
335	973	276
336	451	696
337	260	620
338	1000	641
339	894	108
340	455	730
341	988	141
342	20	240
343	237	18
344	35	203
345	901	51
346	681	411
347	394	143
348	677	214
349	757	921
350	550	854
351	703	721
352	939	672
353	373	0
354	354	618
355	499	334
356	257	616
357	819	126
358	530	109
359	3	604
360	694	609
361	634	101
362	55	178
363	600	808
364	277	449
365	536	602
366	92	374
367	531	538
368	662	330
369	759	78
370	654	570
371	917	305
372	714	910
373	288	681
374	537	728
375	355	781
376	873	378
377	61	470
378	774	226
379	121	678
380	662	912
381	277	730
382	843	577
383	47	394
384	4	529
385	484	383
386	837	690
387	99	595
388	840	863
389	138	918
390	753	414
391	859	119
392	944	904
393	469	750
394	181	184
395	595	525
396	631	492
397	82	219
398	182	976
399	283	952
400	737	233
401	181	862
402	346	398
403	520	632
404	90	441
405	137	393
406	374	723
407	790	740
408	593	346
409	990	290
410	67	507
411	183	570
412	446	882
413	358	882
414	885	598
415	106	304
416	84	749
417	145	152
418	225	759
419	495	684
420	487	127
421	860	402
422	147	916
423	549	721
424	409	915
425	818	132
426	815	626
427	635	766
428	198	176
429	310	951
430	801	402
431	961	680
432	252	523
433	778	979
434	256	586
435	842	658
436	360	974
437	326	956
438	71	588
439	535	532
440	27	329
441	564	350
442	737	296
443	655	938
444	67	656
445	397	173
446	280	644
447	168	57
448	256	816
449	236	806
450	78	825
451	292	771
452	111	305
453	96	278
454	870	788
455	177	403
456	345	319
457	889	715
458	522	651
459	367	588
460	809	527
461	105	694
462	787	893
463	119	773
464	420	777
465	677	807
466	904	637
467	892	846
468	306	365
469	38	751
470	415	608
471	40	930
472	970	822
473	901	221
474	219	34
475	525	935
476	619	489
477	193	492
478	677	681
479	378	377
480	360	42
481	162	846
482	164	793
483	921	880
484	604	349
485	934	465
486	31	815
487	600	993
488	739	584
489	796	622
490	170	763
491	80	364
492	991	667
493	946	860
494	567	19
495	333	855
496	338	168
497	153	23
498	622	134
499	347	114
500	482	738
501	433	381
DEMAND_SECTION
1	0
2	4
3	6
4	4
5	4
6	6
7	7
8	6
9	4
10	3
11	9
12	4
13	3
14	6
15	2
16	3
17	3
18	3
19	4
20	2
21	1
22	9
23	8
24	5
25	4
26	4
27	4
28	2
29	5
30	1
31	2
32	7
33	3
34	8
35	3
36	3
37	7
38	9
39	2
40	5
41	1
42	7
43	3
44	9
45	6
46	5
47	4
48	5
49	4
50	4
51	4
52	1
53	7
54	3
55	6
56	7
57	7
58	1
59	2
60	4
61	7
62	2
63	7
64	3
65	8
66	9
67	9
68	4
69	9
70	2
71	1
72	9
73	5
74	8
75	6
76	2
77	4
78	1
79	3
80	8
81	9
82	4
83	6
84	8
85	1
86	5
87	3
88	3
89	3
90	7
91	5
92	2
93	7
94	4
95	4
96	2
97	4
98	4
99	5
100	8
101	2
102	9
103	3
104	8
105	2
106	7
107	2
108	2
109	6
110	7
111	4
112	1
113	1
114	7
115	4
116	1
117	9
118	9
119	3
120	8
121	9
122	1
123	2
124	5
125	2
126	9
127	2
128	4
129	3
130	9
131	6
132	6
133	9
134	8
135	9
136	2
137	4
138	7
139	5
140	1
141	8
142	6
143	8
144	7
145	4
146	7
147	4
148	6
149	6
150	4
151	6
152	8
153	3
154	8
155	7
156	7
157	7
158	5
159	9
160	5
161	9
162	5
163	6
164	5
165	4
166	4
167	5
168	3
169	4
170	4
171	8
172	4
173	8
174	5
175	6
176	3
177	9
178	6
179	4
180	8
181	4
182	8
183	4
184	1
185	1
186	9
187	8
188	4
189	7
190	4
191	6
192	9
193	5
194	5
195	3
196	6
197	2
198	6
199	8
200	6
201	1
202	2
203	4
204	1
205	6
206	5
207	9
208	8
209	9
210	4
211	4
212	4
213	8
214	8
215	6
216	9
217	9
218	2
219	6
220	4
221	5
222	1
223	9
224	8
225	2
226	4
227	7
228	5
229	7
230	8
231	7
232	9
233	7
234	8
235	7
236	2
237	1
238	4
239	7
240	5
241	8
242	4
243	2
244	5
245	5
246	4
247	7
248	7
249	5
250	1
251	4
252	3
253	5
254	2
255	1
256	7
257	6
258	4
259	2
260	4
261	2
262	1
263	8
264	5
265	2
266	1
267	3
268	5
269	3
270	2
271	1
272	8
273	9
274	2
275	9
276	4
277	4
278	9
279	5
280	1
281	3
282	2
283	6
284	4
285	5
286	3
287	7
288	9
289	7
290	3
291	2
292	3
293	2
294	6
295	1
296	3
297	2
298	4
299	7
300	9
301	8
302	3
303	3
304	2
305	2
306	7
307	5
308	4
309	3
310	6
311	3
312	3
313	8
314	6
315	4
316	5
317	2
318	8
319	1
320	2
321	3
322	4
323	6
324	5
325	1
326	9
327	8
328	6
329	9
330	8
331	8
332	4
333	7
334	7
335	6
336	9
337	3
338	8
339	9
340	1
341	5
342	3
343	9
344	4
345	6
346	3
347	2
348	7
349	1
350	4
351	2
352	2
353	6
354	2
355	7
356	5
357	7
358	4
359	2
360	5
361	9
362	7
363	6
364	9
365	5
366	7
367	8
368	7
369	9
370	6
371	8
372	5
373	3
374	8
375	4
376	9
377	7
378	7
379	9
380	8
381	7
382	5
383	4
384	9
385	9
386	1
387	4
388	3
389	8
390	3
391	9
392	4
393	7
394	8
395	5
396	1
397	8
398	6
399	4
400	2
401	5
402	6
403	2
404	9
405	7
406	8
407	8
408	1
409	5
410	5
411	1
412	1
413	4
414	1
415	1
416	3
417	1
418	1
419	1
420	9
421	6
422	8
423	8
424	9
425	8
426	7
427	5
428	4
429	8
430	5
431	3
432	9
433	4
434	3
435	9
436	2
437	3
438	4
439	3
440	5
441	2
442	7
443	6
444	1
445	2
446	8
447	2
448	2
449	4
450	9
451	2
452	7
453	5
454	6
455	3
456	4
457	2
458	4
459	6
460	9
461	1
462	3
463	2
464	7
465	6
466	6
467	5
468	7
469	3
470	6
471	6
472	6
473	1
474	5
475	5
476	3
477	9
478	2
479	3
480	5
481	2
482	1
483	6
484	4
485	4
486	3
487	8
488	3
489	2
490	5
491	7
492	1
493	9
494	5
495	5
496	3
497	7
498	4
499	8
500	7
501	6
TIME_WINDOW_SECTION
1	0	3000
2	338	1616
3	230	1607
4	1460	1832
5	1498	1940
6	666	1544
7	2049	2902
8	7	1856
9	0	1068
10	1526	2317
11	1581	2805
12	966	2660
13	2076	2438
14	0	1327
15	939	1141
16	22	1933
17	627	1884
18	70	1103
19	0	1939
20	1333	2762
21	731	1437
22	752	1363
23	158	2149
24	1602	2089
25	575	1663
26	611	2535
27	1580	2554
28	1377	2407
29	194	1351
30	817	1855
31	140	1445
32	878	2817
33	1150	2331
34	1061	2645
35	15	862
36	0	1648
37	168	1856
38	0	1377
39	0	1398
40	961	1940
41	1189	1475
42	1613	2221
43	391	630
44	1501	2627
45	1159	2697
46	900	2672
47	1595	1958
48	133	1825
49	369	1992
50	1516	3000
51	1087	1767
52	659	2304
53	191	2095
54	512	2248
55	1676	2458
56	1315	1884
57	1467	2979
58	858	2328
59	943	2898
60	1002	1644
61	933	1854
62	1329	1559
63	603	2203
64	522	1116
65	175	1897
66	38	1454
67	0	1584
68	418	1869
69	1100	1560
70	377	1042
71	1212	3000
72	450	2255
73	1197	2333
74	0	1182
75	1968	2679
76	605	2356
77	104	1049
78	1766	2085
79	726	2566
80	1389	2807
81	1308	2923
82	1065	1713
83	988	2135
84	929	1669
85	1555	2319
86	570	1241
87	1627	3000
88	1208	2096
89	969	2689
90	119	811
91	753	2544
92	0	1316
93	825	2377
94	265	1133
95	927	1883
96	1475	2160
97	1097	2851
98	0	1286
99	1241	1497
100	991	2517
101	1684	2477
102	453	1949
103	21	1177
104	1907	2369
105	1273	1494
106	919	2444
107	1096	2081
108	981	2186
109	1654	2452
110	0	1172
111	524	2242
112	672	970
113	0	1706
114	1309	1682
115	205	1647
116	1527	2222
117	1059	2139
118	976	2088
119	842	1190
120	1204	2591
121	0	1178
122	164	1119
123	380	2338
124	1575	1989
125	1508	1860
126	955	1949
127	1175	2301
128	381	1766
129	514	1162
130	1546	2288
131	722	2542
132	310	1722
133	853	1106
134	781	2065
135	0	1192
136	797	2469
137	726	958
138	1357	2299
139	1197	2287
140	779	1416
141	837	2157
142	0	1267
143	847	1872
144	1203	2303
145	2046	2479
146	1682	2940
147	1299	2962
148	1996	3000
149	255	1592
150	0	1555
151	25	1901
152	635	2410
153	70	990
154	1446	1873
155	1029	2753
156	1584	2407
157	312	1889
158	231	1061
159	782	1947
160	914	2387
161	1494	2248
162	892	1350
163	749	1619
164	793	2413
165	507	1994
166	1233	1702
167	0	1481
168	0	1319
169	0	1442
170	934	1498
171	1231	1904
172	1177	2669
173	660	1844
174	454	944
175	1782	2345
176	1257	1637
177	1160	1434
178	1919	3000
179	463	2194
180	250	1640
181	732	2694
182	1045	2583
183	1153	2143
184	2170	2455
185	1445	1819
186	1628	2250
187	930	2764
188	1231	1920
189	0	1012
190	325	1079
191	1309	3000
192	585	2246
193	0	1354
194	1052	3000
195	524	2389
196	714	1928
197	0	1825
198	1453	3000
199	621	1709
200	2034	2361
201	77	1496
202	917	1958
203	236	2080
204	381	2092
205	1644	2595
206	970	1211
207	1246	3000
208	2013	2264
209	981	2463
210	1435	1731
211	649	1919
212	1598	2073
213	970	1953
214	1356	2454
215	51	1675
216	0	1819
217	390	2236
218	1107	2805
219	1097	1602
220	468	770
221	723	1214
222	767	2517
223	706	1727
224	0	1762
225	143	2020
226	260	2151
227	714	1082
228	604	1550
229	0	1072
230	449	1223
231	792	2393
232	689	1459
233	1513	2416
234	150	1399
235	1110	2820
236	294	1015
237	839	2147
238	1258	2821
239	170	1326
240	547	1081
241	821	2286
242	7	1563
243	94	1443
244	109	1688
245	938	2409
246	1155	1689
247	1078	1362
248	398	2049
249	636	1936
250	1281	2098
251	0	1288
252	564	2021
253	1587	3000
254	368	1222
255	394	1865
256	1471	2713
257	1292	1680
258	511	2204
259	743	1975
260	1826	2631
261	1097	2885
262	0	414
263	1730	2241
264	1086	1641
265	1035	1654
266	501	1428
267	1953	2471
268	685	2547
269	1074	1900
270	1179	1762
271	1097	2367
272	835	2601
273	1118	2465
274	1357	1574
275	1444	2875
276	1830	2740
277	758	1365
278	1293	2126
279	1163	2349
280	1755	2151
281	1600	2850
282	898	1378
283	0	1094
284	0	1663
285	1836	2520
286	1691	1929
287	0	1847
288	1733	2160
289	345	1536
290	368	2081
291	1848	2224
292	0	1678
293	56	1603
294	928	1672
295	1049	2754
296	1532	2943
297	1261	2030
298	350	1764
299	2273	2548
300	1719	2151
301	1465	2215
302	0	1578
303	723	1095
304	570	781
305	134	818
306	583	1381
307	1046	3000
308	1092	1613
309	0	1187
310	1217	2499
311	1100	2372
312	883	1782
313	1117	2461
314	0	1179
315	654	1483
316	781	2178
317	746	2517
318	1738	2004
319	0	1547
320	1027	1436
321	1012	2189
322	55	1911
323	379	1511
324	1000	2219
325	310	2260
326	43	1990
327	318	1517
328	312	1491
329	512	1143
330	2176	2445
331	18	1899
332	533	824
333	825	1734
334	2035	2761
335	1257	1791
336	1793	2779
337	441	986
338	1434	2673
339	1336	1947
340	1062	2098
341	1019	2978
342	1662	2677
343	264	1477
344	753	2145
345	1007	1279
346	1681	2498
347	1190	1726
348	1584	1833
349	432	1473
350	613	2173
351	659	1336
352	958	2851
353	582	1519
354	228	1212
355	0	1324
356	1116	2911
357	128	1135
358	1667	2003
359	455	1324
360	1642	2334
361	1511	2573
362	1793	2436
363	566	1223
364	473	1635
365	829	1553
366	1359	2338
367	1092	1898
368	765	2718
369	108	1547
370	901	1342
371	1480	2178
372	1451	2696
373	905	2200
374	816	1721
375	0	1476
376	641	1288
377	2073	2746
378	1081	2609
379	1489	2948
380	775	1103
381	732	2447
382	505	945
383	839	1079
384	1210	1542
385	1303	2820
386	1917	2253
387	462	1786
388	72	1895
389	1555	3000
390	1632	2129
391	480	1403
392	646	1954
393	1021	2178
394	0	1198
395	97	1343
396	1931	2580
397	0	1649
398	1554	2376
399	315	2164
400	2	1199
401	1589	2530
402	1245	2191
403	638	1978
404	1460	3000
405	0	807
406	290	1637
407	1359	1709
408	1308	3000
409	603	889
410	1866	3000
411	1980	2726
412	0	1548
413	614	2046
414	158	1354
415	180	433
416	1262	2399
417	0	1326
418	494	1080
419	2122	2611
420	1748	2783
421	121	1526
422	1787	2581
423	1206	1635
424	209	2139
425	0	1346
426	1295	2937
427	1551	2882
428	462	2330
429	1558	2177
430	738	1128
431	1392	2612
432	2315	2850
433	121	1948
434	0	1644
435	462	1330
436	1133	2546
437	1741	2353
438	2004	2652
439	0	1380
440	1781	2870
441	71	716
442	402	981
443	1436	2468
444	276	860
445	0	1135
446	1144	2524
447	1058	1406
448	896	2317
449	557	2115
450	1358	1594
451	1368	2786
452	2058	2260
453	0	1147
454	763	2689
455	0	1381
456	1136	1374
457	1676	2462
458	882	2378
459	2251	2953
460	1503	1871
461	1098	2882
462	1446	2769
463	1601	2074
464	1399	2986
465	0	1389
466	844	1802
467	1255	2379
468	1293	2785
469	1360	2313
470	0	703
471	1169	2313
472	965	1215
473	1054	1901
474	238	2046
475	347	1250
476	1067	2736
477	1941	2753
478	460	2175
479	1418	1660
480	1187	2456
481	277	2016
482	1159	2682
483	1097	2230
484	2127	2798
485	270	1982
486	1233	1800
487	1210	2753
488	781	2022
489	1128	2796
490	1489	2822
491	190	1261
492	1213	2691
493	1017	2536
494	1269	2635
495	1383	2471
496	0	1915
497	1587	2859
498	1968	2575
499	338	1832
500	2	1361
501	741	2079
BACKHAUL_SECTION
2	6	16	21	33	41	43	44	45	48	49	50	67	76	77	88	90	105	106	107	112	116	118	119	122	130	132	133	134	145	156	157	169	170	180	186	188	192	195	197	198	207	212	213	214	216	219	222	231	234	236	237	243	245	254	259	261	264	268	269	277	291	295	298	302	303	311	325	329	332	338	346	347	350	351	356	370	379	389	391	398	406	408	411	412	417	421	422	427	432	433	459	477	482	484	485	486	492	498	500	-1
DEPOT_SECTION
1
-1
EOF
