NAME : n501-0004
COMMENT : "Generated by pyvrp_manuel (OVRPBTW)"
TYPE : OVRPBTW
DIMENSION : 501
EDGE_WEIGHT_TYPE : EUC_2D
CAPACITY : 100
VEHICLES : 500
OPEN_ROUTE : YES
SERVICE_TIME : 200
NODE_COORD_SECTION
1	50	544
2	983	21
3	371	206
4	755	325
5	540	582
6	923	177
7	657	592
8	113	640
9	2	50
10	619	992
11	740	956
12	161	256
13	785	189
14	918	388
15	789	86
16	457	828
17	656	315
18	76	325
19	961	425
20	999	527
21	843	613
22	757	303
23	128	670
24	289	516
25	82	746
26	425	47
27	484	728
28	674	316
29	75	31
30	712	360
31	606	271
32	185	779
33	843	110
34	681	157
35	639	280
36	589	390
37	312	345
38	376	590
39	778	518
40	835	656
41	334	188
42	776	800
43	159	499
44	346	621
45	844	986
46	985	556
47	454	670
48	480	741
49	149	316
50	864	315
51	815	502
52	254	218
53	789	91
54	402	733
55	596	242
56	637	220
57	980	707
58	58	884
59	162	414
60	353	27
61	964	890
62	336	489
63	690	670
64	497	297
65	867	927
66	613	712
67	768	536
68	211	416
69	914	35
70	896	25
71	217	810
72	413	712
73	852	276
74	758	665
75	625	263
76	238	602
77	507	973
78	509	417
79	164	138
80	107	337
81	500	256
82	426	386
83	603	395
84	30	660
85	712	428
86	361	993
87	738	504
88	354	440
89	667	152
90	583	260
91	90	95
92	457	866
93	710	802
94	56	994
95	738	722
96	281	143
97	939	392
98	250	775
99	130	887
100	419	487
101	773	478
102	528	268
103	417	649
104	289	95
105	953	759
106	651	650
107	965	34
108	617	861
109	585	305
110	295	35
111	155	460
112	668	732
113	507	345
114	298	549
115	69	9
116	543	760
117	652	572
118	639	343
119	838	376
120	104	12
121	391	807
122	79	958
123	167	716
124	606	292
125	673	962
126	215	446
127	361	734
128	58	739
129	724	294
130	45	353
131	692	327
132	708	84
133	990	697
134	591	951
135	163	347
136	211	221
137	957	999
138	781	829
139	301	112
140	403	170
141	999	354
142	233	213
143	884	226
144	225	191
145	183	957
146	876	308
147	815	123
148	248	454
149	654	653
150	326	427
151	209	663
152	97	463
153	107	336
154	126	377
155	760	182
156	830	258
157	656	743
158	239	821
159	937	182
160	795	88
161	83	731
162	775	130
163	574	498
164	263	60
165	919	506
166	651	38
167	83	653
168	709	9
169	453	973
170	517	679
171	330	682
172	627	337
173	699	857
174	805	374
175	479	470
176	686	607
177	744	875
178	638	628
179	484	455
180	286	935
181	19	742
182	945	365
183	612	94
184	660	808
185	100	400
186	520	253
187	362	180
188	915	394
189	553	883
190	682	484
191	229	649
192	185	584
193	328	365
194	873	758
195	529	379
196	404	55
197	200	740
198	94	711
199	488	848
200	420	534
201	132	889
202	406	944
203	904	562
204	785	435
205	980	193
206	64	604
207	525	741
208	311	934
209	136	46
210	623	332
211	807	61
212	650	218
213	235	648
214	22	363
215	706	118
216	871	279
217	935	872
218	291	953
219	528	700
220	83	396
221	531	814
222	768	861
223	688	808
224	432	757
225	352	381
226	895	953
227	493	37
228	368	694
229	448	547
230	419	508
231	992	113
232	505	891
233	92	311
234	762	440
235	208	35
236	877	389
237	359	711
238	370	59
239	989	472
240	536	802
241	363	736
242	936	83
243	307	114
244	432	74
245	641	334
246	263	333
247	132	974
248	426	458
249	686	802
250	779	798
251	26	758
252	998	285
253	260	52
254	886	548
255	129	269
256	511	614
257	843	375
258	746	398
259	496	828
260	214	983
261	186	456
262	300	909
263	889	922
264	366	424
265	217	996
266	590	742
267	77	519
268	736	698
269	181	502
270	788	98
271	941	784
272	252	283
273	576	748
274	57	566
275	328	276
276	648	613
277	507	712
278	523	228
279	386	785
280	628	622
281	565	951
282	278	348
283	439	441
284	99	786
285	108	713
286	150	370
287	358	742
288	4	800
289	778	845
290	65	870
291	838	768
292	872	113
293	190	908
294	567	331
295	501	84
296	893	428
297	663	603
298	124	746
299	219	483
300	192	701
301	474	946
302	277	482
303	981	29
304	107	425
305	547	210
306	608	478
307	958	340
308	82	775
309	887	991
310	102	13
311	700	487
312	511	154
313	823	979
314	281	113
315	359	484
316	197	842
317	276	821
318	919	803
319	448	739
320	447	178
321	119	548
322	703	585
323	208	975
324	460	693
325	756	461
326	153	142
327	991	299
328	643	408
329	499	47
330	594	710
331	63	810
332	648	706
333	830	517
334	958	754
335	619	226
336	671	809
337	859	172
338	911	472
339	508	15
340	338	706
341	930	288
342	991	867
343	139	519
344	513	907
345	330	22
346	345	105
347	787	725
348	356	108
349	99	762
350	503	411
351	916	535
352	361	276
353	28	701
354	507	207
355	11	355
356	290	275
357	121	290
358	512	496
359	434	71
360	371	909
361	205	208
362	81	759
363	577	230
364	795	93
365	705	315
366	909	75
367	47	353
368	604	19
369	417	459
370	536	344
371	292	263
372	68	777
373	688	434
374	422	104
375	761	667
376	506	875
377	467	151
378	315	104
379	706	162
380	992	920
381	191	985
382	171	372
383	175	338
384	712	49
385	143	654
386	993	993
387	667	494
388	602	180
389	219	846
390	856	190
391	774	989
392	1	356
393	745	523
394	410	333
395	904	575
396	419	167
397	783	687
398	179	569
399	743	982
400	803	722
401	223	6
402	102	999
403	981	96
404	279	236
405	311	372
406	887	535
407	931	708
408	656	322
409	811	272
410	725	879
411	740	948
412	392	378
413	732	628
414	691	128
415	446	126
416	377	176
417	77	66
418	961	754
419	809	166
420	410	442
421	413	690
422	645	167
423	706	357
424	276	187
425	319	422
426	414	826
427	901	287
428	693	113
429	666	673
430	733	35
431	834	304
432	807	196
433	778	393
434	263	194
435	54	857
436	860	344
437	998	800
438	172	865
439	41	746
440	69	382
441	310	757
442	140	22
443	618	258
444	553	828
445	223	307
446	514	202
447	526	903
448	474	121
449	232	265
450	863	456
451	736	476
452	643	457
453	349	207
454	614	130
455	221	126
456	341	290
457	110	57
458	616	982
459	429	425
460	338	329
461	829	359
462	195	187
463	809	461
464	948	301
465	213	213
466	362	673
467	37	641
468	884	2
469	649	392
470	321	811
471	859	143
472	24	246
473	798	299
474	460	498
475	293	3
476	291	456
477	156	363
478	700	839
479	593	929
480	21	960
481	89	805
482	634	806
483	764	161
484	995	396
485	520	464
486	211	453
487	731	554
488	998	414
489	947	266
490	241	688
491	612	973
492	630	325
493	750	571
494	428	849
495	197	936
496	748	694
497	421	825
498	625	130
499	55	330
500	717	341
501	657	201
DEMAND_SECTION
1	0
2	7
3	4
4	6
5	9
6	4
7	5
8	7
9	8
10	3
11	6
12	6
13	3
14	2
15	6
16	8
17	4
18	8
19	1
20	5
21	7
22	2
23	4
24	4
25	8
26	3
27	7
28	2
29	8
30	3
31	6
32	5
33	6
34	1
35	8
36	9
37	7
38	5
39	1
40	6
41	8
42	1
43	7
44	1
45	4
46	4
47	3
48	5
49	2
50	4
51	6
52	4
53	4
54	5
55	7
56	2
57	4
58	2
59	1
60	6
61	9
62	7
63	7
64	9
65	5
66	7
67	1
68	7
69	3
70	9
71	3
72	7
73	3
74	9
75	7
76	1
77	9
78	7
79	3
80	2
81	6
82	6
83	9
84	5
85	4
86	4
87	2
88	7
89	6
90	2
91	5
92	4
93	4
94	4
95	8
96	5
97	5
98	9
99	4
100	8
101	2
102	6
103	2
104	2
105	1
106	1
107	1
108	4
109	9
110	3
111	8
112	7
113	3
114	5
115	7
116	7
117	5
118	6
119	4
120	5
121	9
122	7
123	1
124	1
125	1
126	4
127	8
128	8
129	2
130	7
131	5
132	4
133	7
134	6
135	5
136	6
137	5
138	5
139	5
140	1
141	2
142	8
143	1
144	9
145	2
146	8
147	2
148	9
149	3
150	6
151	1
152	2
153	8
154	2
155	1
156	3
157	8
158	5
159	3
160	5
161	2
162	8
163	7
164	6
165	4
166	8
167	1
168	3
169	9
170	2
171	8
172	2
173	1
174	2
175	4
176	1
177	6
178	7
179	7
180	5
181	8
182	8
183	5
184	3
185	9
186	7
187	3
188	9
189	6
190	6
191	2
192	3
193	9
194	5
195	7
196	5
197	9
198	7
199	5
200	8
201	6
202	4
203	7
204	6
205	1
206	5
207	5
208	1
209	6
210	2
211	4
212	5
213	3
214	9
215	9
216	2
217	5
218	9
219	6
220	3
221	9
222	9
223	6
224	4
225	9
226	8
227	1
228	5
229	7
230	2
231	8
232	7
233	9
234	1
235	6
236	6
237	1
238	2
239	3
240	1
241	5
242	7
243	7
244	3
245	7
246	6
247	3
248	4
249	4
250	1
251	6
252	2
253	1
254	8
255	5
256	1
257	1
258	6
259	5
260	3
261	7
262	3
263	9
264	8
265	3
266	6
267	6
268	9
269	5
270	5
271	6
272	9
273	5
274	9
275	8
276	9
277	4
278	3
279	9
280	5
281	4
282	3
283	4
284	5
285	6
286	5
287	1
288	8
289	3
290	9
291	3
292	2
293	4
294	3
295	5
296	9
297	5
298	5
299	9
300	4
301	4
302	1
303	8
304	7
305	8
306	9
307	3
308	8
309	1
310	9
311	3
312	9
313	6
314	4
315	7
316	4
317	8
318	6
319	9
320	1
321	6
322	2
323	7
324	7
325	6
326	2
327	5
328	9
329	9
330	7
331	2
332	5
333	4
334	6
335	3
336	5
337	5
338	2
339	8
340	2
341	3
342	7
343	3
344	3
345	2
346	6
347	6
348	4
349	1
350	3
351	5
352	6
353	8
354	6
355	5
356	8
357	1
358	7
359	7
360	6
361	9
362	8
363	2
364	8
365	9
366	8
367	4
368	3
369	9
370	7
371	8
372	5
373	6
374	8
375	2
376	8
377	2
378	4
379	6
380	4
381	3
382	8
383	7
384	2
385	2
386	8
387	1
388	1
389	2
390	1
391	2
392	6
393	9
394	7
395	1
396	4
397	3
398	8
399	7
400	7
401	7
402	3
403	6
404	3
405	5
406	3
407	5
408	7
409	4
410	2
411	9
412	2
413	9
414	3
415	2
416	9
417	4
418	7
419	3
420	6
421	8
422	7
423	8
424	2
425	4
426	5
427	3
428	4
429	7
430	2
431	9
432	7
433	4
434	7
435	8
436	7
437	7
438	6
439	6
440	2
441	7
442	7
443	7
444	3
445	6
446	2
447	9
448	3
449	4
450	6
451	2
452	9
453	8
454	9
455	5
456	1
457	2
458	6
459	7
460	7
461	8
462	4
463	6
464	5
465	1
466	1
467	6
468	4
469	7
470	9
471	8
472	8
473	9
474	1
475	9
476	1
477	8
478	6
479	6
480	6
481	3
482	4
483	1
484	2
485	6
486	1
487	6
488	3
489	9
490	1
491	3
492	4
493	4
494	1
495	1
496	8
497	9
498	9
499	2
500	8
501	5
TIME_WINDOW_SECTION
1	0	3000
2	809	1556
3	310	2178
4	577	1140
5	1274	1532
6	511	1553
7	560	847
8	133	1893
9	646	856
10	1638	2119
11	810	1136
12	1705	2126
13	733	2063
14	732	1725
15	658	1803
16	0	1181
17	1377	1649
18	1457	2077
19	1139	2566
20	1482	1998
21	705	1699
22	922	2501
23	1906	3000
24	1181	1823
25	255	1024
26	1793	2254
27	1772	2387
28	1482	2226
29	997	1606
30	1908	2281
31	1119	2781
32	1548	3000
33	1127	2376
34	1244	1674
35	129	1641
36	957	2529
37	1286	2304
38	1521	2573
39	740	1886
40	1056	2488
41	1708	2759
42	0	1745
43	1230	1520
44	1689	2482
45	1496	1882
46	1021	1522
47	198	710
48	517	1910
49	0	1141
50	843	1282
51	983	2653
52	1907	2862
53	1397	2259
54	1660	2855
55	1334	2897
56	1614	2150
57	371	2128
58	87	1329
59	2060	2571
60	1983	2377
61	854	1220
62	1652	2097
63	458	2421
64	15	1941
65	1509	1952
66	0	1721
67	1323	1623
68	0	1737
69	300	1818
70	893	2222
71	182	2169
72	1497	2578
73	0	1772
74	573	1342
75	449	2342
76	500	2342
77	7	1534
78	679	2216
79	724	1392
80	582	2071
81	1339	2204
82	695	950
83	1034	2512
84	1205	1436
85	660	2101
86	48	1427
87	385	1322
88	385	653
89	1296	2438
90	1502	2175
91	1585	2433
92	0	1680
93	1147	1522
94	883	1092
95	1379	2456
96	81	1009
97	802	2328
98	2300	2675
99	673	2592
100	283	2097
101	1053	2098
102	1269	2920
103	246	812
104	675	2227
105	1328	1962
106	978	2583
107	1438	1952
108	731	2382
109	1150	1846
110	945	2470
111	0	1254
112	571	968
113	1158	2464
114	1347	2529
115	77	1934
116	1268	1558
117	1161	3000
118	133	1172
119	399	1371
120	1598	2430
121	1274	1532
122	1066	2871
123	1292	2793
124	530	1484
125	1332	1844
126	318	1180
127	1286	1957
128	275	1962
129	1587	2187
130	1114	1619
131	1156	2543
132	1019	1346
133	506	2038
134	1161	1705
135	1711	1938
136	0	1424
137	763	1739
138	594	2292
139	0	1695
140	777	1634
141	1033	2300
142	1389	3000
143	154	2068
144	1286	2065
145	2051	2442
146	1611	1839
147	917	1405
148	1793	2179
149	711	2295
150	1692	3000
151	2008	2919
152	1185	1594
153	1593	2356
154	1622	3000
155	348	1696
156	1530	2020
157	259	2129
158	16	1725
159	1304	2006
160	449	2109
161	2215	2424
162	556	2359
163	931	2648
164	781	2034
165	841	2207
166	906	2829
167	364	2084
168	859	2675
169	1364	2413
170	1221	1724
171	1313	2636
172	463	1340
173	254	1758
174	1005	2529
175	80	1201
176	553	1667
177	1109	2130
178	909	2174
179	1948	2702
180	1414	1704
181	896	1876
182	1573	1938
183	147	1573
184	674	2643
185	475	1090
186	526	1956
187	0	1786
188	0	1868
189	90	1519
190	1663	2345
191	0	1223
192	0	1042
193	0	1447
194	275	1808
195	1258	2800
196	41	1519
197	828	2581
198	0	1648
199	95	1056
200	386	2331
201	0	1051
202	732	2273
203	691	1710
204	1337	1630
205	1183	1548
206	460	2380
207	596	1760
208	0	1586
209	1592	2272
210	751	960
211	1131	2210
212	0	1389
213	1029	2679
214	1598	3000
215	1542	2063
216	1796	2035
217	1266	1523
218	887	1151
219	819	2550
220	0	1311
221	320	2143
222	860	2597
223	543	932
224	1583	2690
225	2010	2305
226	632	1521
227	1423	2413
228	0	1356
229	721	1035
230	549	753
231	647	2530
232	215	1805
233	266	946
234	126	1981
235	482	1996
236	973	2355
237	454	1237
238	915	2297
239	421	2241
240	1606	2320
241	256	2240
242	404	2163
243	1276	1499
244	757	2498
245	960	2524
246	1309	2925
247	1728	2792
248	1684	2125
249	825	1375
250	753	1263
251	1275	2823
252	202	1799
253	329	2242
254	824	1861
255	791	2281
256	373	1414
257	821	2568
258	1223	1589
259	915	2431
260	0	1395
261	1321	2539
262	547	1726
263	604	1957
264	1142	2749
265	1419	2809
266	375	1558
267	1363	3000
268	1004	2043
269	2241	2444
270	1233	2230
271	722	1353
272	1118	1938
273	1525	2658
274	0	1253
275	332	1987
276	879	2210
277	48	1429
278	115	1275
279	0	1809
280	675	2110
281	935	2893
282	1786	2130
283	873	2868
284	670	1220
285	1238	1999
286	129	493
287	870	1819
288	2114	2792
289	327	1364
290	1773	2554
291	584	1381
292	523	1735
293	319	849
294	1450	2055
295	1733	2372
296	440	1585
297	1570	2241
298	1973	2560
299	0	1104
300	1743	3000
301	507	1079
302	2259	2778
303	1436	1965
304	1528	2848
305	803	2301
306	1092	1344
307	434	1461
308	495	1668
309	977	2664
310	1140	1942
311	786	2077
312	540	2391
313	812	2112
314	0	1612
315	0	1465
316	603	1404
317	197	856
318	635	1660
319	0	1449
320	395	1671
321	97	1158
322	908	1514
323	1264	2581
324	522	2121
325	1522	2079
326	0	980
327	215	1887
328	562	1653
329	246	2147
330	1450	2494
331	1390	1696
332	1469	2129
333	1369	2264
334	1118	2601
335	991	2653
336	846	2393
337	718	2466
338	1188	1635
339	1736	2439
340	0	1327
341	216	1794
342	1597	1996
343	469	1657
344	615	1791
345	1126	1751
346	442	1658
347	1230	2124
348	1115	2998
349	1059	2547
350	1748	2480
351	814	1720
352	678	2416
353	560	987
354	656	1400
355	1959	2407
356	524	854
357	158	1055
358	1384	3000
359	1014	1625
360	789	2744
361	431	2032
362	1166	2253
363	864	1147
364	1283	2285
365	1141	1788
366	1270	1600
367	1204	2511
368	683	1108
369	1509	2443
370	991	1605
371	1357	3000
372	264	2098
373	1272	2330
374	650	1655
375	1750	2333
376	1475	2731
377	309	1565
378	34	1267
379	1135	1581
380	893	1868
381	1037	2645
382	1056	2713
383	1087	1557
384	646	2537
385	2305	2548
386	804	2082
387	1282	2375
388	238	1853
389	1530	3000
390	840	2694
391	1203	2611
392	653	978
393	641	1076
394	872	1454
395	1052	2188
396	1197	1579
397	719	1020
398	820	1510
399	237	2062
400	1531	2030
401	1287	3000
402	1419	2048
403	893	2130
404	23	1130
405	26	1730
406	810	2251
407	17	1881
408	213	1862
409	744	2092
410	1020	2449
411	1292	1628
412	1939	2866
413	1337	2307
414	739	955
415	298	2020
416	1771	2387
417	1047	2363
418	708	1166
419	711	2054
420	1169	1760
421	1943	2796
422	0	1678
423	531	1251
424	919	1546
425	1636	3000
426	1106	1518
427	972	2728
428	1524	1819
429	900	2739
430	873	1948
431	1238	1701
432	797	2310
433	1062	3000
434	1663	2306
435	579	2013
436	566	1757
437	1029	2321
438	1327	3000
439	320	2237
440	1649	2203
441	73	2038
442	1131	1619
443	467	1623
444	93	1085
445	752	1885
446	1295	2343
447	62	1912
448	1365	2839
449	1355	2932
450	1219	1691
451	140	1923
452	0	1778
453	807	2287
454	492	1271
455	345	713
456	1753	3000
457	186	1999
458	334	1572
459	343	1991
460	1371	3000
461	665	2337
462	1116	2177
463	324	2199
464	1444	1896
465	227	1202
466	273	668
467	2038	2693
468	1561	1882
469	81	1910
470	320	1323
471	1162	2300
472	405	1125
473	1073	2894
474	459	1971
475	1222	1534
476	0	1569
477	1033	2990
478	469	1323
479	1188	2842
480	0	900
481	592	1170
482	513	828
483	860	2619
484	1252	1570
485	1738	2472
486	1637	2672
487	845	1068
488	1463	2020
489	889	1682
490	360	727
491	860	1911
492	854	2141
493	888	1740
494	808	1763
495	691	2208
496	728	2307
497	1206	1524
498	1261	2581
499	1836	2169
500	0	1512
501	811	1928
BACKHAUL_SECTION
3	12	14	17	22	25	28	41	42	43	60	68	72	81	86	88	91	95	97	100	109	117	118	120	121	125	130	142	143	145	149	153	158	162	167	171	181	187	190	194	196	197	199	215	217	225	226	228	230	236	239	244	260	264	267	270	272	275	279	282	284	287	288	304	311	316	317	325	338	342	357	366	368	374	376	383	394	395	396	398	399	402	410	412	425	426	429	439	443	448	449	457	460	473	475	477	485	491	496	499	-1
DEPOT_SECTION
1
-1
EOF
