NAME : n501-0002
COMMENT : "Generated by pyvrp_manuel (OVRPBTW)"
TYPE : OVRPBTW
DIMENSION : 501
EDGE_WEIGHT_TYPE : EUC_2D
CAPACITY : 100
VEHICLES : 500
OPEN_ROUTE : YES
SERVICE_TIME : 200
NODE_COORD_SECTION
1	268	204
2	503	408
3	821	234
4	191	111
5	522	150
6	579	139
7	475	23
8	397	195
9	917	296
10	116	374
11	171	323
12	296	320
13	612	359
14	139	981
15	974	885
16	455	3
17	361	603
18	433	218
19	159	722
20	950	812
21	915	602
22	792	605
23	16	768
24	28	289
25	446	960
26	517	750
27	512	906
28	858	665
29	758	114
30	73	75
31	769	624
32	370	508
33	284	549
34	353	830
35	984	973
36	112	745
37	632	791
38	254	504
39	983	79
40	133	562
41	20	104
42	597	612
43	739	127
44	580	994
45	868	795
46	142	501
47	24	225
48	401	135
49	853	753
50	204	119
51	861	20
52	490	594
53	210	47
54	335	572
55	548	23
56	487	377
57	598	998
58	583	24
59	973	268
60	549	302
61	18	495
62	455	653
63	361	22
64	560	168
65	296	387
66	507	694
67	287	868
68	857	721
69	175	767
70	875	424
71	191	498
72	339	317
73	904	820
74	798	987
75	55	832
76	771	4
77	718	881
78	633	588
79	502	782
80	899	840
81	836	490
82	259	760
83	99	270
84	110	187
85	612	54
86	627	331
87	803	967
88	207	978
89	59	919
90	806	429
91	506	47
92	972	507
93	790	147
94	402	609
95	608	579
96	186	376
97	345	261
98	62	375
99	666	746
100	915	494
101	642	211
102	463	557
103	385	574
104	767	253
105	164	420
106	900	133
107	795	748
108	207	482
109	584	623
110	624	384
111	132	805
112	909	16
113	830	507
114	919	516
115	86	587
116	852	23
117	593	759
118	225	547
119	456	260
120	824	5
121	224	641
122	127	121
123	822	416
124	128	904
125	541	99
126	409	509
127	784	445
128	919	798
129	983	939
130	657	494
131	401	106
132	915	842
133	12	520
134	424	646
135	936	606
136	679	965
137	877	363
138	20	262
139	993	754
140	336	741
141	509	510
142	156	1
143	1000	989
144	56	295
145	289	701
146	23	89
147	535	75
148	92	262
149	903	992
150	170	454
151	226	886
152	225	310
153	567	766
154	496	520
155	917	343
156	467	852
157	575	29
158	122	481
159	155	121
160	874	108
161	867	553
162	995	200
163	413	625
164	550	56
165	299	781
166	361	313
167	626	748
168	962	126
169	194	391
170	514	173
171	1	803
172	338	937
173	415	227
174	857	408
175	886	263
176	762	539
177	694	52
178	687	372
179	26	399
180	595	813
181	653	106
182	573	292
183	118	872
184	178	803
185	664	277
186	480	649
187	69	346
188	687	606
189	906	910
190	859	930
191	616	200
192	314	892
193	826	897
194	890	802
195	518	100
196	380	502
197	362	26
198	86	826
199	572	477
200	970	942
201	457	310
202	97	445
203	481	11
204	748	493
205	337	213
206	927	621
207	523	350
208	834	231
209	356	688
210	638	530
211	999	544
212	96	300
213	798	86
214	407	999
215	987	542
216	552	264
217	385	115
218	539	449
219	112	873
220	227	556
221	798	410
222	466	554
223	276	238
224	795	902
225	831	591
226	277	825
227	25	238
228	742	233
229	50	12
230	576	566
231	9	744
232	490	126
233	821	919
234	987	110
235	706	825
236	521	274
237	557	502
238	733	559
239	762	507
240	113	45
241	848	288
242	63	882
243	793	142
244	648	331
245	936	451
246	489	485
247	459	430
248	807	709
249	497	429
250	712	655
251	524	469
252	563	551
253	180	272
254	711	914
255	995	740
256	614	637
257	177	161
258	370	397
259	500	666
260	480	382
261	568	743
262	495	522
263	473	818
264	171	654
265	352	214
266	945	706
267	172	988
268	883	914
269	773	674
270	909	730
271	125	734
272	197	215
273	560	319
274	659	497
275	480	816
276	842	517
277	866	639
278	441	283
279	900	338
280	975	213
281	383	300
282	587	862
283	191	207
284	442	449
285	995	153
286	438	982
287	975	336
288	47	55
289	986	397
290	313	566
291	172	235
292	55	226
293	66	763
294	704	898
295	980	330
296	897	232
297	985	538
298	319	559
299	821	565
300	283	102
301	996	350
302	680	287
303	143	998
304	956	975
305	171	255
306	14	977
307	822	33
308	478	284
309	838	171
310	493	234
311	956	13
312	433	63
313	566	616
314	982	915
315	42	335
316	802	696
317	82	550
318	978	342
319	88	841
320	344	728
321	675	287
322	421	988
323	10	743
324	938	934
325	353	603
326	187	301
327	176	857
328	165	99
329	381	602
330	241	143
331	696	512
332	550	996
333	869	982
334	241	435
335	526	590
336	45	194
337	290	939
338	180	611
339	730	298
340	656	889
341	196	21
342	929	536
343	809	132
344	26	502
345	697	300
346	199	591
347	918	60
348	464	361
349	294	770
350	10	768
351	179	728
352	729	241
353	364	660
354	456	543
355	420	404
356	56	304
357	743	152
358	478	458
359	373	1
360	571	882
361	680	822
362	927	838
363	512	899
364	321	522
365	600	519
366	294	522
367	491	449
368	804	380
369	853	2
370	15	968
371	241	630
372	134	701
373	966	389
374	5	787
375	891	177
376	578	832
377	423	576
378	300	678
379	565	338
380	114	25
381	625	348
382	959	19
383	20	97
384	572	724
385	501	676
386	241	966
387	647	370
388	538	912
389	714	979
390	311	817
391	3	300
392	153	64
393	863	896
394	150	178
395	572	959
396	533	787
397	3	669
398	712	982
399	323	11
400	398	801
401	711	103
402	851	632
403	997	561
404	321	736
405	119	952
406	820	598
407	11	890
408	167	817
409	282	122
410	5	259
411	548	655
412	674	971
413	890	376
414	519	238
415	398	271
416	789	737
417	682	19
418	829	569
419	924	636
420	319	901
421	838	764
422	635	413
423	189	573
424	902	981
425	364	345
426	626	621
427	422	529
428	351	235
429	905	636
430	411	841
431	529	48
432	129	836
433	487	655
434	352	647
435	531	206
436	218	752
437	520	48
438	179	424
439	126	427
440	990	995
441	555	130
442	101	728
443	68	109
444	607	189
445	280	832
446	203	613
447	234	639
448	249	791
449	80	842
450	247	700
451	73	323
452	11	803
453	748	357
454	984	979
455	924	218
456	502	937
457	865	345
458	801	114
459	820	163
460	237	886
461	761	958
462	315	461
463	667	140
464	397	372
465	107	789
466	642	935
467	828	352
468	512	881
469	194	624
470	141	854
471	226	450
472	760	167
473	410	696
474	132	358
475	680	270
476	693	885
477	419	994
478	690	165
479	208	503
480	179	992
481	85	996
482	758	967
483	298	590
484	901	209
485	974	705
486	457	650
487	976	42
488	935	229
489	564	894
490	90	791
491	424	487
492	524	214
493	588	16
494	442	369
495	453	559
496	651	983
497	374	77
498	583	684
499	577	892
500	125	671
501	427	319
DEMAND_SECTION
1	0
2	1
3	5
4	5
5	6
6	6
7	7
8	4
9	1
10	4
11	1
12	7
13	4
14	4
15	2
16	9
17	3
18	2
19	5
20	7
21	3
22	2
23	9
24	6
25	6
26	8
27	4
28	3
29	6
30	6
31	9
32	7
33	8
34	5
35	1
36	5
37	3
38	9
39	3
40	8
41	1
42	3
43	9
44	7
45	5
46	4
47	3
48	2
49	6
50	5
51	4
52	8
53	3
54	4
55	3
56	6
57	2
58	4
59	6
60	7
61	7
62	4
63	3
64	6
65	8
66	5
67	8
68	8
69	9
70	4
71	5
72	9
73	8
74	7
75	4
76	7
77	2
78	2
79	7
80	5
81	5
82	5
83	5
84	6
85	6
86	8
87	5
88	2
89	3
90	3
91	5
92	7
93	1
94	8
95	2
96	8
97	7
98	7
99	5
100	7
101	5
102	6
103	7
104	4
105	1
106	3
107	2
108	4
109	5
110	8
111	9
112	8
113	2
114	6
115	1
116	4
117	5
118	7
119	3
120	9
121	7
122	6
123	4
124	3
125	3
126	7
127	4
128	1
129	7
130	7
131	6
132	9
133	8
134	6
135	6
136	9
137	3
138	4
139	7
140	2
141	5
142	4
143	6
144	7
145	4
146	6
147	6
148	8
149	6
150	5
151	3
152	2
153	4
154	7
155	7
156	1
157	2
158	7
159	3
160	6
161	9
162	9
163	6
164	3
165	5
166	6
167	6
168	9
169	2
170	3
171	1
172	9
173	5
174	6
175	8
176	3
177	3
178	7
179	1
180	8
181	7
182	5
183	9
184	1
185	8
186	3
187	6
188	9
189	6
190	8
191	7
192	3
193	7
194	3
195	7
196	2
197	7
198	4
199	2
200	1
201	1
202	4
203	2
204	4
205	6
206	9
207	2
208	6
209	3
210	5
211	8
212	3
213	1
214	9
215	5
216	4
217	8
218	6
219	9
220	6
221	4
222	2
223	4
224	5
225	5
226	5
227	6
228	9
229	1
230	4
231	2
232	2
233	1
234	6
235	2
236	1
237	7
238	3
239	1
240	7
241	3
242	3
243	8
244	4
245	6
246	9
247	9
248	4
249	4
250	6
251	8
252	4
253	7
254	7
255	3
256	7
257	5
258	5
259	6
260	1
261	5
262	4
263	2
264	8
265	6
266	1
267	4
268	9
269	7
270	8
271	3
272	8
273	5
274	6
275	6
276	3
277	1
278	4
279	3
280	3
281	1
282	5
283	6
284	5
285	9
286	1
287	7
288	2
289	8
290	8
291	3
292	7
293	5
294	2
295	4
296	8
297	3
298	3
299	2
300	8
301	3
302	7
303	2
304	3
305	3
306	6
307	7
308	9
309	9
310	2
311	6
312	6
313	8
314	1
315	2
316	3
317	9
318	5
319	4
320	5
321	2
322	9
323	1
324	1
325	7
326	1
327	7
328	5
329	2
330	8
331	6
332	4
333	6
334	8
335	3
336	3
337	6
338	2
339	2
340	2
341	1
342	5
343	6
344	2
345	6
346	5
347	1
348	3
349	5
350	5
351	7
352	9
353	9
354	5
355	8
356	2
357	5
358	4
359	3
360	1
361	5
362	3
363	1
364	2
365	9
366	2
367	6
368	8
369	8
370	7
371	5
372	1
373	4
374	3
375	4
376	6
377	7
378	3
379	2
380	3
381	9
382	7
383	5
384	3
385	8
386	5
387	9
388	5
389	9
390	8
391	8
392	3
393	6
394	1
395	9
396	6
397	2
398	5
399	1
400	3
401	1
402	7
403	7
404	1
405	1
406	1
407	7
408	5
409	5
410	8
411	4
412	3
413	7
414	4
415	6
416	2
417	5
418	2
419	6
420	5
421	9
422	3
423	5
424	7
425	4
426	8
427	2
428	8
429	6
430	7
431	1
432	5
433	7
434	2
435	8
436	6
437	1
438	9
439	4
440	8
441	3
442	7
443	7
444	6
445	3
446	3
447	6
448	6
449	1
450	3
451	2
452	7
453	7
454	3
455	6
456	6
457	1
458	9
459	2
460	4
461	1
462	2
463	2
464	3
465	4
466	8
467	8
468	2
469	6
470	5
471	1
472	3
473	1
474	9
475	9
476	3
477	7
478	1
479	8
480	7
481	2
482	5
483	3
484	9
485	1
486	9
487	8
488	1
489	5
490	4
491	4
492	9
493	6
494	3
495	1
496	8
497	7
498	7
499	1
500	9
501	4
TIME_WINDOW_SECTION
1	0	3000
2	1249	1914
3	714	1985
4	968	1787
5	1291	2964
6	234	1732
7	1827	2716
8	1128	2746
9	503	1469
10	36	1730
11	886	1410
12	699	1456
13	0	1619
14	53	1523
15	453	1642
16	186	430
17	312	2100
18	149	1688
19	141	1864
20	334	1667
21	1056	2085
22	1459	2500
23	711	2304
24	913	1154
25	219	1602
26	1824	2505
27	505	1526
28	800	1951
29	1170	2767
30	311	636
31	1438	2019
32	1552	3000
33	1074	2634
34	1600	2701
35	1117	2072
36	1493	2847
37	1734	2003
38	364	2040
39	1000	1791
40	884	1393
41	0	1771
42	489	1060
43	1201	3000
44	1551	1826
45	887	1388
46	917	2659
47	442	687
48	0	1281
49	217	2047
50	440	686
51	632	2315
52	0	1483
53	2171	2800
54	611	2540
55	1371	2579
56	710	2632
57	1209	1522
58	1926	2559
59	68	1646
60	1423	1826
61	408	861
62	4	1205
63	270	816
64	0	1720
65	1148	2689
66	0	1309
67	872	1663
68	438	1774
69	0	1789
70	837	2180
71	371	899
72	2	637
73	782	1823
74	365	1915
75	1450	2266
76	970	1326
77	542	1888
78	1383	2102
79	1034	2374
80	353	1635
81	1016	1670
82	266	1561
83	144	956
84	143	760
85	685	2311
86	1017	2815
87	971	1176
88	180	2106
89	675	1980
90	1172	2651
91	0	1426
92	1171	2199
93	1653	2221
94	1651	2789
95	838	1054
96	1333	1706
97	259	2156
98	1255	2706
99	1555	2533
100	1074	1963
101	1536	2243
102	648	1742
103	53	727
104	297	1741
105	768	2067
106	1134	2746
107	565	1127
108	1508	3000
109	620	2445
110	393	2285
111	1129	2224
112	520	1265
113	564	779
114	1075	2357
115	1327	3000
116	1250	2486
117	560	2194
118	270	738
119	1305	1836
120	417	1062
121	91	1620
122	2162	2699
123	0	1323
124	202	1815
125	1357	3000
126	15	1143
127	262	1660
128	334	1761
129	1075	2088
130	1727	1963
131	1319	2138
132	1165	1510
133	1644	2760
134	1590	2226
135	819	1906
136	13	1777
137	828	1598
138	2163	2466
139	967	2431
140	312	1463
141	1755	2201
142	0	1252
143	994	1756
144	0	899
145	1351	1976
146	0	1244
147	1711	3000
148	444	2192
149	803	2455
150	1391	2662
151	1020	2078
152	0	1134
153	840	2005
154	915	2161
155	1209	2705
156	758	2309
157	1074	2920
158	215	1517
159	569	2254
160	669	2404
161	1398	1885
162	933	1603
163	582	2398
164	2071	2633
165	835	1842
166	1786	2797
167	869	1796
168	597	1070
169	897	2011
170	2165	2520
171	1271	2832
172	1632	2458
173	2028	2872
174	1270	2523
175	753	1009
176	483	752
177	372	890
178	1393	2018
179	2000	2836
180	1139	1653
181	990	2212
182	1331	2925
183	1300	2043
184	804	2106
185	1472	1735
186	1703	2750
187	1228	2666
188	0	1555
189	358	1952
190	102	1805
191	0	1442
192	913	2832
193	908	1402
194	1420	1936
195	114	1251
196	1656	2916
197	1452	2431
198	855	1573
199	0	1797
200	1030	1480
201	1235	3000
202	0	1195
203	532	1624
204	419	1649
205	1324	3000
206	902	2871
207	61	1358
208	1616	1995
209	641	1996
210	921	2539
211	348	2106
212	1398	1684
213	1298	3000
214	498	1211
215	921	1710
216	1886	3000
217	2039	2482
218	2116	2388
219	616	1712
220	1688	2626
221	1777	2542
222	1525	2020
223	553	772
224	938	1771
225	916	1253
226	1070	2087
227	1393	2785
228	1435	3000
229	0	1454
230	740	2051
231	923	2601
232	1578	2187
233	843	1540
234	1062	1953
235	1286	2792
236	894	1559
237	340	914
238	45	1159
239	734	1751
240	1520	2398
241	0	1479
242	585	2043
243	657	888
244	259	864
245	1226	2872
246	839	2107
247	105	1968
248	1604	2277
249	698	1608
250	941	1501
251	1681	2852
252	847	1101
253	140	2003
254	175	2145
255	630	1965
256	763	1465
257	209	1344
258	0	1119
259	928	2061
260	293	1907
261	1560	2233
262	1513	2084
263	248	1920
264	1235	1521
265	1271	2666
266	312	1780
267	720	2716
268	375	2262
269	641	1395
270	1029	1937
271	231	1586
272	0	1585
273	1102	2228
274	1598	3000
275	448	1831
276	499	2239
277	667	1342
278	0	1585
279	31	1674
280	1030	2492
281	0	1213
282	1283	2550
283	2197	2996
284	794	2758
285	369	1303
286	736	2276
287	0	1867
288	106	796
289	984	2785
290	0	1004
291	0	1410
292	1875	2154
293	1110	2239
294	766	1045
295	832	2722
296	1050	2269
297	1322	2585
298	48	1790
299	1032	1302
300	534	1683
301	1137	2706
302	0	1436
303	1195	1453
304	1391	1686
305	209	463
306	1093	2392
307	617	926
308	0	540
309	1169	1493
310	0	1560
311	145	1479
312	370	1358
313	1271	3000
314	823	2562
315	214	2085
316	1497	2044
317	1107	1581
318	570	2285
319	932	1214
320	1280	2950
321	1139	2991
322	1223	1830
323	842	1768
324	331	2233
325	1141	2646
326	1039	2010
327	213	1626
328	172	1179
329	763	1074
330	1380	2710
331	1302	1926
332	647	2054
333	1090	1915
334	833	1752
335	824	2308
336	2030	2943
337	296	1407
338	311	2302
339	1318	2445
340	1766	2195
341	245	1835
342	436	1411
343	1091	2051
344	1318	2873
345	1951	2269
346	545	1673
347	841	2408
348	1163	3000
349	184	1809
350	0	1450
351	367	1385
352	0	1190
353	793	2730
354	1407	2163
355	285	1538
356	17	1434
357	292	901
358	0	902
359	1233	1679
360	239	1521
361	71	1664
362	1180	1856
363	946	1748
364	354	2146
365	1132	1648
366	1563	2118
367	395	1604
368	1094	2011
369	1549	2581
370	89	1688
371	194	935
372	455	1603
373	1206	2293
374	510	1145
375	50	2035
376	412	1981
377	375	1304
378	1307	2118
379	815	2427
380	1388	1827
381	0	1740
382	579	1207
383	2230	2674
384	1767	2299
385	466	1049
386	704	1690
387	885	1843
388	1103	1457
389	1624	1882
390	824	2712
391	536	2101
392	1332	1810
393	1300	2377
394	0	1243
395	1816	2016
396	1395	2815
397	343	877
398	1177	2428
399	1704	3000
400	1099	2278
401	1720	2828
402	1004	1940
403	739	1366
404	317	1083
405	345	1522
406	550	827
407	1250	1968
408	1309	2400
409	431	1839
410	0	1479
411	1723	2046
412	1049	1639
413	1562	2068
414	0	1262
415	1192	1862
416	1123	2786
417	0	1109
418	71	1435
419	1238	1515
420	0	1664
421	1666	2245
422	446	1619
423	0	1339
424	743	1676
425	0	1563
426	227	2110
427	1547	2753
428	1328	3000
429	0	1829
430	1433	2533
431	1102	1604
432	905	1374
433	1315	2724
434	395	872
435	571	2155
436	1349	2712
437	979	1932
438	1271	2909
439	522	954
440	510	1942
441	1960	2871
442	1496	2955
443	0	594
444	1231	1856
445	93	1288
446	1378	2581
447	746	1027
448	1048	1609
449	1632	2054
450	270	796
451	1148	2117
452	1086	2165
453	765	1907
454	995	2012
455	1496	1807
456	492	2166
457	1240	2153
458	451	1786
459	1023	1748
460	670	1038
461	372	1928
462	96	1998
463	1553	2761
464	508	2258
465	760	2703
466	838	1074
467	619	2076
468	835	1161
469	542	1887
470	858	1531
471	528	1355
472	615	1637
473	510	2460
474	1179	2409
475	648	1075
476	670	1238
477	10	1838
478	904	2200
479	375	1200
480	249	2231
481	788	2657
482	952	1641
483	507	1093
484	0	1467
485	400	1703
486	829	1770
487	948	1582
488	283	2102
489	608	2112
490	1113	2208
491	773	1723
492	1650	2524
493	1738	2304
494	571	1833
495	0	1216
496	921	1842
497	620	1162
498	70	1302
499	1043	1243
500	422	2158
501	0	845
BACKHAUL_SECTION
3	12	14	17	22	25	28	41	42	43	60	68	72	81	86	88	91	95	97	100	109	117	118	120	121	125	130	142	143	145	149	153	158	162	167	171	181	187	190	194	196	197	199	215	217	225	226	228	230	236	239	244	260	264	267	270	272	275	279	282	284	287	288	304	311	316	317	325	338	342	357	366	368	374	376	383	394	395	396	398	399	402	410	412	425	426	429	439	443	448	449	457	460	473	475	477	485	491	496	499	-1
DEPOT_SECTION
1
-1
EOF
