NAME : n501-0039
COMMENT : "Generated by pyvrp_manuel (OVRPBTW)"
TYPE : OVRPBTW
DIMENSION : 501
EDGE_WEIGHT_TYPE : EUC_2D
CAPACITY : 100
VEHICLES : 500
OPEN_ROUTE : YES
SERVICE_TIME : 200
NODE_COORD_SECTION
1	132	778
2	660	723
3	671	47
4	913	202
5	140	89
6	125	833
7	403	270
8	162	298
9	172	473
10	117	443
11	440	939
12	720	845
13	151	606
14	387	310
15	629	994
16	434	273
17	891	70
18	394	588
19	64	600
20	826	950
21	932	597
22	77	936
23	359	301
24	107	553
25	885	193
26	834	285
27	901	565
28	89	369
29	970	325
30	495	784
31	719	109
32	57	455
33	143	543
34	370	423
35	388	437
36	231	340
37	434	983
38	523	793
39	559	391
40	880	748
41	52	43
42	108	807
43	609	182
44	292	633
45	392	250
46	55	154
47	869	820
48	31	894
49	734	731
50	846	886
51	203	623
52	409	769
53	57	448
54	7	771
55	507	483
56	39	779
57	383	640
58	136	911
59	946	851
60	28	264
61	767	43
62	464	310
63	453	310
64	97	198
65	824	899
66	97	991
67	961	117
68	506	4
69	946	85
70	683	334
71	879	315
72	978	25
73	660	697
74	387	349
75	202	702
76	873	69
77	379	466
78	748	329
79	350	189
80	529	55
81	358	336
82	173	41
83	785	154
84	660	183
85	913	534
86	307	109
87	858	159
88	986	134
89	164	265
90	800	89
91	259	186
92	890	915
93	587	712
94	773	796
95	467	768
96	339	638
97	479	25
98	338	702
99	195	852
100	94	241
101	522	104
102	905	56
103	632	584
104	560	866
105	688	414
106	521	435
107	918	898
108	661	409
109	925	767
110	941	517
111	553	53
112	302	926
113	440	838
114	997	859
115	535	506
116	919	561
117	799	344
118	288	257
119	643	534
120	459	154
121	457	788
122	509	345
123	388	506
124	291	267
125	504	542
126	253	572
127	71	464
128	8	205
129	256	448
130	381	451
131	146	466
132	504	17
133	339	796
134	901	486
135	934	709
136	594	274
137	983	836
138	95	505
139	855	390
140	50	666
141	585	548
142	880	848
143	361	546
144	858	125
145	364	143
146	525	529
147	490	830
148	847	748
149	188	663
150	397	161
151	299	11
152	68	605
153	263	50
154	375	744
155	761	183
156	669	911
157	78	589
158	361	453
159	624	266
160	949	843
161	495	26
162	680	738
163	130	699
164	426	54
165	382	906
166	450	80
167	161	733
168	137	760
169	109	694
170	93	958
171	844	853
172	711	801
173	741	944
174	505	438
175	329	668
176	950	821
177	663	342
178	0	850
179	467	913
180	632	591
181	641	139
182	283	744
183	971	51
184	750	862
185	308	502
186	987	974
187	527	365
188	493	27
189	925	417
190	238	877
191	352	570
192	927	208
193	705	233
194	958	972
195	937	218
196	959	980
197	127	239
198	463	745
199	144	951
200	716	817
201	12	455
202	480	468
203	857	349
204	434	413
205	521	863
206	229	563
207	80	475
208	515	112
209	548	485
210	104	207
211	492	153
212	23	497
213	278	344
214	381	145
215	409	735
216	769	940
217	893	437
218	707	651
219	892	209
220	310	441
221	897	463
222	567	588
223	389	616
224	136	174
225	288	273
226	994	734
227	257	998
228	795	749
229	993	6
230	932	577
231	637	968
232	984	107
233	333	83
234	154	538
235	264	420
236	904	785
237	218	447
238	124	223
239	714	5
240	687	213
241	827	849
242	328	433
243	668	517
244	982	28
245	665	699
246	658	928
247	951	454
248	922	197
249	146	981
250	145	711
251	910	285
252	383	185
253	656	917
254	645	577
255	68	354
256	111	899
257	526	321
258	692	7
259	330	935
260	922	386
261	795	369
262	634	297
263	473	801
264	603	633
265	353	910
266	52	684
267	277	248
268	121	482
269	351	503
270	7	638
271	374	506
272	426	183
273	89	358
274	679	653
275	646	820
276	362	979
277	630	394
278	631	52
279	927	643
280	796	153
281	859	970
282	503	653
283	834	248
284	890	154
285	981	958
286	130	942
287	55	428
288	187	195
289	20	592
290	310	708
291	249	572
292	984	368
293	814	308
294	465	607
295	372	748
296	796	505
297	66	219
298	658	886
299	201	83
300	613	837
301	951	880
302	365	807
303	226	813
304	31	937
305	680	720
306	579	941
307	192	671
308	984	392
309	91	335
310	845	172
311	861	258
312	655	221
313	725	326
314	504	849
315	81	119
316	877	2
317	388	459
318	764	69
319	882	556
320	386	137
321	758	165
322	550	947
323	344	523
324	199	132
325	341	926
326	937	534
327	887	54
328	488	825
329	235	948
330	190	200
331	414	623
332	903	925
333	873	133
334	231	971
335	634	675
336	401	182
337	933	654
338	568	826
339	805	810
340	401	325
341	681	1
342	516	817
343	934	164
344	173	512
345	651	694
346	106	767
347	965	64
348	342	779
349	426	126
350	893	304
351	784	690
352	774	155
353	578	804
354	473	773
355	39	263
356	810	92
357	370	343
358	935	750
359	676	252
360	725	650
361	204	246
362	354	925
363	765	35
364	193	538
365	521	443
366	769	447
367	934	206
368	715	922
369	905	205
370	655	350
371	787	798
372	198	204
373	280	267
374	432	759
375	326	348
376	144	855
377	434	40
378	990	207
379	61	978
380	676	506
381	322	383
382	98	647
383	432	657
384	202	878
385	30	699
386	176	971
387	305	91
388	282	727
389	938	557
390	593	82
391	209	103
392	577	808
393	299	720
394	442	860
395	440	839
396	904	282
397	706	667
398	525	320
399	584	582
400	826	75
401	549	873
402	692	653
403	307	763
404	792	822
405	126	403
406	616	244
407	581	241
408	299	276
409	677	837
410	978	431
411	694	650
412	348	526
413	888	280
414	825	393
415	771	350
416	411	218
417	8	145
418	698	798
419	569	163
420	572	826
421	665	351
422	596	961
423	700	888
424	352	525
425	620	844
426	631	428
427	218	656
428	883	235
429	42	953
430	973	685
431	560	938
432	561	675
433	389	114
434	718	27
435	65	393
436	948	949
437	900	359
438	91	465
439	31	21
440	567	223
441	775	827
442	326	245
443	775	110
444	161	862
445	584	17
446	54	13
447	7	630
448	223	711
449	424	180
450	727	62
451	668	560
452	808	62
453	592	289
454	872	869
455	774	558
456	316	998
457	833	187
458	567	379
459	71	167
460	69	359
461	421	612
462	156	629
463	50	538
464	6	891
465	215	623
466	191	951
467	791	892
468	481	223
469	289	891
470	302	534
471	596	316
472	43	250
473	341	284
474	212	206
475	357	948
476	923	610
477	41	46
478	233	887
479	308	124
480	159	189
481	462	807
482	66	854
483	915	167
484	111	96
485	89	889
486	718	796
487	497	649
488	584	983
489	110	488
490	685	167
491	658	748
492	215	618
493	770	851
494	738	777
495	925	642
496	354	900
497	878	481
498	355	792
499	721	651
500	532	788
501	61	832
DEMAND_SECTION
1	0
2	9
3	1
4	8
5	5
6	2
7	8
8	2
9	9
10	3
11	8
12	9
13	9
14	7
15	5
16	8
17	4
18	4
19	4
20	4
21	4
22	9
23	2
24	3
25	9
26	1
27	6
28	8
29	3
30	8
31	8
32	3
33	5
34	3
35	7
36	2
37	4
38	4
39	4
40	2
41	6
42	8
43	7
44	6
45	6
46	9
47	4
48	3
49	3
50	7
51	3
52	4
53	4
54	9
55	5
56	6
57	2
58	3
59	8
60	8
61	6
62	2
63	4
64	2
65	2
66	6
67	2
68	4
69	2
70	3
71	3
72	4
73	3
74	4
75	3
76	8
77	2
78	5
79	3
80	7
81	4
82	4
83	1
84	6
85	6
86	6
87	5
88	7
89	2
90	8
91	2
92	2
93	3
94	8
95	3
96	3
97	9
98	4
99	7
100	9
101	7
102	3
103	5
104	4
105	3
106	1
107	5
108	2
109	2
110	3
111	2
112	9
113	8
114	9
115	4
116	1
117	1
118	8
119	3
120	6
121	9
122	6
123	9
124	2
125	9
126	6
127	4
128	9
129	9
130	9
131	6
132	5
133	6
134	9
135	2
136	5
137	6
138	6
139	4
140	9
141	1
142	6
143	8
144	3
145	8
146	9
147	7
148	5
149	2
150	4
151	3
152	4
153	3
154	2
155	2
156	7
157	2
158	5
159	6
160	3
161	7
162	3
163	8
164	1
165	7
166	2
167	4
168	2
169	6
170	2
171	6
172	4
173	9
174	6
175	8
176	4
177	3
178	7
179	6
180	2
181	1
182	6
183	9
184	8
185	1
186	7
187	1
188	9
189	7
190	6
191	1
192	9
193	3
194	4
195	9
196	3
197	1
198	5
199	4
200	3
201	1
202	9
203	9
204	6
205	2
206	2
207	9
208	6
209	8
210	9
211	6
212	2
213	7
214	1
215	8
216	7
217	5
218	5
219	6
220	1
221	7
222	9
223	9
224	1
225	7
226	2
227	2
228	9
229	6
230	2
231	9
232	5
233	5
234	6
235	7
236	9
237	8
238	7
239	7
240	1
241	8
242	3
243	9
244	4
245	5
246	4
247	9
248	5
249	3
250	2
251	1
252	2
253	4
254	5
255	7
256	7
257	4
258	1
259	2
260	9
261	2
262	5
263	4
264	4
265	4
266	3
267	7
268	3
269	8
270	3
271	5
272	3
273	1
274	8
275	6
276	6
277	9
278	6
279	4
280	6
281	4
282	8
283	1
284	2
285	6
286	1
287	9
288	2
289	8
290	5
291	9
292	7
293	2
294	2
295	6
296	1
297	2
298	3
299	8
300	4
301	5
302	9
303	9
304	6
305	4
306	3
307	7
308	4
309	3
310	5
311	9
312	5
313	5
314	1
315	8
316	3
317	4
318	1
319	9
320	1
321	7
322	6
323	3
324	5
325	6
326	3
327	8
328	6
329	5
330	3
331	3
332	5
333	5
334	2
335	8
336	9
337	6
338	8
339	4
340	7
341	6
342	3
343	6
344	4
345	9
346	8
347	7
348	6
349	7
350	9
351	9
352	6
353	8
354	3
355	9
356	8
357	4
358	3
359	8
360	4
361	1
362	5
363	3
364	2
365	6
366	4
367	4
368	6
369	9
370	4
371	8
372	6
373	1
374	7
375	3
376	2
377	6
378	6
379	8
380	1
381	8
382	1
383	2
384	9
385	3
386	2
387	2
388	6
389	4
390	8
391	1
392	1
393	4
394	5
395	1
396	7
397	4
398	3
399	4
400	2
401	3
402	2
403	7
404	8
405	4
406	2
407	5
408	9
409	3
410	8
411	9
412	6
413	6
414	6
415	7
416	1
417	9
418	5
419	1
420	9
421	5
422	5
423	8
424	2
425	9
426	1
427	8
428	9
429	5
430	5
431	1
432	1
433	2
434	1
435	3
436	8
437	1
438	3
439	6
440	6
441	5
442	2
443	3
444	8
445	9
446	2
447	6
448	5
449	8
450	3
451	3
452	7
453	6
454	2
455	4
456	3
457	5
458	7
459	4
460	1
461	8
462	3
463	6
464	2
465	2
466	4
467	7
468	4
469	2
470	2
471	3
472	4
473	6
474	8
475	5
476	7
477	8
478	2
479	4
480	2
481	5
482	6
483	4
484	8
485	8
486	5
487	1
488	9
489	5
490	8
491	7
492	2
493	4
494	8
495	4
496	8
497	2
498	4
499	8
500	5
501	9
TIME_WINDOW_SECTION
1	0	3000
2	1300	1615
3	871	1671
4	1050	1577
5	851	2714
6	2197	2908
7	1148	2075
8	1690	1927
9	614	881
10	1194	2826
11	542	1472
12	816	2269
13	90	1175
14	1007	1487
15	1107	1479
16	213	1417
17	1328	1866
18	0	1439
19	1117	2783
20	1120	1640
21	544	1145
22	1616	2595
23	923	1547
24	1633	3000
25	839	1778
26	1005	2196
27	788	1237
28	964	2541
29	397	1558
30	130	1518
31	921	1280
32	1177	1810
33	488	1524
34	1816	2728
35	0	1003
36	1006	1997
37	0	1518
38	769	1733
39	1244	2881
40	1374	1685
41	1284	2731
42	1855	2511
43	1215	2590
44	1147	1376
45	778	2327
46	597	930
47	1464	1972
48	977	1496
49	884	2674
50	142	1632
51	191	690
52	1898	2429
53	1568	2309
54	0	1147
55	0	1348
56	707	1656
57	1097	2024
58	714	1445
59	699	1375
60	1737	2323
61	493	1964
62	1485	2659
63	1293	2176
64	864	2578
65	776	1683
66	1841	2307
67	994	1585
68	523	1793
69	708	2497
70	694	1885
71	793	2441
72	933	1706
73	327	1632
74	1209	2968
75	173	1373
76	917	1297
77	141	1099
78	700	1732
79	1283	3000
80	1107	1996
81	964	2087
82	0	1734
83	995	1500
84	305	1745
85	817	1189
86	1528	1927
87	616	2225
88	1312	2025
89	1656	2488
90	871	1401
91	1809	2113
92	634	1504
93	1234	2755
94	1120	2789
95	1871	2606
96	2004	2993
97	1161	1969
98	1532	2686
99	118	885
100	0	1749
101	1193	2009
102	995	2159
103	642	1043
104	0	1346
105	0	1887
106	1050	1282
107	874	1221
108	333	2087
109	277	1646
110	130	1594
111	829	2240
112	501	863
113	0	1212
114	518	2466
115	0	1369
116	1069	2738
117	0	1699
118	1258	1800
119	1331	2455
120	1020	1772
121	1217	1620
122	0	1642
123	408	983
124	1397	1874
125	666	1920
126	627	2062
127	917	1565
128	120	1733
129	631	2351
130	150	936
131	1288	3000
132	438	2382
133	0	1801
134	141	2038
135	1510	2436
136	43	1899
137	960	1718
138	0	1074
139	918	1784
140	962	2599
141	888	1399
142	879	2273
143	1557	2717
144	1215	2306
145	222	1177
146	515	2302
147	844	1798
148	1162	2781
149	410	1760
150	0	1821
151	1115	1424
152	565	2554
153	156	2098
154	414	1702
155	863	2148
156	983	2980
157	1291	1594
158	420	1856
159	1149	1855
160	1018	1408
161	931	1886
162	1340	2428
163	1598	3000
164	535	1067
165	923	1522
166	870	2820
167	0	1071
168	0	631
169	0	414
170	528	1545
171	539	1711
172	501	1562
173	1492	2842
174	1227	3000
175	1641	1936
176	1519	2128
177	739	1563
178	282	1205
179	419	1802
180	1766	2112
181	860	2142
182	940	2868
183	878	1672
184	1111	1967
185	991	2900
186	1105	1391
187	608	2042
188	428	1867
189	264	1792
190	0	829
191	74	1981
192	1264	1925
193	1096	1420
194	943	1485
195	1269	2202
196	28	1949
197	1402	2443
198	0	1433
199	1761	3000
200	565	2541
201	496	1941
202	216	1500
203	303	2126
204	1007	1341
205	1779	2708
206	0	824
207	1562	2045
208	812	2753
209	509	2316
210	1745	2319
211	727	2216
212	1152	1868
213	756	989
214	665	2313
215	427	2044
216	707	1246
217	474	2405
218	605	1063
219	1017	1810
220	331	1681
221	0	1729
222	103	993
223	243	712
224	1721	2147
225	1229	2927
226	152	1976
227	2235	2638
228	390	1135
229	533	1817
230	854	1263
231	838	1594
232	819	2462
233	1827	2052
234	2090	2673
235	506	1849
236	249	1356
237	541	1145
238	886	1527
239	1315	1958
240	260	1695
241	701	1541
242	632	1293
243	1011	2700
244	807	1517
245	519	1176
246	1909	2254
247	1716	2017
248	620	2130
249	235	863
250	698	1323
251	786	1593
252	809	2554
253	535	1841
254	979	2086
255	1675	2783
256	576	1180
257	833	1518
258	1060	2317
259	1465	2059
260	882	1143
261	945	1829
262	605	1132
263	2154	2506
264	272	1413
265	1599	2624
266	809	2051
267	716	998
268	512	748
269	868	2505
270	2336	2786
271	1253	1776
272	1476	2144
273	0	1321
274	1924	2318
275	1435	1684
276	786	2541
277	1474	2708
278	625	2114
279	1164	2480
280	850	1665
281	988	1323
282	125	1353
283	771	2204
284	241	2128
285	723	2514
286	1260	1877
287	523	2220
288	387	1286
289	721	1218
290	1393	2808
291	745	2020
292	392	1582
293	1002	1867
294	807	1589
295	353	982
296	1100	2617
297	789	2749
298	356	1713
299	1219	1700
300	1313	2755
301	425	1342
302	1050	2342
303	725	1404
304	1822	3000
305	1067	2792
306	483	1953
307	1340	2498
308	721	1591
309	1114	2590
310	983	1474
311	791	1892
312	835	2118
313	720	1892
314	264	1636
315	862	1548
316	861	1500
317	1592	1813
318	877	2364
319	1284	1715
320	169	1797
321	311	1979
322	751	1681
323	734	2510
324	403	2395
325	2079	2348
326	985	2251
327	1278	1781
328	2043	2786
329	161	1336
330	417	1933
331	313	1626
332	871	1879
333	1002	1646
334	1886	2666
335	1615	2338
336	1857	2064
337	958	1727
338	479	977
339	442	1871
340	1134	2814
341	1218	2317
342	631	1358
343	406	1618
344	70	476
345	613	1271
346	894	1191
347	1162	1511
348	536	2476
349	915	2076
350	1182	1992
351	890	1396
352	276	2074
353	1293	2326
354	1119	1820
355	163	1731
356	458	2021
357	1540	2126
358	775	1883
359	805	1763
360	384	957
361	405	999
362	0	949
363	524	1456
364	1575	3000
365	373	1006
366	1184	2343
367	210	2201
368	1742	1987
369	459	2063
370	1141	2029
371	1250	1642
372	1181	3000
373	1275	3000
374	800	2492
375	1616	2834
376	2035	2527
377	50	1682
378	1159	2145
379	0	852
380	1528	2615
381	1501	2493
382	1207	1902
383	1562	2364
384	605	2539
385	0	1664
386	2086	2319
387	413	1694
388	1833	2630
389	639	2124
390	956	2394
391	0	1835
392	0	1398
393	1397	2925
394	312	1868
395	267	744
396	745	2731
397	25	1835
398	632	884
399	592	1322
400	740	1503
401	320	1765
402	1679	1903
403	5	1454
404	1365	2451
405	427	1832
406	1051	1272
407	666	935
408	1522	2945
409	1796	2676
410	868	1924
411	634	1685
412	1616	3000
413	1568	2171
414	960	2210
415	580	1520
416	1226	2904
417	568	2128
418	587	2164
419	1519	2160
420	1189	2958
421	528	1103
422	822	1342
423	1418	1627
424	313	1456
425	355	1765
426	728	1795
427	60	1792
428	1266	1516
429	0	1521
430	1127	2738
431	1363	1965
432	1217	1787
433	1424	2512
434	1257	2368
435	623	1264
436	556	1803
437	1304	2028
438	1525	2056
439	1309	2658
440	564	1099
441	707	1422
442	159	1407
443	1151	1621
444	0	1571
445	730	1362
446	1450	2112
447	1426	1881
448	440	2154
449	549	2238
450	755	1310
451	723	2072
452	1017	1378
453	556	1115
454	794	1324
455	472	1131
456	405	2324
457	1407	2135
458	0	1575
459	15	1254
460	169	1624
461	1989	2645
462	1161	2820
463	340	1276
464	949	2423
465	1220	1999
466	1866	3000
467	195	2054
468	1954	2309
469	1043	2903
470	245	864
471	1200	1887
472	1191	3000
473	0	1888
474	615	1448
475	1207	1911
476	925	2860
477	688	930
478	1709	2659
479	1410	2681
480	606	808
481	1276	2892
482	400	1509
483	907	1133
484	252	2217
485	384	699
486	1191	3000
487	356	1102
488	0	1364
489	186	1446
490	1754	1995
491	1546	2231
492	62	964
493	1247	2325
494	493	1244
495	929	1208
496	93	485
497	861	2424
498	1655	2080
499	288	1392
500	1518	2969
501	1481	3000
BACKHAUL_SECTION
3	12	14	17	22	25	28	41	42	43	60	68	72	81	86	88	91	95	97	100	109	117	118	120	121	125	130	142	143	145	149	153	158	162	167	171	181	187	190	194	196	197	199	215	217	225	226	228	230	236	239	244	260	264	267	270	272	275	279	282	284	287	288	304	311	316	317	325	338	342	357	366	368	374	376	383	394	395	396	398	399	402	410	412	425	426	429	439	443	448	449	457	460	473	475	477	485	491	496	499	-1
DEPOT_SECTION
1
-1
EOF
