NAME : n501-0046
COMMENT : "Generated by pyvrp_manuel (OVRPBTW)"
TYPE : OVRPBTW
DIMENSION : 501
EDGE_WEIGHT_TYPE : EUC_2D
CAPACITY : 100
VEHICLES : 500
OPEN_ROUTE : YES
SERVICE_TIME : 200
NODE_COORD_SECTION
1	934	990
2	84	691
3	142	206
4	229	32
5	498	151
6	699	444
7	390	475
8	128	69
9	446	767
10	153	128
11	537	517
12	879	307
13	124	511
14	169	83
15	120	612
16	2	339
17	540	960
18	777	522
19	232	519
20	444	97
21	962	723
22	71	37
23	214	823
24	439	202
25	983	639
26	497	892
27	901	877
28	491	594
29	818	957
30	205	350
31	253	477
32	586	714
33	150	102
34	923	449
35	828	794
36	553	133
37	834	747
38	6	751
39	269	399
40	623	702
41	731	557
42	546	316
43	526	553
44	138	74
45	317	671
46	468	48
47	446	501
48	331	243
49	490	526
50	840	540
51	350	502
52	745	799
53	216	802
54	240	817
55	985	860
56	660	52
57	212	883
58	925	560
59	391	217
60	403	283
61	911	124
62	351	210
63	156	235
64	879	207
65	370	193
66	854	128
67	641	465
68	181	108
69	218	520
70	92	496
71	794	18
72	329	463
73	101	243
74	75	441
75	95	913
76	891	779
77	753	932
78	377	227
79	297	538
80	254	217
81	48	960
82	138	912
83	239	719
84	834	47
85	256	333
86	645	317
87	562	323
88	638	392
89	178	978
90	664	711
91	171	454
92	938	118
93	758	505
94	718	16
95	280	795
96	811	674
97	141	718
98	894	153
99	328	724
100	603	930
101	118	738
102	752	52
103	88	184
104	51	828
105	320	767
106	936	241
107	221	89
108	73	492
109	484	342
110	769	914
111	982	290
112	818	824
113	641	788
114	847	333
115	22	538
116	321	793
117	625	724
118	8	664
119	683	878
120	342	708
121	57	480
122	9	109
123	888	282
124	102	224
125	724	388
126	305	651
127	731	835
128	65	677
129	593	325
130	531	312
131	686	345
132	897	836
133	278	243
134	229	147
135	514	103
136	58	93
137	343	83
138	446	637
139	300	29
140	689	225
141	816	1000
142	968	94
143	588	181
144	57	287
145	639	570
146	830	87
147	562	75
148	770	247
149	910	609
150	435	632
151	698	905
152	716	399
153	844	22
154	950	434
155	620	513
156	441	951
157	194	935
158	996	301
159	481	805
160	418	774
161	943	546
162	535	697
163	951	645
164	355	399
165	234	2
166	617	536
167	195	498
168	47	568
169	672	402
170	84	476
171	582	920
172	461	981
173	918	610
174	278	261
175	648	141
176	577	728
177	246	670
178	398	951
179	186	161
180	31	723
181	715	847
182	983	596
183	261	755
184	739	882
185	743	447
186	92	150
187	997	605
188	20	326
189	592	47
190	659	614
191	419	534
192	733	868
193	270	645
194	123	299
195	970	671
196	746	392
197	0	415
198	667	250
199	524	692
200	308	317
201	633	900
202	860	495
203	132	99
204	450	421
205	605	384
206	156	289
207	489	867
208	689	364
209	767	94
210	52	492
211	947	610
212	771	90
213	890	117
214	723	581
215	655	281
216	340	240
217	96	330
218	36	952
219	24	794
220	289	561
221	789	111
222	805	436
223	33	620
224	757	758
225	737	934
226	146	540
227	0	311
228	840	460
229	924	740
230	467	511
231	132	971
232	402	528
233	425	503
234	500	84
235	490	833
236	938	273
237	555	175
238	107	280
239	745	13
240	300	284
241	257	112
242	156	727
243	235	501
244	875	933
245	319	626
246	664	70
247	745	679
248	480	74
249	925	983
250	134	78
251	814	959
252	807	680
253	652	559
254	527	824
255	795	497
256	957	972
257	589	922
258	337	303
259	216	619
260	904	365
261	46	472
262	902	336
263	588	163
264	978	895
265	570	646
266	652	738
267	514	275
268	254	7
269	2	587
270	774	334
271	363	964
272	62	657
273	436	460
274	115	108
275	960	171
276	973	882
277	674	209
278	885	313
279	244	731
280	83	334
281	828	172
282	972	28
283	738	813
284	118	956
285	315	993
286	137	766
287	507	965
288	270	558
289	664	23
290	759	228
291	463	534
292	200	357
293	751	855
294	62	445
295	660	174
296	46	695
297	118	517
298	972	699
299	189	157
300	816	27
301	460	30
302	605	72
303	993	763
304	367	706
305	91	960
306	608	466
307	328	708
308	493	298
309	755	293
310	934	962
311	622	733
312	707	205
313	82	287
314	577	450
315	993	696
316	462	489
317	44	16
318	931	864
319	988	461
320	886	935
321	67	339
322	777	302
323	49	68
324	218	986
325	355	303
326	29	854
327	559	950
328	423	420
329	731	240
330	176	88
331	280	693
332	483	439
333	294	825
334	977	725
335	122	752
336	696	971
337	84	251
338	453	358
339	215	177
340	294	504
341	830	548
342	338	586
343	442	435
344	818	867
345	418	836
346	196	353
347	817	941
348	157	725
349	482	40
350	150	832
351	886	318
352	727	860
353	422	199
354	508	670
355	684	488
356	29	982
357	464	343
358	972	818
359	230	168
360	699	488
361	319	62
362	271	525
363	196	215
364	855	574
365	773	727
366	359	245
367	995	264
368	408	320
369	889	443
370	814	415
371	699	965
372	128	961
373	547	892
374	328	405
375	200	204
376	83	211
377	85	999
378	289	11
379	80	963
380	658	979
381	12	370
382	632	280
383	149	574
384	755	46
385	924	768
386	74	604
387	314	255
388	502	149
389	633	600
390	70	600
391	606	720
392	576	641
393	625	678
394	864	603
395	94	334
396	250	1000
397	392	39
398	533	132
399	984	511
400	296	695
401	139	553
402	456	783
403	262	399
404	750	772
405	288	282
406	203	214
407	845	909
408	397	72
409	282	247
410	625	362
411	463	24
412	628	783
413	205	907
414	34	32
415	438	63
416	607	593
417	427	321
418	722	210
419	962	9
420	150	757
421	266	224
422	825	337
423	366	587
424	596	586
425	43	278
426	225	606
427	739	973
428	107	73
429	621	801
430	770	812
431	888	899
432	549	192
433	865	423
434	430	279
435	743	558
436	692	677
437	996	434
438	80	729
439	659	473
440	941	552
441	531	256
442	958	398
443	655	201
444	539	594
445	240	302
446	405	880
447	663	134
448	355	113
449	957	437
450	97	259
451	24	253
452	579	934
453	305	992
454	964	715
455	939	178
456	519	730
457	67	403
458	57	398
459	913	809
460	555	436
461	101	573
462	271	258
463	704	458
464	942	396
465	355	644
466	699	394
467	500	4
468	570	754
469	321	805
470	298	819
471	697	23
472	468	399
473	18	695
474	671	851
475	64	606
476	966	409
477	962	738
478	371	950
479	679	519
480	729	38
481	639	746
482	359	320
483	6	585
484	493	770
485	834	923
486	518	815
487	671	373
488	292	485
489	83	868
490	298	209
491	958	773
492	655	230
493	527	897
494	249	388
495	907	186
496	163	296
497	655	478
498	548	339
499	571	219
500	542	791
501	655	902
DEMAND_SECTION
1	0
2	4
3	7
4	5
5	3
6	4
7	5
8	1
9	9
10	5
11	8
12	7
13	8
14	8
15	7
16	3
17	5
18	7
19	5
20	9
21	8
22	3
23	9
24	7
25	1
26	9
27	9
28	7
29	6
30	7
31	8
32	7
33	4
34	2
35	8
36	4
37	3
38	1
39	6
40	6
41	9
42	2
43	9
44	6
45	8
46	4
47	6
48	9
49	7
50	8
51	4
52	2
53	1
54	8
55	5
56	2
57	1
58	4
59	7
60	2
61	3
62	6
63	5
64	2
65	8
66	8
67	9
68	4
69	2
70	4
71	2
72	7
73	8
74	6
75	9
76	9
77	1
78	9
79	3
80	2
81	6
82	7
83	7
84	7
85	9
86	1
87	7
88	4
89	8
90	4
91	1
92	7
93	4
94	3
95	2
96	6
97	9
98	1
99	1
100	7
101	7
102	1
103	6
104	2
105	4
106	6
107	6
108	6
109	1
110	8
111	5
112	5
113	1
114	9
115	8
116	6
117	6
118	2
119	9
120	6
121	1
122	6
123	6
124	1
125	3
126	2
127	5
128	4
129	2
130	1
131	9
132	2
133	9
134	4
135	3
136	4
137	2
138	8
139	8
140	9
141	6
142	3
143	6
144	5
145	2
146	2
147	3
148	3
149	9
150	8
151	1
152	5
153	2
154	5
155	9
156	2
157	6
158	7
159	5
160	4
161	7
162	6
163	8
164	8
165	2
166	4
167	7
168	5
169	2
170	7
171	5
172	6
173	1
174	6
175	4
176	7
177	2
178	4
179	7
180	9
181	4
182	1
183	6
184	7
185	6
186	2
187	7
188	9
189	5
190	7
191	9
192	9
193	3
194	1
195	2
196	5
197	8
198	9
199	8
200	5
201	6
202	7
203	5
204	7
205	8
206	4
207	2
208	5
209	9
210	5
211	8
212	9
213	3
214	9
215	6
216	2
217	1
218	3
219	1
220	9
221	2
222	1
223	6
224	9
225	2
226	8
227	9
228	4
229	4
230	8
231	5
232	6
233	2
234	9
235	6
236	3
237	3
238	6
239	9
240	6
241	2
242	5
243	4
244	2
245	9
246	1
247	9
248	6
249	7
250	9
251	8
252	3
253	7
254	4
255	4
256	9
257	5
258	4
259	6
260	9
261	6
262	5
263	7
264	9
265	7
266	9
267	2
268	1
269	4
270	2
271	3
272	7
273	3
274	5
275	8
276	4
277	5
278	7
279	3
280	2
281	3
282	5
283	9
284	4
285	2
286	7
287	5
288	4
289	6
290	7
291	3
292	8
293	6
294	2
295	1
296	1
297	6
298	9
299	4
300	5
301	2
302	4
303	1
304	2
305	3
306	4
307	5
308	5
309	9
310	5
311	7
312	8
313	8
314	4
315	6
316	7
317	5
318	9
319	2
320	5
321	6
322	6
323	8
324	8
325	1
326	6
327	8
328	5
329	1
330	3
331	3
332	4
333	2
334	7
335	6
336	6
337	7
338	4
339	4
340	7
341	3
342	6
343	6
344	3
345	1
346	4
347	5
348	3
349	5
350	7
351	5
352	3
353	9
354	2
355	9
356	8
357	9
358	7
359	1
360	1
361	6
362	2
363	3
364	3
365	8
366	7
367	7
368	8
369	4
370	1
371	6
372	1
373	4
374	3
375	6
376	6
377	5
378	1
379	7
380	3
381	5
382	2
383	3
384	7
385	5
386	5
387	9
388	6
389	9
390	7
391	9
392	4
393	5
394	7
395	7
396	4
397	1
398	3
399	3
400	2
401	9
402	4
403	9
404	7
405	6
406	6
407	5
408	2
409	2
410	4
411	3
412	4
413	3
414	1
415	6
416	7
417	9
418	3
419	2
420	4
421	7
422	9
423	2
424	6
425	1
426	4
427	8
428	3
429	4
430	4
431	7
432	9
433	7
434	2
435	1
436	8
437	3
438	2
439	3
440	8
441	4
442	6
443	4
444	8
445	9
446	5
447	5
448	7
449	3
450	5
451	8
452	4
453	4
454	5
455	7
456	9
457	6
458	6
459	7
460	7
461	1
462	2
463	8
464	3
465	3
466	7
467	3
468	8
469	1
470	8
471	2
472	6
473	1
474	7
475	9
476	9
477	2
478	3
479	4
480	6
481	6
482	2
483	2
484	5
485	7
486	5
487	3
488	2
489	5
490	1
491	2
492	7
493	6
494	5
495	2
496	6
497	1
498	7
499	5
500	8
501	3
TIME_WINDOW_SECTION
1	0	3000
2	1068	1987
3	1106	1762
4	297	2128
5	1609	1868
6	1104	1757
7	936	1768
8	578	2482
9	705	2265
10	450	1877
11	1044	2580
12	1982	2197
13	187	1805
14	1264	1870
15	800	1286
16	976	2316
17	283	793
18	889	1258
19	806	2494
20	627	2196
21	410	889
22	1017	1789
23	1083	1873
24	224	2107
25	0	913
26	237	2033
27	449	815
28	1430	2829
29	0	834
30	670	2019
31	130	1943
32	1723	2910
33	1411	1676
34	1227	3000
35	1560	2753
36	572	1312
37	0	1222
38	876	1366
39	1212	1905
40	556	2313
41	137	1185
42	828	1287
43	1411	1691
44	273	2253
45	153	1949
46	639	1758
47	853	1826
48	719	2523
49	1024	2374
50	0	1335
51	407	1542
52	1107	2707
53	1876	2198
54	640	1622
55	1582	3000
56	892	1600
57	465	1541
58	1079	1313
59	1036	2010
60	833	2386
61	790	1710
62	1112	1778
63	1245	2037
64	478	1894
65	989	1653
66	931	2116
67	311	1603
68	368	2023
69	589	2273
70	1081	1554
71	830	1785
72	758	2514
73	1296	1777
74	1277	1530
75	636	1781
76	1166	2636
77	697	1788
78	969	2027
79	1317	2141
80	724	1863
81	1060	1495
82	514	2017
83	997	1662
84	1456	1663
85	365	2278
86	908	2394
87	467	2157
88	888	2784
89	522	1074
90	189	1618
91	1172	2157
92	602	1962
93	653	1567
94	1017	2007
95	2	1635
96	1455	3000
97	713	1112
98	310	2059
99	830	2716
100	536	1449
101	1218	1469
102	1268	1711
103	393	2230
104	1605	1988
105	871	2031
106	666	1302
107	644	2175
108	534	1914
109	784	1790
110	0	580
111	712	1661
112	0	1172
113	572	871
114	507	2119
115	261	2150
116	1311	2043
117	0	1303
118	533	1662
119	95	478
120	172	1495
121	1357	1862
122	1216	1710
123	1666	2197
124	1023	1845
125	0	1771
126	570	1054
127	1950	2929
128	465	2351
129	1252	1544
130	689	1189
131	615	2497
132	817	1030
133	1118	2099
134	635	1776
135	763	1490
136	1164	1867
137	1012	2014
138	0	1594
139	1051	2184
140	1319	2414
141	1644	2210
142	704	2448
143	659	1930
144	1446	1786
145	1509	2711
146	221	1607
147	305	1861
148	592	1629
149	0	1557
150	458	1553
151	2025	2431
152	1137	2024
153	828	1785
154	840	1741
155	1863	2218
156	836	1495
157	316	1283
158	747	2375
159	503	1774
160	295	1410
161	1477	2316
162	328	2242
163	713	2131
164	1549	2223
165	972	1629
166	786	2508
167	252	2107
168	1142	1603
169	1472	2360
170	318	2233
171	579	798
172	806	2101
173	681	1188
174	756	2089
175	263	1686
176	1273	2035
177	1069	2221
178	1160	1387
179	493	1844
180	730	1531
181	0	1418
182	1241	2867
183	1089	2499
184	773	2455
185	266	2123
186	1076	1590
187	1539	3000
188	1030	2212
189	929	1854
190	60	1331
191	643	1950
192	1350	1645
193	191	1506
194	805	2112
195	1674	2901
196	1290	2658
197	685	2264
198	705	1946
199	180	911
200	591	1510
201	321	1389
202	211	1231
203	1385	1765
204	1522	2062
205	1534	2556
206	255	1902
207	1183	1537
208	1071	2571
209	887	2844
210	605	2490
211	1460	2098
212	824	2474
213	1055	2717
214	964	1715
215	1086	1894
216	747	1819
217	1312	1888
218	725	2367
219	543	1352
220	1523	1819
221	996	1583
222	552	1102
223	425	1773
224	299	1283
225	3	1156
226	947	1796
227	1297	1851
228	613	1920
229	125	948
230	1320	2290
231	1640	2110
232	410	1882
233	1138	2959
234	302	1787
235	0	1165
236	360	1513
237	1571	2016
238	969	1730
239	1407	2007
240	1340	2060
241	1037	1795
242	1331	1720
243	1211	2019
244	1282	2515
245	593	2277
246	1616	1955
247	724	1412
248	595	2334
249	615	1844
250	355	2095
251	1122	2312
252	2062	2294
253	397	1745
254	1461	3000
255	1664	2398
256	1319	1799
257	1628	2112
258	1030	2322
259	768	2201
260	0	1547
261	1327	2140
262	994	2712
263	400	2149
264	1816	2123
265	1244	2577
266	1579	2582
267	1670	2202
268	880	1621
269	1654	1894
270	375	2012
271	302	2108
272	1003	1579
273	1513	2542
274	1369	1662
275	555	1158
276	16	1202
277	380	2065
278	645	1173
279	430	1391
280	1072	1713
281	394	1513
282	877	2204
283	954	1733
284	248	2001
285	1203	2808
286	1138	2506
287	1621	2980
288	133	1719
289	908	2282
290	460	1634
291	1815	2446
292	560	2444
293	0	1806
294	181	1974
295	622	2321
296	14	1932
297	1447	1903
298	158	588
299	295	2171
300	421	2040
301	1236	1953
302	631	1626
303	788	2116
304	1715	2566
305	414	2079
306	435	1846
307	0	1965
308	815	2601
309	1180	2160
310	1232	1606
311	719	1878
312	1234	2394
313	850	1630
314	1269	1892
315	334	1844
316	495	2101
317	864	2028
318	0	1217
319	0	1495
320	1961	2740
321	307	1973
322	155	2120
323	1388	1605
324	807	2084
325	1477	2229
326	463	1728
327	537	1154
328	395	1585
329	1169	1792
330	981	1567
331	1704	2102
332	612	1113
333	1422	2579
334	615	2266
335	1281	1879
336	784	1451
337	1067	1441
338	993	1913
339	749	2080
340	468	1842
341	89	1329
342	1262	1727
343	715	1175
344	2277	2481
345	1454	1707
346	548	2003
347	1641	1915
348	1138	2791
349	642	2140
350	506	1821
351	496	854
352	5	650
353	795	2500
354	562	2430
355	874	1272
356	487	1774
357	340	2055
358	1991	2454
359	758	2080
360	1111	2961
361	772	1799
362	160	1753
363	338	2219
364	400	898
365	990	1482
366	129	2057
367	989	2353
368	553	1240
369	1213	2237
370	737	2213
371	559	1205
372	0	1733
373	0	1134
374	979	2812
375	711	2297
376	826	2052
377	1329	1762
378	1134	1518
379	408	2228
380	685	1638
381	1253	2030
382	647	1435
383	981	1646
384	1001	1574
385	556	1230
386	533	2259
387	651	1583
388	785	2216
389	1567	2681
390	631	2608
391	818	2065
392	441	1925
393	429	1139
394	625	2527
395	1131	1838
396	891	1347
397	310	2241
398	1080	2620
399	0	1334
400	743	2211
401	733	1700
402	583	1697
403	1668	1940
404	1757	2652
405	1402	1707
406	1053	1772
407	2016	2681
408	668	2472
409	562	1636
410	732	1115
411	813	1600
412	530	2389
413	653	2366
414	427	2276
415	945	2053
416	505	2127
417	945	2843
418	89	1757
419	765	2633
420	1565	1897
421	385	2040
422	249	1508
423	859	2145
424	1234	2075
425	827	1718
426	1626	2291
427	1666	2582
428	1318	1534
429	858	1745
430	0	892
431	1232	1553
432	1140	1669
433	592	1486
434	944	2638
435	1161	1926
436	2002	2554
437	1016	2981
438	603	1681
439	404	1005
440	2167	2408
441	536	2050
442	1028	1610
443	503	1642
444	750	2083
445	737	1426
446	590	1700
447	128	2128
448	930	1936
449	487	1012
450	1045	1852
451	1144	1783
452	760	1715
453	1452	2479
454	383	1386
455	123	1855
456	74	1485
457	870	2375
458	215	1907
459	151	1983
460	473	1271
461	426	2308
462	578	2559
463	0	1569
464	80	1325
465	1044	2865
466	1312	2503
467	1202	2114
468	1238	1873
469	1543	2143
470	867	1586
471	330	1809
472	1783	2019
473	1261	2177
474	1862	2337
475	544	2070
476	1933	2420
477	0	1333
478	0	1320
479	1067	1601
480	1192	2113
481	305	1509
482	356	2049
483	979	2026
484	702	2384
485	1784	2069
486	1601	2688
487	378	1837
488	737	1024
489	1278	1675
490	985	2438
491	1161	1686
492	663	2545
493	867	1660
494	458	1826
495	1410	1701
496	1209	1696
497	442	2050
498	310	1484
499	1141	2315
500	415	2091
501	456	1727
BACKHAUL_SECTION
3	12	14	17	22	25	28	41	42	43	60	68	72	81	86	88	91	95	97	100	109	117	118	120	121	125	130	142	143	145	149	153	158	162	167	171	181	187	190	194	196	197	199	215	217	225	226	228	230	236	239	244	260	264	267	270	272	275	279	282	284	287	288	304	311	316	317	325	338	342	357	366	368	374	376	383	394	395	396	398	399	402	410	412	425	426	429	439	443	448	449	457	460	473	475	477	485	491	496	499	-1
DEPOT_SECTION
1
-1
EOF
