NAME : n501-0012
COMMENT : "Generated by pyvrp_manuel (OVRPBTW)"
TYPE : OVRPBTW
DIMENSION : 501
EDGE_WEIGHT_TYPE : EUC_2D
CAPACITY : 100
VEHICLES : 500
OPEN_ROUTE : YES
SERVICE_TIME : 200
NODE_COORD_SECTION
1	222	17
2	794	1
3	884	579
4	608	319
5	408	363
6	104	445
7	215	704
8	507	413
9	555	148
10	520	420
11	449	257
12	479	241
13	859	434
14	697	833
15	419	906
16	809	619
17	926	575
18	784	279
19	774	229
20	400	898
21	387	180
22	381	853
23	784	52
24	378	400
25	93	456
26	726	861
27	645	612
28	242	598
29	747	411
30	945	577
31	517	528
32	764	920
33	433	159
34	994	553
35	279	588
36	876	145
37	845	394
38	826	592
39	967	816
40	331	512
41	792	470
42	939	595
43	995	276
44	433	325
45	481	115
46	590	842
47	696	266
48	322	650
49	663	63
50	145	822
51	664	737
52	665	922
53	392	667
54	628	66
55	675	780
56	433	924
57	561	673
58	448	939
59	516	107
60	212	895
61	456	711
62	321	338
63	9	665
64	852	145
65	823	977
66	30	563
67	955	597
68	228	889
69	532	464
70	995	607
71	828	627
72	537	197
73	679	685
74	670	753
75	473	665
76	757	499
77	783	536
78	94	871
79	237	731
80	536	296
81	440	190
82	178	252
83	204	343
84	823	472
85	684	75
86	991	781
87	107	970
88	470	808
89	223	199
90	999	400
91	48	162
92	475	540
93	326	797
94	515	558
95	396	926
96	777	685
97	641	488
98	815	146
99	47	752
100	314	523
101	679	789
102	603	478
103	710	273
104	329	66
105	309	796
106	829	75
107	942	63
108	357	467
109	718	658
110	916	69
111	505	317
112	981	452
113	973	952
114	705	513
115	684	376
116	878	855
117	902	687
118	818	852
119	13	916
120	348	355
121	983	553
122	724	230
123	540	67
124	670	940
125	370	494
126	998	544
127	673	187
128	837	557
129	699	871
130	548	429
131	725	10
132	186	575
133	1000	370
134	340	141
135	967	826
136	986	876
137	182	908
138	884	133
139	496	621
140	859	987
141	335	24
142	889	566
143	573	520
144	306	145
145	128	630
146	734	314
147	444	670
148	966	817
149	647	974
150	548	418
151	237	787
152	743	639
153	740	584
154	897	141
155	511	550
156	887	151
157	139	239
158	610	470
159	739	379
160	346	860
161	140	249
162	979	745
163	995	999
164	350	687
165	579	361
166	159	439
167	689	196
168	927	150
169	787	178
170	679	926
171	530	725
172	250	457
173	57	253
174	693	878
175	413	279
176	317	161
177	460	622
178	622	833
179	810	988
180	207	428
181	925	856
182	509	455
183	531	520
184	310	219
185	5	221
186	79	568
187	969	248
188	517	196
189	968	969
190	574	127
191	986	506
192	526	301
193	420	754
194	100	703
195	807	173
196	586	5
197	842	104
198	675	333
199	476	955
200	301	629
201	672	119
202	872	632
203	807	661
204	495	281
205	579	680
206	589	248
207	103	829
208	889	545
209	557	830
210	516	602
211	161	686
212	751	593
213	133	617
214	566	974
215	864	92
216	209	597
217	94	317
218	222	730
219	71	648
220	68	119
221	435	497
222	406	579
223	126	22
224	249	597
225	331	772
226	523	915
227	162	248
228	379	59
229	230	311
230	897	148
231	174	679
232	112	690
233	521	164
234	730	735
235	565	338
236	114	766
237	434	968
238	486	352
239	525	929
240	246	387
241	552	335
242	815	625
243	637	701
244	168	961
245	331	60
246	916	150
247	77	749
248	845	610
249	222	525
250	963	864
251	192	671
252	804	583
253	485	709
254	618	194
255	910	8
256	32	946
257	124	342
258	48	386
259	937	939
260	291	922
261	429	801
262	635	9
263	863	127
264	164	394
265	580	929
266	321	871
267	60	550
268	369	322
269	165	835
270	10	205
271	996	292
272	633	510
273	971	87
274	715	587
275	834	214
276	464	420
277	808	512
278	673	864
279	20	439
280	38	166
281	578	737
282	299	565
283	877	933
284	691	340
285	648	144
286	595	835
287	301	906
288	548	764
289	945	976
290	362	420
291	821	177
292	19	352
293	584	27
294	280	385
295	6	538
296	477	244
297	134	649
298	280	58
299	169	150
300	635	508
301	202	784
302	83	961
303	181	99
304	83	489
305	981	854
306	997	928
307	150	544
308	643	11
309	903	273
310	533	849
311	128	981
312	816	183
313	64	444
314	459	775
315	928	850
316	273	50
317	310	864
318	445	426
319	490	115
320	540	327
321	848	426
322	789	109
323	85	196
324	354	414
325	30	911
326	346	192
327	48	104
328	559	24
329	247	838
330	668	653
331	716	971
332	236	388
333	774	239
334	440	519
335	662	911
336	188	890
337	851	145
338	900	839
339	832	131
340	776	78
341	1	292
342	414	773
343	725	207
344	25	562
345	715	487
346	321	282
347	70	550
348	456	715
349	515	37
350	348	962
351	24	931
352	778	4
353	868	879
354	838	124
355	641	243
356	629	495
357	606	364
358	800	495
359	168	296
360	630	683
361	555	801
362	64	184
363	138	57
364	282	845
365	792	89
366	696	442
367	104	45
368	455	718
369	812	326
370	647	281
371	989	950
372	30	903
373	944	504
374	99	846
375	787	898
376	116	953
377	136	900
378	377	506
379	962	987
380	520	733
381	764	153
382	0	781
383	814	931
384	938	385
385	407	211
386	179	952
387	847	861
388	843	242
389	118	893
390	990	994
391	700	547
392	407	267
393	19	268
394	980	808
395	626	370
396	699	618
397	354	964
398	482	828
399	853	289
400	38	832
401	510	853
402	248	710
403	143	23
404	302	595
405	386	88
406	65	231
407	427	763
408	311	814
409	414	648
410	74	960
411	505	988
412	650	19
413	140	253
414	86	817
415	604	987
416	234	751
417	815	486
418	570	986
419	567	654
420	178	288
421	10	604
422	714	883
423	193	78
424	765	631
425	505	477
426	983	389
427	178	142
428	9	327
429	992	56
430	511	810
431	367	921
432	881	31
433	432	612
434	635	120
435	682	47
436	185	134
437	785	245
438	138	479
439	640	252
440	399	466
441	945	856
442	641	917
443	834	519
444	7	703
445	64	666
446	354	826
447	901	85
448	483	383
449	453	2
450	806	982
451	362	386
452	613	458
453	302	580
454	780	580
455	416	491
456	461	601
457	662	180
458	281	306
459	86	343
460	32	474
461	284	525
462	881	726
463	300	539
464	965	865
465	84	832
466	982	882
467	120	735
468	425	296
469	279	530
470	908	720
471	351	172
472	181	960
473	888	10
474	731	885
475	525	474
476	309	521
477	153	339
478	705	558
479	856	865
480	523	144
481	552	234
482	664	655
483	968	615
484	962	202
485	6	387
486	737	995
487	208	625
488	454	327
489	214	863
490	749	532
491	773	392
492	257	260
493	141	347
494	649	344
495	717	561
496	78	331
497	540	73
498	887	380
499	535	762
500	146	630
501	654	846
DEMAND_SECTION
1	0
2	2
3	3
4	3
5	6
6	6
7	4
8	5
9	6
10	4
11	4
12	1
13	7
14	1
15	2
16	1
17	3
18	7
19	7
20	9
21	8
22	9
23	8
24	9
25	7
26	2
27	3
28	8
29	5
30	2
31	9
32	5
33	5
34	1
35	7
36	1
37	7
38	9
39	3
40	5
41	4
42	2
43	5
44	9
45	7
46	2
47	9
48	5
49	2
50	3
51	8
52	5
53	5
54	8
55	7
56	9
57	1
58	4
59	7
60	9
61	4
62	5
63	8
64	3
65	3
66	8
67	2
68	2
69	3
70	5
71	5
72	8
73	2
74	8
75	4
76	7
77	6
78	6
79	9
80	6
81	1
82	5
83	3
84	8
85	9
86	7
87	2
88	4
89	8
90	3
91	4
92	2
93	6
94	7
95	3
96	9
97	3
98	6
99	7
100	3
101	2
102	9
103	1
104	2
105	4
106	8
107	2
108	4
109	2
110	5
111	1
112	9
113	8
114	6
115	4
116	1
117	6
118	1
119	8
120	7
121	5
122	3
123	2
124	5
125	6
126	4
127	3
128	3
129	8
130	2
131	3
132	7
133	2
134	8
135	6
136	8
137	1
138	9
139	2
140	6
141	2
142	5
143	3
144	4
145	8
146	9
147	4
148	4
149	4
150	3
151	8
152	5
153	6
154	6
155	3
156	6
157	5
158	6
159	7
160	8
161	3
162	5
163	7
164	9
165	5
166	6
167	7
168	3
169	4
170	1
171	6
172	9
173	5
174	3
175	1
176	7
177	1
178	7
179	5
180	8
181	4
182	5
183	2
184	8
185	5
186	1
187	5
188	3
189	4
190	5
191	7
192	6
193	1
194	6
195	4
196	3
197	3
198	3
199	5
200	7
201	2
202	9
203	2
204	5
205	7
206	8
207	2
208	6
209	4
210	5
211	9
212	5
213	5
214	1
215	7
216	4
217	6
218	2
219	5
220	8
221	7
222	5
223	2
224	4
225	8
226	4
227	4
228	3
229	7
230	9
231	1
232	7
233	9
234	7
235	2
236	2
237	6
238	7
239	6
240	3
241	6
242	4
243	2
244	8
245	2
246	1
247	5
248	6
249	8
250	5
251	6
252	3
253	4
254	1
255	1
256	4
257	7
258	4
259	1
260	3
261	2
262	7
263	3
264	5
265	7
266	3
267	9
268	3
269	7
270	5
271	9
272	1
273	5
274	9
275	5
276	9
277	1
278	7
279	8
280	7
281	4
282	8
283	6
284	4
285	4
286	1
287	3
288	3
289	1
290	4
291	6
292	9
293	6
294	3
295	9
296	3
297	1
298	5
299	4
300	3
301	4
302	5
303	3
304	2
305	5
306	4
307	5
308	3
309	6
310	9
311	7
312	9
313	6
314	4
315	8
316	5
317	5
318	2
319	2
320	1
321	3
322	4
323	6
324	8
325	3
326	8
327	8
328	8
329	6
330	8
331	7
332	8
333	6
334	3
335	2
336	4
337	6
338	7
339	6
340	9
341	9
342	8
343	4
344	2
345	2
346	3
347	2
348	1
349	8
350	1
351	7
352	4
353	1
354	1
355	2
356	7
357	2
358	2
359	3
360	6
361	6
362	2
363	7
364	5
365	5
366	3
367	2
368	2
369	8
370	5
371	1
372	1
373	3
374	2
375	8
376	3
377	5
378	6
379	3
380	8
381	5
382	7
383	7
384	1
385	1
386	9
387	8
388	8
389	4
390	5
391	5
392	1
393	9
394	6
395	6
396	7
397	1
398	6
399	2
400	5
401	3
402	5
403	4
404	3
405	6
406	7
407	7
408	1
409	7
410	8
411	9
412	5
413	4
414	1
415	8
416	6
417	7
418	1
419	8
420	8
421	2
422	6
423	2
424	3
425	2
426	4
427	5
428	4
429	4
430	5
431	8
432	2
433	3
434	4
435	6
436	5
437	3
438	3
439	8
440	9
441	8
442	8
443	4
444	1
445	3
446	2
447	3
448	8
449	9
450	9
451	4
452	6
453	4
454	2
455	4
456	6
457	5
458	4
459	5
460	7
461	5
462	5
463	6
464	7
465	8
466	4
467	5
468	2
469	1
470	2
471	1
472	8
473	2
474	7
475	6
476	6
477	2
478	6
479	6
480	2
481	4
482	3
483	4
484	5
485	4
486	9
487	7
488	4
489	7
490	5
491	9
492	1
493	4
494	2
495	1
496	2
497	3
498	7
499	3
500	1
501	1
TIME_WINDOW_SECTION
1	0	3000
2	376	1951
3	1411	2127
4	594	2160
5	1333	2910
6	1236	1512
7	874	2096
8	632	1684
9	1369	3000
10	0	1797
11	2088	2384
12	1383	2460
13	852	2615
14	700	1507
15	1321	1603
16	1344	1799
17	829	2018
18	1237	2351
19	630	2587
20	939	1422
21	1566	2321
22	916	1403
23	1268	1473
24	579	1773
25	1470	2655
26	1084	2418
27	0	1718
28	0	1482
29	1054	2436
30	1014	2642
31	1434	2201
32	239	2102
33	1721	3000
34	609	2059
35	991	2893
36	1169	1878
37	496	1684
38	476	1959
39	802	2154
40	892	1781
41	188	1768
42	993	2533
43	1123	2288
44	1759	2579
45	1155	1919
46	1167	2297
47	529	1618
48	1271	1521
49	849	2412
50	205	1516
51	717	1020
52	1069	2412
53	184	1228
54	88	1191
55	1145	2077
56	1015	2633
57	977	2480
58	1030	2036
59	0	1769
60	460	2171
61	1157	1365
62	560	1792
63	1028	2379
64	716	2581
65	1180	2035
66	1510	2819
67	970	2612
68	434	1706
69	0	1375
70	392	1665
71	732	1322
72	74	880
73	1619	2275
74	1310	2395
75	358	2205
76	170	1948
77	1046	1685
78	1157	1791
79	1533	2412
80	1206	2783
81	1097	2804
82	1793	2482
83	1937	2621
84	720	1334
85	1106	1811
86	878	1330
87	905	2757
88	1501	2357
89	799	1381
90	1680	1956
91	81	928
92	682	2241
93	219	1701
94	1795	2395
95	696	2496
96	1064	2493
97	1190	2780
98	786	1959
99	968	1336
100	1130	2891
101	937	1513
102	775	1987
103	283	1212
104	1246	2421
105	141	1495
106	339	2163
107	173	1292
108	1158	1917
109	1123	2755
110	1100	2746
111	483	1664
112	1090	2513
113	758	1864
114	0	1669
115	728	1749
116	414	1977
117	1050	1495
118	538	1852
119	1094	1678
120	217	735
121	433	2185
122	1161	1683
123	2199	2579
124	1225	2283
125	1191	1634
126	790	2200
127	717	1277
128	829	1607
129	521	1509
130	519	1010
131	671	2646
132	147	1587
133	390	1662
134	0	1287
135	619	2577
136	786	1587
137	1492	2272
138	989	2714
139	1290	2520
140	450	2137
141	0	1740
142	438	1810
143	491	859
144	1199	2656
145	192	1659
146	1103	3000
147	738	1756
148	851	1984
149	1207	1642
150	301	1196
151	438	1882
152	1275	1843
153	1078	2575
154	514	1918
155	1832	2189
156	1503	2261
157	1653	3000
158	33	1964
159	780	1179
160	433	2153
161	1249	3000
162	594	1676
163	1315	1748
164	811	1709
165	0	1534
166	283	1684
167	0	1347
168	1709	1997
169	689	2340
170	324	2177
171	767	1985
172	940	2408
173	1962	2580
174	769	1804
175	2090	2450
176	1345	2991
177	1378	2698
178	158	1726
179	779	1568
180	0	1597
181	903	1853
182	1034	1990
183	0	1931
184	0	940
185	1595	3000
186	1652	2651
187	1002	2531
188	277	504
189	1096	1914
190	961	1680
191	668	1152
192	2189	2424
193	950	2685
194	600	1376
195	512	2168
196	1467	3000
197	758	2524
198	435	2180
199	1173	2320
200	1051	2810
201	106	951
202	880	2350
203	1776	2053
204	0	1137
205	1482	2273
206	711	1542
207	1274	1494
208	1035	1831
209	1221	2263
210	718	2074
211	749	2744
212	516	1175
213	841	1984
214	1287	1546
215	577	2120
216	137	1735
217	715	2381
218	1118	1614
219	327	1170
220	0	1493
221	820	1706
222	657	2636
223	1034	2433
224	487	2099
225	1044	2399
226	80	1982
227	183	703
228	1686	3000
229	435	1829
230	827	1069
231	691	986
232	1908	2129
233	0	879
234	1635	1915
235	242	1331
236	1307	2029
237	1336	1835
238	239	1925
239	57	1954
240	614	1050
241	1473	2988
242	169	2166
243	835	1588
244	473	2050
245	1231	2069
246	238	1731
247	955	2922
248	468	1556
249	71	1405
250	441	1952
251	487	1781
252	729	1206
253	729	969
254	1762	2955
255	918	1444
256	725	2485
257	960	1652
258	635	2087
259	927	1695
260	511	1668
261	484	2259
262	1524	1903
263	785	1588
264	133	891
265	767	1841
266	604	1813
267	1624	2701
268	353	2015
269	849	1476
270	1559	2818
271	1130	2215
272	1270	2496
273	1912	2144
274	292	2119
275	1389	2388
276	1244	2745
277	1203	2823
278	340	1586
279	948	1658
280	1610	3000
281	1307	2107
282	1387	2773
283	770	1865
284	1748	2387
285	1111	2705
286	1468	1730
287	1062	1731
288	480	1178
289	658	2486
290	0	1367
291	721	2297
292	1703	2560
293	0	1383
294	1596	2570
295	365	928
296	906	1183
297	0	1567
298	1199	2619
299	1530	2605
300	225	1116
301	708	949
302	693	1857
303	497	1101
304	1840	2228
305	861	1933
306	551	2510
307	508	1805
308	576	1435
309	1330	2168
310	837	1987
311	1462	1744
312	777	2431
313	574	2030
314	997	2072
315	1080	1483
316	0	1407
317	1477	1782
318	661	2069
319	1218	3000
320	1714	2930
321	301	1241
322	1067	2625
323	2177	2617
324	376	2287
325	654	1261
326	1880	2564
327	376	1169
328	1039	2887
329	584	1685
330	1709	2273
331	635	2531
332	1143	2694
333	1477	1836
334	999	2498
335	548	2392
336	403	2094
337	1298	2678
338	334	2214
339	244	1428
340	881	1659
341	907	1387
342	223	2172
343	1390	2894
344	1045	2147
345	0	1555
346	0	975
347	958	1290
348	1612	2425
349	614	1125
350	722	2154
351	937	1491
352	699	2086
353	954	2261
354	1588	1806
355	1596	2851
356	736	1511
357	1692	2740
358	45	1632
359	1504	2846
360	1608	2279
361	845	2495
362	1520	3000
363	1591	2139
364	834	2209
365	1207	1596
366	500	2299
367	92	405
368	1679	2234
369	1306	1799
370	567	1589
371	866	2242
372	807	2178
373	815	1578
374	854	1978
375	870	2589
376	1472	1696
377	1144	1582
378	1360	2672
379	990	1583
380	840	1665
381	558	1528
382	541	2379
383	1092	1814
384	1493	1749
385	1002	2412
386	416	2172
387	985	2407
388	1471	2329
389	731	1401
390	1221	1519
391	1155	2296
392	258	1232
393	1199	2826
394	559	2102
395	1039	1677
396	891	2840
397	608	2087
398	517	2109
399	741	2192
400	523	1986
401	953	1810
402	1549	2193
403	0	1537
404	930	2577
405	348	740
406	0	1210
407	1212	1820
408	1287	1848
409	1231	1863
410	511	2397
411	1399	1797
412	374	1684
413	186	1207
414	110	1880
415	963	1455
416	1189	2055
417	967	1882
418	949	2311
419	677	2669
420	495	853
421	1289	2842
422	868	2121
423	1110	1808
424	940	1889
425	554	2343
426	757	2308
427	1690	2840
428	1106	2380
429	1477	1705
430	327	2279
431	691	2384
432	1682	1965
433	1106	3000
434	1520	2565
435	2009	2481
436	0	631
437	720	1374
438	440	948
439	325	1943
440	103	1395
441	552	2094
442	1153	2159
443	443	1178
444	840	1258
445	646	1893
446	177	2091
447	0	1795
448	1025	2104
449	1813	2201
450	257	2257
451	561	1279
452	1864	2259
453	960	1278
454	1013	2189
455	728	1613
456	906	1334
457	252	1489
458	0	1485
459	212	829
460	1452	2793
461	0	1751
462	567	1697
463	1649	2114
464	989	2226
465	755	1964
466	683	2428
467	739	1193
468	2089	2790
469	429	2382
470	693	1571
471	1398	2733
472	474	2359
473	1276	1854
474	1588	1817
475	1176	2866
476	490	1072
477	1102	2970
478	1174	1592
479	406	2152
480	652	2237
481	1337	2292
482	890	1847
483	606	1671
484	882	1427
485	1409	3000
486	853	2077
487	865	1327
488	1605	1852
489	699	1706
490	696	2544
491	700	1843
492	915	2759
493	1490	1798
494	0	1511
495	1257	2630
496	1558	3000
497	634	2477
498	1139	2183
499	1079	1447
500	353	1033
501	894	1651
BACKHAUL_SECTION
3	12	14	17	22	25	28	41	42	43	60	68	72	81	86	88	91	95	97	100	109	117	118	120	121	125	130	142	143	145	149	153	158	162	167	171	181	187	190	194	196	197	199	215	217	225	226	228	230	236	239	244	260	264	267	270	272	275	279	282	284	287	288	304	311	316	317	325	338	342	357	366	368	374	376	383	394	395	396	398	399	402	410	412	425	426	429	439	443	448	449	457	460	473	475	477	485	491	496	499	-1
DEPOT_SECTION
1
-1
EOF
