NAME : n501-0024
COMMENT : "Generated by pyvrp_manuel (OVRPBTW)"
TYPE : OVRPBTW
DIMENSION : 501
EDGE_WEIGHT_TYPE : EUC_2D
CAPACITY : 100
VEHICLES : 500
OPEN_ROUTE : YES
SERVICE_TIME : 200
NODE_COORD_SECTION
1	156	908
2	452	719
3	405	225
4	946	100
5	201	698
6	994	747
7	837	257
8	527	56
9	682	284
10	315	26
11	953	830
12	193	168
13	229	588
14	5	555
15	233	770
16	294	730
17	317	320
18	474	214
19	167	75
20	97	187
21	70	771
22	425	166
23	973	740
24	847	358
25	940	210
26	228	519
27	356	773
28	226	957
29	360	811
30	552	767
31	857	602
32	1	696
33	629	901
34	597	540
35	480	182
36	964	73
37	356	950
38	665	857
39	754	301
40	176	761
41	698	521
42	565	819
43	436	446
44	118	522
45	557	534
46	906	574
47	698	543
48	318	603
49	328	364
50	306	826
51	310	76
52	869	922
53	738	459
54	819	743
55	133	109
56	726	7
57	917	160
58	971	742
59	214	272
60	806	35
61	264	122
62	773	507
63	897	982
64	405	134
65	277	948
66	176	497
67	626	551
68	769	637
69	24	696
70	78	828
71	777	291
72	77	614
73	202	572
74	409	790
75	560	348
76	344	254
77	706	427
78	59	824
79	308	922
80	631	557
81	230	370
82	821	994
83	116	685
84	26	870
85	138	676
86	973	168
87	679	377
88	576	883
89	227	145
90	565	474
91	907	851
92	420	291
93	501	389
94	178	815
95	658	956
96	899	831
97	743	124
98	417	793
99	109	553
100	21	888
101	323	26
102	539	79
103	946	316
104	428	652
105	285	941
106	704	558
107	582	749
108	28	858
109	41	210
110	846	951
111	830	686
112	699	584
113	756	808
114	645	457
115	977	918
116	442	253
117	519	327
118	722	535
119	880	371
120	623	310
121	386	195
122	450	983
123	204	48
124	485	888
125	109	677
126	395	951
127	952	857
128	134	778
129	632	6
130	907	789
131	21	833
132	174	406
133	547	963
134	455	266
135	434	192
136	507	902
137	237	841
138	841	97
139	427	948
140	68	712
141	358	797
142	187	595
143	858	773
144	85	83
145	490	999
146	783	513
147	50	967
148	602	13
149	316	357
150	373	493
151	734	30
152	699	457
153	750	514
154	811	333
155	168	914
156	374	530
157	138	534
158	570	430
159	323	504
160	844	514
161	643	456
162	302	751
163	661	809
164	118	866
165	92	413
166	538	674
167	281	634
168	997	174
169	326	370
170	819	886
171	489	843
172	667	292
173	675	907
174	165	782
175	711	220
176	828	516
177	520	114
178	121	318
179	207	661
180	316	995
181	717	935
182	420	479
183	366	759
184	280	513
185	355	395
186	759	66
187	673	351
188	955	774
189	305	305
190	929	248
191	433	327
192	497	660
193	285	996
194	781	362
195	190	547
196	758	870
197	416	721
198	524	39
199	150	263
200	379	191
201	390	357
202	915	733
203	980	57
204	813	962
205	152	573
206	661	980
207	86	232
208	275	823
209	988	202
210	447	502
211	808	336
212	448	182
213	138	132
214	40	419
215	10	144
216	108	320
217	44	278
218	589	721
219	176	418
220	669	11
221	192	716
222	434	824
223	344	136
224	729	592
225	874	91
226	680	899
227	630	230
228	97	519
229	363	888
230	445	335
231	677	276
232	319	47
233	149	576
234	54	602
235	90	497
236	825	38
237	170	509
238	136	902
239	916	140
240	968	964
241	616	802
242	955	938
243	923	66
244	558	99
245	841	807
246	307	548
247	180	116
248	853	579
249	98	933
250	106	120
251	873	277
252	159	944
253	188	805
254	233	420
255	912	784
256	692	193
257	745	504
258	283	750
259	438	99
260	96	477
261	247	460
262	824	144
263	146	785
264	270	629
265	868	960
266	845	832
267	919	204
268	651	99
269	771	551
270	900	437
271	631	530
272	16	471
273	800	925
274	797	267
275	675	496
276	346	771
277	227	895
278	586	268
279	655	267
280	840	888
281	691	593
282	715	700
283	796	718
284	703	435
285	979	237
286	278	500
287	478	289
288	750	72
289	612	89
290	408	728
291	724	687
292	627	613
293	250	976
294	257	644
295	484	474
296	473	476
297	26	279
298	956	963
299	328	240
300	975	982
301	798	691
302	672	243
303	783	821
304	805	98
305	714	698
306	176	452
307	968	68
308	892	267
309	864	659
310	264	247
311	45	912
312	445	268
313	908	55
314	144	444
315	226	680
316	296	334
317	62	645
318	746	362
319	291	872
320	802	801
321	630	982
322	395	863
323	671	275
324	248	980
325	425	208
326	846	385
327	58	607
328	333	341
329	332	10
330	503	812
331	60	217
332	612	336
333	456	861
334	941	826
335	419	805
336	955	534
337	412	482
338	647	849
339	892	494
340	675	344
341	411	104
342	520	768
343	989	337
344	382	336
345	114	34
346	169	886
347	522	90
348	243	191
349	424	69
350	661	694
351	266	198
352	543	356
353	528	323
354	624	215
355	515	918
356	349	693
357	140	115
358	232	943
359	698	885
360	784	79
361	12	636
362	710	980
363	982	168
364	9	379
365	728	555
366	95	926
367	393	408
368	720	403
369	650	550
370	236	474
371	909	923
372	657	94
373	785	220
374	602	682
375	816	446
376	12	415
377	199	529
378	444	762
379	42	361
380	618	584
381	851	860
382	75	363
383	952	24
384	595	717
385	191	127
386	459	613
387	68	517
388	260	275
389	188	517
390	677	300
391	969	986
392	505	780
393	423	817
394	71	996
395	717	842
396	667	373
397	126	395
398	935	236
399	22	602
400	676	925
401	41	289
402	926	399
403	191	332
404	589	894
405	269	290
406	811	490
407	793	182
408	725	371
409	598	842
410	917	260
411	234	503
412	778	135
413	315	411
414	609	247
415	421	866
416	454	561
417	41	813
418	800	919
419	738	201
420	637	302
421	539	613
422	767	520
423	722	892
424	562	432
425	9	224
426	359	742
427	142	504
428	388	510
429	185	631
430	132	559
431	684	647
432	781	457
433	665	301
434	189	186
435	242	579
436	854	136
437	192	761
438	407	48
439	743	15
440	15	987
441	360	339
442	474	688
443	970	550
444	455	587
445	705	324
446	607	231
447	647	928
448	408	945
449	573	431
450	141	13
451	884	182
452	908	32
453	614	550
454	407	363
455	949	563
456	790	158
457	946	486
458	319	60
459	544	680
460	948	680
461	84	872
462	12	656
463	612	600
464	301	859
465	627	866
466	666	769
467	424	349
468	330	507
469	162	610
470	216	597
471	493	361
472	416	974
473	424	377
474	629	920
475	633	771
476	332	786
477	846	947
478	185	957
479	188	680
480	51	402
481	343	183
482	331	98
483	239	160
484	264	269
485	961	801
486	625	201
487	980	823
488	443	976
489	851	289
490	760	933
491	993	629
492	928	477
493	485	880
494	215	861
495	948	437
496	262	954
497	374	978
498	411	241
499	990	18
500	80	329
501	247	79
DEMAND_SECTION
1	0
2	5
3	4
4	5
5	1
6	2
7	9
8	5
9	2
10	1
11	1
12	9
13	5
14	9
15	7
16	7
17	2
18	8
19	8
20	2
21	3
22	5
23	8
24	5
25	7
26	6
27	1
28	5
29	6
30	3
31	1
32	9
33	3
34	9
35	7
36	9
37	4
38	7
39	7
40	7
41	5
42	6
43	4
44	3
45	5
46	4
47	4
48	7
49	7
50	9
51	7
52	9
53	8
54	1
55	3
56	8
57	1
58	5
59	5
60	6
61	7
62	9
63	7
64	1
65	5
66	9
67	3
68	3
69	3
70	7
71	9
72	3
73	8
74	7
75	7
76	2
77	8
78	9
79	1
80	8
81	9
82	1
83	9
84	2
85	1
86	6
87	4
88	8
89	4
90	8
91	1
92	4
93	8
94	3
95	2
96	2
97	5
98	6
99	7
100	3
101	7
102	9
103	4
104	7
105	6
106	9
107	4
108	4
109	2
110	9
111	2
112	4
113	1
114	5
115	4
116	3
117	4
118	6
119	8
120	6
121	3
122	8
123	6
124	3
125	2
126	7
127	1
128	3
129	2
130	7
131	2
132	7
133	8
134	3
135	8
136	8
137	8
138	9
139	5
140	6
141	7
142	4
143	7
144	2
145	3
146	3
147	7
148	2
149	4
150	7
151	5
152	4
153	5
154	9
155	6
156	7
157	5
158	7
159	8
160	8
161	2
162	5
163	2
164	5
165	6
166	5
167	8
168	8
169	5
170	7
171	3
172	6
173	9
174	3
175	8
176	1
177	4
178	8
179	3
180	5
181	6
182	4
183	8
184	7
185	6
186	4
187	3
188	4
189	8
190	9
191	1
192	9
193	6
194	2
195	1
196	2
197	5
198	4
199	2
200	4
201	1
202	4
203	1
204	7
205	4
206	9
207	2
208	8
209	1
210	2
211	1
212	7
213	1
214	4
215	7
216	5
217	3
218	4
219	5
220	9
221	2
222	3
223	3
224	7
225	3
226	2
227	6
228	1
229	4
230	7
231	5
232	6
233	8
234	8
235	4
236	1
237	5
238	5
239	3
240	9
241	8
242	5
243	2
244	4
245	1
246	9
247	2
248	8
249	8
250	9
251	2
252	1
253	7
254	9
255	3
256	3
257	1
258	7
259	6
260	7
261	1
262	1
263	2
264	9
265	2
266	5
267	3
268	9
269	8
270	6
271	8
272	6
273	3
274	6
275	9
276	1
277	9
278	2
279	2
280	8
281	6
282	7
283	4
284	8
285	2
286	3
287	9
288	9
289	8
290	6
291	9
292	6
293	1
294	5
295	2
296	4
297	2
298	5
299	1
300	8
301	4
302	3
303	2
304	3
305	1
306	1
307	4
308	7
309	1
310	5
311	7
312	9
313	8
314	5
315	2
316	2
317	6
318	3
319	6
320	8
321	4
322	8
323	7
324	9
325	5
326	9
327	7
328	3
329	4
330	9
331	4
332	7
333	9
334	6
335	3
336	1
337	5
338	3
339	9
340	7
341	5
342	1
343	5
344	1
345	6
346	8
347	8
348	9
349	6
350	8
351	6
352	5
353	4
354	2
355	6
356	8
357	6
358	8
359	3
360	6
361	7
362	7
363	7
364	1
365	4
366	2
367	9
368	2
369	3
370	3
371	2
372	6
373	8
374	6
375	4
376	8
377	4
378	4
379	3
380	6
381	4
382	2
383	7
384	4
385	4
386	5
387	7
388	9
389	7
390	4
391	6
392	8
393	6
394	7
395	6
396	5
397	4
398	8
399	1
400	6
401	2
402	4
403	9
404	3
405	4
406	1
407	4
408	3
409	6
410	4
411	3
412	1
413	8
414	6
415	9
416	6
417	5
418	8
419	5
420	6
421	2
422	1
423	8
424	5
425	2
426	3
427	3
428	7
429	6
430	2
431	6
432	4
433	3
434	5
435	3
436	6
437	8
438	3
439	7
440	8
441	4
442	4
443	4
444	3
445	1
446	5
447	9
448	7
449	2
450	9
451	4
452	4
453	1
454	1
455	4
456	1
457	2
458	4
459	6
460	9
461	4
462	4
463	5
464	5
465	1
466	9
467	7
468	3
469	4
470	5
471	6
472	7
473	9
474	7
475	7
476	9
477	2
478	7
479	5
480	4
481	5
482	7
483	2
484	2
485	4
486	8
487	8
488	2
489	1
490	2
491	5
492	6
493	9
494	3
495	1
496	4
497	7
498	8
499	1
500	5
501	3
TIME_WINDOW_SECTION
1	0	3000
2	1529	2389
3	1702	2426
4	761	2269
5	465	1321
6	1137	1957
7	275	1909
8	493	2178
9	981	2107
10	1036	2145
11	1052	1305
12	769	2130
13	651	1962
14	1793	2892
15	408	2225
16	101	1908
17	1852	2250
18	0	1888
19	1660	1979
20	1547	2152
21	370	2133
22	1217	1632
23	265	2071
24	853	1697
25	1057	2071
26	1403	1838
27	1433	2716
28	0	777
29	0	1517
30	627	1866
31	1361	2383
32	1723	2473
33	511	2380
34	1273	3000
35	1177	1909
36	926	2088
37	0	1067
38	438	2390
39	808	2781
40	1051	1974
41	1494	1968
42	1230	2652
43	943	1883
44	717	1255
45	1070	1977
46	491	2093
47	1427	2134
48	478	2055
49	508	1588
50	1111	1391
51	236	1567
52	1280	1888
53	491	2265
54	660	2582
55	1641	2205
56	735	1557
57	841	1903
58	0	1910
59	1427	1899
60	1186	2001
61	1190	1451
62	1136	2164
63	190	1922
64	1178	2239
65	895	2360
66	180	1526
67	1418	1907
68	874	1146
69	433	897
70	30	1897
71	496	2088
72	699	1688
73	1971	2653
74	965	2779
75	0	1704
76	299	1381
77	378	1756
78	0	843
79	2041	2375
80	787	1287
81	1208	1568
82	945	1787
83	1578	2745
84	1662	2629
85	912	1150
86	828	1847
87	0	1671
88	802	1977
89	476	1961
90	445	1610
91	1345	2731
92	616	1050
93	354	1093
94	665	1634
95	119	1435
96	1656	2269
97	1384	1716
98	565	911
99	2085	2716
100	584	2030
101	870	1117
102	911	1957
103	1047	2574
104	637	1593
105	0	1162
106	0	1777
107	1545	2300
108	598	984
109	680	1315
110	979	1577
111	386	1454
112	1119	2769
113	1376	2947
114	887	1756
115	1011	2873
116	1151	1433
117	642	2162
118	735	1828
119	744	1356
120	1781	2220
121	745	1576
122	116	1567
123	511	1374
124	797	2252
125	713	1820
126	1084	2990
127	1601	2301
128	1750	3000
129	437	1979
130	1134	1829
131	404	2318
132	421	822
133	1607	1918
134	66	1662
135	0	1804
136	1811	2914
137	230	1895
138	1168	2089
139	1251	2675
140	810	1452
141	2104	2337
142	0	1438
143	589	2253
144	239	1729
145	1372	1919
146	820	2420
147	0	752
148	931	2665
149	170	1288
150	1588	2947
151	366	2112
152	423	2160
153	1062	2417
154	577	1869
155	810	1356
156	1808	2324
157	845	1477
158	1773	2383
159	1672	1956
160	765	1828
161	1043	1297
162	1720	2961
163	0	1435
164	401	716
165	0	1572
166	89	1888
167	1093	2066
168	599	1770
169	234	1992
170	836	1827
171	89	1685
172	1241	2205
173	549	1366
174	1942	2775
175	557	1728
176	0	1698
177	1503	2202
178	226	2198
179	1192	2878
180	349	1185
181	348	987
182	1161	2463
183	0	972
184	1053	1748
185	904	1590
186	395	2108
187	1107	1924
188	927	2567
189	1322	2105
190	219	2176
191	1217	2567
192	1184	1565
193	1300	1752
194	1747	2062
195	815	2096
196	1329	2331
197	761	1101
198	899	2597
199	1011	1319
200	1270	1731
201	909	2563
202	665	2111
203	1137	2058
204	680	2246
205	96	580
206	1339	1658
207	711	2207
208	1727	3000
209	730	1570
210	123	1371
211	680	2434
212	931	1784
213	1038	2779
214	720	1975
215	721	1019
216	593	856
217	1249	2022
218	1375	2100
219	1724	2024
220	271	2181
221	1496	2414
222	0	1439
223	517	2174
224	845	1345
225	463	2090
226	100	1695
227	433	1340
228	846	2351
229	883	1895
230	589	2096
231	993	2311
232	655	1938
233	50	1179
234	692	1241
235	1087	1674
236	813	2122
237	898	2149
238	1818	2189
239	1089	1655
240	412	1469
241	806	1629
242	895	1378
243	571	2171
244	588	2356
245	891	1102
246	998	1493
247	799	1473
248	371	1207
249	857	1917
250	679	2053
251	1013	2361
252	566	918
253	527	1489
254	1289	1827
255	1413	2092
256	927	1439
257	662	1165
258	0	1153
259	898	2700
260	1425	2239
261	918	2336
262	327	2032
263	1674	3000
264	400	1218
265	786	1723
266	1326	2173
267	585	1640
268	336	2288
269	676	2252
270	1423	2145
271	836	2124
272	282	1312
273	626	2059
274	1631	2041
275	341	1659
276	1070	2042
277	38	1899
278	470	1085
279	1219	2406
280	432	1613
281	977	2003
282	513	2097
283	1155	1529
284	1565	2285
285	883	2005
286	0	1280
287	1225	2251
288	196	1988
289	1497	2152
290	1214	2536
291	1009	2144
292	776	2091
293	315	2080
294	165	1618
295	1342	3000
296	913	1170
297	1215	2166
298	661	1683
299	619	1441
300	1514	2167
301	332	1392
302	209	1489
303	1417	2069
304	1009	2193
305	13	1849
306	1616	2602
307	1005	1680
308	1307	2215
309	1382	2374
310	1511	1998
311	1118	3000
312	1308	2817
313	584	2538
314	591	2346
315	326	1465
316	1391	2744
317	1306	2751
318	1249	2592
319	1124	1933
320	324	2232
321	1781	2100
322	1208	2553
323	68	1724
324	280	899
325	791	1153
326	934	2713
327	808	2647
328	551	2462
329	774	1379
330	704	1094
331	493	2338
332	625	1068
333	1087	1508
334	1472	1966
335	632	942
336	1556	2137
337	484	711
338	77	1229
339	714	2150
340	1430	1938
341	822	2056
342	578	1197
343	1048	1930
344	649	2224
345	1018	1610
346	0	1088
347	862	2845
348	1453	2491
349	288	1508
350	1614	2559
351	545	1631
352	1341	2623
353	572	1774
354	754	1701
355	0	1465
356	1499	1711
357	1085	2373
358	1626	3000
359	1421	2641
360	223	1951
361	1017	2545
362	763	1427
363	1128	1741
364	880	1110
365	765	1590
366	1112	1376
367	1903	2159
368	1095	2954
369	1623	2127
370	273	1592
371	1490	2260
372	1471	1819
373	1428	1845
374	0	1683
375	723	1061
376	391	1150
377	0	1334
378	107	2072
379	1133	2345
380	113	1195
381	944	1836
382	1373	2219
383	964	1776
384	1271	3000
385	557	1533
386	1370	1723
387	364	2334
388	69	1456
389	1132	2929
390	1138	1622
391	1349	1966
392	1385	2524
393	1588	1980
394	935	1926
395	1390	2690
396	1425	2145
397	1970	2536
398	471	2343
399	311	1269
400	555	2468
401	839	1149
402	797	1199
403	1113	1799
404	1432	2764
405	592	1583
406	1386	1672
407	677	1779
408	1475	1967
409	1503	2323
410	759	1260
411	663	2556
412	658	1416
413	716	2035
414	83	1552
415	1239	2875
416	716	1907
417	2490	2721
418	637	1399
419	970	2180
420	913	2732
421	516	1372
422	788	2193
423	909	2803
424	1448	1979
425	1017	2651
426	1478	1830
427	1686	2019
428	1469	1867
429	0	1150
430	1045	1911
431	861	2164
432	288	1546
433	289	2044
434	109	1889
435	0	975
436	809	1281
437	1165	2643
438	325	1642
439	311	1933
440	2110	2465
441	1341	2366
442	1432	3000
443	1136	2630
444	546	1019
445	590	1783
446	978	1994
447	0	1762
448	1076	2726
449	1657	2166
450	1177	1877
451	367	2352
452	768	1934
453	628	1059
454	181	1467
455	826	1877
456	1334	2128
457	489	1306
458	1084	2567
459	869	2019
460	1191	1781
461	781	1633
462	204	1027
463	1388	1660
464	456	2054
465	53	1452
466	1432	2993
467	744	2210
468	0	1436
469	1489	2595
470	1636	2492
471	973	2695
472	450	1748
473	823	1046
474	683	2563
475	1095	1795
476	1148	2803
477	1413	1764
478	220	997
479	1677	3000
480	1039	1350
481	261	1583
482	1660	2155
483	192	1602
484	623	1428
485	318	1649
486	1279	1589
487	996	2022
488	1722	2060
489	957	1615
490	522	1530
491	169	2110
492	1329	2118
493	0	1226
494	1312	2388
495	1429	1652
496	34	766
497	618	1534
498	1056	1329
499	741	2213
500	1262	1926
501	1143	1617
BACKHAUL_SECTION
3	12	14	17	22	25	28	41	42	43	60	68	72	81	86	88	91	95	97	100	109	117	118	120	121	125	130	142	143	145	149	153	158	162	167	171	181	187	190	194	196	197	199	215	217	225	226	228	230	236	239	244	260	264	267	270	272	275	279	282	284	287	288	304	311	316	317	325	338	342	357	366	368	374	376	383	394	395	396	398	399	402	410	412	425	426	429	439	443	448	449	457	460	473	475	477	485	491	496	499	-1
DEPOT_SECTION
1
-1
EOF
