NAME : n1001-0048
COMMENT : "Generated by pyvrp_manuel (OVRPTW)"
TYPE : OVRPTW
DIMENSION : 1001
EDGE_WEIGHT_TYPE : EUC_2D
CAPACITY : 150
VEHICLES : 1000
OPEN_ROUTE : YES
SERVICE_TIME : 200
NODE_COORD_SECTION
1	719	489
2	860	147
3	102	703
4	192	340
5	399	861
6	408	663
7	366	545
8	349	450
9	633	268
10	645	882
11	665	441
12	484	696
13	657	927
14	736	752
15	953	590
16	837	531
17	958	863
18	362	436
19	588	27
20	688	26
21	581	571
22	528	945
23	873	701
24	822	273
25	427	999
26	489	944
27	833	290
28	287	304
29	703	581
30	711	858
31	465	496
32	973	603
33	64	98
34	315	37
35	540	367
36	314	79
37	32	524
38	927	519
39	126	277
40	262	703
41	712	241
42	777	902
43	912	142
44	369	852
45	831	604
46	699	820
47	524	441
48	961	29
49	964	206
50	237	268
51	470	616
52	504	118
53	97	384
54	590	674
55	309	665
56	425	220
57	620	713
58	925	668
59	345	46
60	602	871
61	231	896
62	54	145
63	741	593
64	773	409
65	5	76
66	629	424
67	118	682
68	817	446
69	83	302
70	819	293
71	627	838
72	584	272
73	184	955
74	197	447
75	737	354
76	592	993
77	838	405
78	904	772
79	251	754
80	543	217
81	518	793
82	890	19
83	924	497
84	493	631
85	176	830
86	213	128
87	928	563
88	215	961
89	864	276
90	18	183
91	558	153
92	52	629
93	75	580
94	591	555
95	976	86
96	882	53
97	132	72
98	329	322
99	172	700
100	714	879
101	921	268
102	157	810
103	881	977
104	134	373
105	458	899
106	872	272
107	200	648
108	84	331
109	377	524
110	444	42
111	281	677
112	618	637
113	827	137
114	27	51
115	650	780
116	859	129
117	178	525
118	930	237
119	932	494
120	66	921
121	439	748
122	8	783
123	617	822
124	445	490
125	578	106
126	378	788
127	200	617
128	653	174
129	720	121
130	2	10
131	446	939
132	431	414
133	237	42
134	702	866
135	726	945
136	851	145
137	582	531
138	445	391
139	112	741
140	323	720
141	792	394
142	633	250
143	643	804
144	922	353
145	63	897
146	615	212
147	322	592
148	694	26
149	887	422
150	288	359
151	82	286
152	321	684
153	960	286
154	44	207
155	745	38
156	245	707
157	715	429
158	480	270
159	955	506
160	953	790
161	884	256
162	559	331
163	986	117
164	818	665
165	363	864
166	874	835
167	487	823
168	948	40
169	833	595
170	871	980
171	892	767
172	32	873
173	169	24
174	61	241
175	638	51
176	515	859
177	390	300
178	693	674
179	24	420
180	990	899
181	282	566
182	116	288
183	981	843
184	375	556
185	614	98
186	143	198
187	828	755
188	991	614
189	772	916
190	422	217
191	864	23
192	617	571
193	98	924
194	496	243
195	139	638
196	484	837
197	728	308
198	557	194
199	604	120
200	126	493
201	252	879
202	399	532
203	606	43
204	220	876
205	207	851
206	484	617
207	59	430
208	659	176
209	965	292
210	273	0
211	678	126
212	441	385
213	945	897
214	816	856
215	666	887
216	610	665
217	411	70
218	609	980
219	505	911
220	430	556
221	669	940
222	725	511
223	478	13
224	224	478
225	369	482
226	545	4
227	537	475
228	496	95
229	189	694
230	97	993
231	561	327
232	715	379
233	561	202
234	673	699
235	44	731
236	752	953
237	511	986
238	895	915
239	7	392
240	540	199
241	568	52
242	506	181
243	70	490
244	306	151
245	5	926
246	655	583
247	330	515
248	452	82
249	802	926
250	245	288
251	922	538
252	104	158
253	257	255
254	551	267
255	388	965
256	814	428
257	834	960
258	507	582
259	912	808
260	617	625
261	911	636
262	617	773
263	233	21
264	486	20
265	963	99
266	360	336
267	750	611
268	591	523
269	357	535
270	171	257
271	437	781
272	361	317
273	94	237
274	898	736
275	346	6
276	17	788
277	351	312
278	934	601
279	240	16
280	112	427
281	99	249
282	883	586
283	180	296
284	149	250
285	450	837
286	652	602
287	304	392
288	912	68
289	25	837
290	73	184
291	201	278
292	396	164
293	895	887
294	876	109
295	999	790
296	235	831
297	502	20
298	675	502
299	51	240
300	930	681
301	971	106
302	195	237
303	30	998
304	195	230
305	936	689
306	673	213
307	939	369
308	6	628
309	151	915
310	511	185
311	617	913
312	718	947
313	992	125
314	509	525
315	739	4
316	438	883
317	922	612
318	51	367
319	740	276
320	374	90
321	288	906
322	846	778
323	813	709
324	365	98
325	426	355
326	31	100
327	393	101
328	809	514
329	122	514
330	369	892
331	742	455
332	301	282
333	376	257
334	567	593
335	166	140
336	222	35
337	167	374
338	669	97
339	41	848
340	466	743
341	590	459
342	416	160
343	336	424
344	414	59
345	655	547
346	30	404
347	759	501
348	510	273
349	452	89
350	828	731
351	677	1
352	660	802
353	181	436
354	926	276
355	29	939
356	566	171
357	578	609
358	54	179
359	332	89
360	437	702
361	768	772
362	764	102
363	536	972
364	728	153
365	48	277
366	427	777
367	10	533
368	602	892
369	300	228
370	93	894
371	218	684
372	163	164
373	18	114
374	18	290
375	604	227
376	820	874
377	126	610
378	549	688
379	968	434
380	748	116
381	409	522
382	844	601
383	418	356
384	36	469
385	212	160
386	533	733
387	153	964
388	363	644
389	824	563
390	937	68
391	191	242
392	210	385
393	65	520
394	321	579
395	90	387
396	390	797
397	489	891
398	991	751
399	182	508
400	53	374
401	6	439
402	89	720
403	313	790
404	813	71
405	228	519
406	957	353
407	84	207
408	19	640
409	28	276
410	49	483
411	450	277
412	855	890
413	110	390
414	398	484
415	186	859
416	248	813
417	320	914
418	571	780
419	868	596
420	810	717
421	140	880
422	748	815
423	589	452
424	328	115
425	38	333
426	923	914
427	428	350
428	813	286
429	608	940
430	333	659
431	603	898
432	319	388
433	965	589
434	891	553
435	727	298
436	811	268
437	850	608
438	866	830
439	322	653
440	844	986
441	811	474
442	712	395
443	553	534
444	341	313
445	176	902
446	792	545
447	448	676
448	490	274
449	114	548
450	987	980
451	436	646
452	136	111
453	879	736
454	45	11
455	318	617
456	535	445
457	479	194
458	824	75
459	129	823
460	952	982
461	61	221
462	537	592
463	751	657
464	455	291
465	727	522
466	634	903
467	816	161
468	329	307
469	601	952
470	735	987
471	572	22
472	938	550
473	909	371
474	165	548
475	976	803
476	218	233
477	275	202
478	395	125
479	253	587
480	343	831
481	958	790
482	540	154
483	73	294
484	273	372
485	704	60
486	423	876
487	23	853
488	946	419
489	745	604
490	909	814
491	932	936
492	390	547
493	357	731
494	108	42
495	769	355
496	658	230
497	22	444
498	825	294
499	196	46
500	51	231
501	515	999
502	581	420
503	293	580
504	479	133
505	459	226
506	406	145
507	159	251
508	393	97
509	319	93
510	383	257
511	289	76
512	757	137
513	921	944
514	80	724
515	767	390
516	917	691
517	836	558
518	299	292
519	672	374
520	385	356
521	324	105
522	242	317
523	873	992
524	419	119
525	201	769
526	962	506
527	193	428
528	662	849
529	599	496
530	57	126
531	751	996
532	716	437
533	112	293
534	27	619
535	410	379
536	563	107
537	545	609
538	585	470
539	937	857
540	741	686
541	51	11
542	49	537
543	835	505
544	819	782
545	648	366
546	275	892
547	942	371
548	532	593
549	637	750
550	696	666
551	679	657
552	923	45
553	414	832
554	142	868
555	183	83
556	319	361
557	330	198
558	865	227
559	526	975
560	168	804
561	51	983
562	46	880
563	516	0
564	435	984
565	38	424
566	701	188
567	760	76
568	372	830
569	843	21
570	677	680
571	588	892
572	920	919
573	968	102
574	107	148
575	323	107
576	434	739
577	478	871
578	279	541
579	235	79
580	222	64
581	799	410
582	696	263
583	9	554
584	130	627
585	112	835
586	375	371
587	448	526
588	916	784
589	796	674
590	109	897
591	792	83
592	545	988
593	830	804
594	256	285
595	625	913
596	302	907
597	885	596
598	91	490
599	650	412
600	252	508
601	83	187
602	584	516
603	61	392
604	922	571
605	588	687
606	98	716
607	951	650
608	53	781
609	788	15
610	341	431
611	225	843
612	356	486
613	948	425
614	473	296
615	545	594
616	829	951
617	466	152
618	107	404
619	577	37
620	524	420
621	27	962
622	558	304
623	10	699
624	713	542
625	843	892
626	823	674
627	60	607
628	648	971
629	578	424
630	286	881
631	810	475
632	755	618
633	853	975
634	858	15
635	584	222
636	352	926
637	176	95
638	647	859
639	148	778
640	598	179
641	197	395
642	430	995
643	564	309
644	414	233
645	211	993
646	698	210
647	366	710
648	584	425
649	189	673
650	624	93
651	681	443
652	420	896
653	13	290
654	612	27
655	153	272
656	9	59
657	22	138
658	290	287
659	872	453
660	732	475
661	959	715
662	595	441
663	544	543
664	120	473
665	320	837
666	868	97
667	293	60
668	961	104
669	179	860
670	99	437
671	55	846
672	965	800
673	551	373
674	787	991
675	152	266
676	204	571
677	439	195
678	302	881
679	958	251
680	124	211
681	811	166
682	728	855
683	654	164
684	390	153
685	731	229
686	872	855
687	795	970
688	696	260
689	418	423
690	863	435
691	409	867
692	195	358
693	580	133
694	884	10
695	812	295
696	129	20
697	929	67
698	987	273
699	663	430
700	712	424
701	491	826
702	638	318
703	845	788
704	919	668
705	509	493
706	302	420
707	672	948
708	258	633
709	96	373
710	941	837
711	700	421
712	878	131
713	859	919
714	651	575
715	38	581
716	955	945
717	96	715
718	737	143
719	234	31
720	745	769
721	289	698
722	746	280
723	608	401
724	20	631
725	744	84
726	481	723
727	172	338
728	702	19
729	928	543
730	403	216
731	285	91
732	975	770
733	22	1
734	916	462
735	76	699
736	950	985
737	105	243
738	238	945
739	515	926
740	928	727
741	923	539
742	251	356
743	443	566
744	802	913
745	687	898
746	970	538
747	3	963
748	389	288
749	715	746
750	151	308
751	461	351
752	643	363
753	531	959
754	252	294
755	588	711
756	916	122
757	870	957
758	678	789
759	909	995
760	691	32
761	474	377
762	686	609
763	492	517
764	719	157
765	936	77
766	518	730
767	417	185
768	106	914
769	760	665
770	617	224
771	586	526
772	898	469
773	332	481
774	319	133
775	493	679
776	836	853
777	782	952
778	459	811
779	291	766
780	811	612
781	167	475
782	947	249
783	768	760
784	270	55
785	638	299
786	76	559
787	460	550
788	264	239
789	812	78
790	637	419
791	550	732
792	595	133
793	769	768
794	407	346
795	644	850
796	704	716
797	410	264
798	642	189
799	84	697
800	78	98
801	215	944
802	754	321
803	877	559
804	281	956
805	836	291
806	165	353
807	568	954
808	626	297
809	853	569
810	469	712
811	41	901
812	929	840
813	355	899
814	983	391
815	44	539
816	834	205
817	318	350
818	275	410
819	566	593
820	500	401
821	720	273
822	190	753
823	963	622
824	857	166
825	223	162
826	886	15
827	563	496
828	755	428
829	365	222
830	876	430
831	814	983
832	7	818
833	304	354
834	699	313
835	107	854
836	350	396
837	840	425
838	327	48
839	183	605
840	644	936
841	10	597
842	461	832
843	414	499
844	563	419
845	16	607
846	434	353
847	904	444
848	100	834
849	987	740
850	901	291
851	59	119
852	383	822
853	273	982
854	128	278
855	214	763
856	121	990
857	914	594
858	518	373
859	456	804
860	211	784
861	538	930
862	536	247
863	682	228
864	784	924
865	164	301
866	885	99
867	800	714
868	820	194
869	949	45
870	490	785
871	61	148
872	473	995
873	14	755
874	133	776
875	931	746
876	123	878
877	741	585
878	22	960
879	148	699
880	82	65
881	723	565
882	883	334
883	234	282
884	128	522
885	437	431
886	7	652
887	937	121
888	978	83
889	585	936
890	457	993
891	951	958
892	394	81
893	56	275
894	277	285
895	388	564
896	804	197
897	880	444
898	390	599
899	391	962
900	173	573
901	883	706
902	692	823
903	568	558
904	969	103
905	422	95
906	332	408
907	903	237
908	396	44
909	869	737
910	883	178
911	491	809
912	239	473
913	486	288
914	139	855
915	885	238
916	932	637
917	108	784
918	531	469
919	754	461
920	906	377
921	704	228
922	527	694
923	629	824
924	203	614
925	549	892
926	923	933
927	147	597
928	571	793
929	738	935
930	11	334
931	608	660
932	984	296
933	27	617
934	446	774
935	968	583
936	866	816
937	12	469
938	336	861
939	580	505
940	85	542
941	437	217
942	297	923
943	235	225
944	486	959
945	351	163
946	348	510
947	233	880
948	124	974
949	274	887
950	218	246
951	849	737
952	320	255
953	385	706
954	903	258
955	328	527
956	579	897
957	265	553
958	498	795
959	393	703
960	985	419
961	359	794
962	415	908
963	859	718
964	579	615
965	108	81
966	961	773
967	975	940
968	313	115
969	298	3
970	979	77
971	68	905
972	741	131
973	117	90
974	46	544
975	786	473
976	404	995
977	384	894
978	235	8
979	915	263
980	560	632
981	256	751
982	999	150
983	804	148
984	264	375
985	88	628
986	180	278
987	437	602
988	946	943
989	561	294
990	250	30
991	415	677
992	155	471
993	305	353
994	731	432
995	855	886
996	373	235
997	467	335
998	568	986
999	48	136
1000	532	463
1001	525	665
DEMAND_SECTION
1	0
2	9
3	5
4	9
5	1
6	9
7	2
8	1
9	9
10	5
11	8
12	9
13	1
14	3
15	5
16	7
17	3
18	9
19	7
20	3
21	7
22	5
23	6
24	1
25	7
26	2
27	1
28	7
29	7
30	8
31	4
32	5
33	7
34	3
35	4
36	2
37	7
38	1
39	9
40	4
41	8
42	6
43	8
44	1
45	7
46	2
47	1
48	1
49	3
50	2
51	6
52	3
53	8
54	1
55	7
56	4
57	4
58	1
59	2
60	5
61	7
62	2
63	7
64	3
65	5
66	4
67	8
68	1
69	9
70	6
71	1
72	6
73	8
74	1
75	2
76	6
77	7
78	1
79	3
80	1
81	9
82	6
83	9
84	9
85	6
86	7
87	9
88	8
89	2
90	1
91	1
92	1
93	4
94	9
95	9
96	1
97	6
98	5
99	1
100	6
101	6
102	5
103	9
104	8
105	8
106	2
107	6
108	5
109	4
110	6
111	6
112	6
113	6
114	1
115	5
116	6
117	7
118	7
119	8
120	2
121	3
122	2
123	3
124	6
125	9
126	2
127	4
128	5
129	5
130	1
131	3
132	3
133	5
134	8
135	7
136	8
137	7
138	6
139	3
140	3
141	6
142	7
143	5
144	7
145	5
146	3
147	8
148	1
149	5
150	5
151	9
152	1
153	2
154	2
155	1
156	6
157	5
158	6
159	3
160	7
161	2
162	5
163	3
164	9
165	2
166	4
167	6
168	3
169	9
170	1
171	1
172	1
173	8
174	4
175	5
176	6
177	4
178	6
179	9
180	9
181	9
182	5
183	8
184	6
185	7
186	2
187	8
188	5
189	6
190	3
191	9
192	1
193	1
194	4
195	9
196	3
197	7
198	6
199	2
200	8
201	5
202	1
203	5
204	6
205	2
206	1
207	5
208	2
209	6
210	4
211	8
212	7
213	6
214	9
215	6
216	7
217	1
218	4
219	6
220	7
221	8
222	8
223	9
224	5
225	4
226	6
227	7
228	6
229	3
230	1
231	4
232	1
233	8
234	8
235	5
236	6
237	8
238	5
239	5
240	3
241	5
242	8
243	6
244	9
245	3
246	7
247	5
248	1
249	9
250	3
251	6
252	2
253	7
254	7
255	3
256	6
257	9
258	2
259	9
260	4
261	8
262	6
263	1
264	3
265	5
266	1
267	4
268	3
269	4
270	2
271	8
272	2
273	9
274	3
275	3
276	1
277	6
278	7
279	2
280	7
281	5
282	4
283	3
284	1
285	3
286	9
287	4
288	3
289	9
290	9
291	4
292	4
293	1
294	9
295	6
296	1
297	7
298	3
299	9
300	3
301	8
302	1
303	1
304	7
305	4
306	6
307	7
308	8
309	5
310	2
311	4
312	1
313	1
314	3
315	1
316	5
317	8
318	5
319	6
320	5
321	8
322	2
323	4
324	5
325	4
326	5
327	8
328	5
329	5
330	9
331	3
332	2
333	6
334	5
335	9
336	9
337	2
338	2
339	7
340	3
341	4
342	3
343	1
344	6
345	2
346	5
347	4
348	7
349	9
350	5
351	4
352	8
353	5
354	1
355	6
356	3
357	7
358	2
359	7
360	2
361	8
362	2
363	8
364	3
365	3
366	5
367	7
368	7
369	3
370	2
371	3
372	1
373	6
374	1
375	8
376	5
377	9
378	5
379	9
380	7
381	4
382	5
383	2
384	3
385	9
386	1
387	8
388	6
389	3
390	9
391	7
392	4
393	4
394	8
395	1
396	9
397	1
398	6
399	8
400	5
401	3
402	8
403	3
404	5
405	8
406	2
407	1
408	5
409	8
410	5
411	9
412	8
413	1
414	2
415	1
416	5
417	3
418	7
419	2
420	5
421	4
422	8
423	8
424	1
425	8
426	9
427	3
428	6
429	5
430	7
431	2
432	4
433	3
434	1
435	6
436	9
437	7
438	5
439	6
440	9
441	2
442	3
443	8
444	4
445	8
446	2
447	1
448	9
449	7
450	9
451	3
452	4
453	8
454	9
455	4
456	2
457	1
458	9
459	1
460	4
461	4
462	8
463	8
464	8
465	4
466	9
467	3
468	2
469	5
470	1
471	6
472	5
473	2
474	9
475	1
476	3
477	1
478	4
479	5
480	8
481	8
482	4
483	2
484	7
485	6
486	1
487	5
488	5
489	8
490	8
491	2
492	8
493	2
494	5
495	9
496	9
497	9
498	7
499	2
500	9
501	8
502	8
503	7
504	8
505	3
506	3
507	8
508	7
509	9
510	9
511	1
512	2
513	3
514	4
515	4
516	1
517	9
518	1
519	3
520	3
521	9
522	6
523	5
524	7
525	4
526	9
527	1
528	6
529	8
530	7
531	1
532	6
533	2
534	6
535	2
536	1
537	8
538	3
539	8
540	5
541	7
542	7
543	3
544	5
545	8
546	6
547	7
548	8
549	9
550	1
551	7
552	4
553	9
554	9
555	5
556	6
557	6
558	5
559	1
560	7
561	8
562	2
563	3
564	5
565	7
566	9
567	2
568	9
569	6
570	2
571	1
572	7
573	9
574	6
575	5
576	6
577	2
578	7
579	6
580	3
581	4
582	6
583	4
584	9
585	7
586	9
587	5
588	8
589	4
590	7
591	9
592	8
593	4
594	8
595	4
596	5
597	8
598	3
599	7
600	2
601	5
602	3
603	8
604	1
605	9
606	7
607	7
608	7
609	5
610	5
611	8
612	7
613	7
614	1
615	2
616	6
617	8
618	2
619	4
620	3
621	9
622	5
623	3
624	6
625	4
626	8
627	5
628	3
629	9
630	6
631	7
632	7
633	2
634	2
635	5
636	1
637	8
638	4
639	1
640	8
641	7
642	7
643	1
644	6
645	6
646	5
647	3
648	1
649	9
650	7
651	6
652	5
653	5
654	2
655	7
656	3
657	3
658	1
659	5
660	1
661	3
662	6
663	5
664	1
665	4
666	7
667	1
668	3
669	1
670	3
671	7
672	5
673	4
674	3
675	7
676	2
677	5
678	8
679	9
680	6
681	2
682	4
683	7
684	5
685	1
686	8
687	8
688	4
689	4
690	7
691	5
692	7
693	9
694	2
695	3
696	1
697	8
698	2
699	2
700	5
701	9
702	2
703	8
704	9
705	7
706	6
707	4
708	5
709	3
710	7
711	4
712	4
713	5
714	8
715	6
716	9
717	8
718	9
719	3
720	8
721	3
722	1
723	8
724	6
725	9
726	7
727	4
728	8
729	7
730	2
731	2
732	9
733	3
734	3
735	6
736	7
737	3
738	5
739	9
740	1
741	4
742	9
743	8
744	2
745	6
746	8
747	8
748	9
749	2
750	8
751	4
752	7
753	7
754	2
755	4
756	7
757	3
758	5
759	4
760	1
761	2
762	6
763	5
764	9
765	1
766	4
767	4
768	8
769	7
770	6
771	5
772	1
773	9
774	6
775	5
776	2
777	5
778	5
779	1
780	1
781	2
782	9
783	4
784	7
785	6
786	9
787	4
788	6
789	9
790	7
791	7
792	6
793	2
794	4
795	3
796	1
797	2
798	2
799	2
800	1
801	5
802	4
803	1
804	5
805	2
806	4
807	1
808	8
809	8
810	6
811	3
812	3
813	8
814	5
815	2
816	8
817	4
818	5
819	1
820	5
821	6
822	2
823	7
824	2
825	5
826	7
827	8
828	4
829	4
830	4
831	5
832	2
833	2
834	6
835	9
836	7
837	3
838	3
839	3
840	8
841	7
842	9
843	8
844	6
845	3
846	1
847	3
848	8
849	1
850	6
851	1
852	9
853	5
854	5
855	2
856	8
857	3
858	4
859	5
860	2
861	4
862	9
863	2
864	8
865	9
866	9
867	3
868	3
869	4
870	3
871	9
872	2
873	9
874	3
875	9
876	7
877	4
878	2
879	7
880	1
881	1
882	4
883	3
884	1
885	8
886	9
887	6
888	6
889	9
890	3
891	7
892	1
893	1
894	8
895	5
896	9
897	8
898	2
899	1
900	9
901	7
902	5
903	3
904	1
905	5
906	9
907	6
908	9
909	6
910	9
911	6
912	2
913	1
914	6
915	5
916	8
917	3
918	4
919	5
920	5
921	5
922	6
923	9
924	8
925	2
926	3
927	9
928	1
929	4
930	9
931	3
932	2
933	3
934	7
935	4
936	6
937	6
938	8
939	7
940	1
941	1
942	5
943	5
944	7
945	6
946	9
947	8
948	3
949	4
950	1
951	5
952	5
953	1
954	5
955	3
956	4
957	9
958	1
959	9
960	5
961	7
962	5
963	6
964	6
965	1
966	4
967	6
968	4
969	9
970	2
971	2
972	6
973	2
974	8
975	6
976	8
977	1
978	5
979	9
980	4
981	4
982	6
983	4
984	1
985	9
986	5
987	7
988	7
989	3
990	6
991	9
992	9
993	1
994	5
995	4
996	3
997	8
998	5
999	7
1000	4
1001	2
TIME_WINDOW_SECTION
1	0	3000
2	1035	2201
3	337	990
4	1095	2314
5	0	1309
6	1233	2200
7	468	1910
8	1754	2397
9	832	2121
10	327	2257
11	1079	2906
12	906	1789
13	653	1972
14	12	1203
15	161	1355
16	1785	3000
17	728	2463
18	44	1054
19	215	2112
20	1573	2195
21	0	908
22	105	1184
23	425	950
24	1231	2590
25	1083	1750
26	1320	2269
27	1653	2131
28	1635	1935
29	323	1804
30	163	1002
31	1200	2729
32	913	2859
33	1169	2081
34	1395	2567
35	50	389
36	1101	3000
37	1220	2809
38	1991	2701
39	751	2232
40	498	1688
41	1436	3000
42	1190	2993
43	1417	2451
44	1136	2226
45	0	1029
46	0	943
47	1289	2794
48	1079	2758
49	214	963
50	0	1640
51	943	2537
52	351	961
53	1454	1662
54	2023	2953
55	582	2445
56	900	1710
57	132	1159
58	499	1630
59	1625	2181
60	294	1691
61	537	1272
62	257	1312
63	160	1099
64	526	2132
65	110	1686
66	1866	2406
67	1467	2452
68	1466	1856
69	622	896
70	579	2194
71	196	2024
72	680	2220
73	1130	2758
74	346	1522
75	0	1675
76	0	1415
77	0	1423
78	477	1278
79	245	2240
80	0	1578
81	76	2043
82	363	2205
83	840	2607
84	1257	1581
85	1691	2227
86	1326	1662
87	2148	2983
88	919	1941
89	0	998
90	501	2182
91	395	1812
92	0	1893
93	1089	1832
94	0	1130
95	1382	2032
96	1961	2464
97	1373	1870
98	2068	2524
99	639	1516
100	1874	2405
101	273	2252
102	869	1149
103	868	1450
104	475	1273
105	972	1747
106	1068	1693
107	0	1670
108	770	1058
109	0	1544
110	1427	3000
111	1058	1627
112	1403	2412
113	677	2496
114	0	1722
115	1237	2074
116	1953	2306
117	311	946
118	1252	2482
119	1767	2062
120	997	1931
121	864	1330
122	646	1301
123	526	2087
124	1058	1419
125	1177	1805
126	608	2365
127	612	1439
128	88	1508
129	1056	2160
130	879	2010
131	1033	1430
132	677	1174
133	333	1989
134	538	1028
135	0	1559
136	1420	2024
137	816	1719
138	459	1714
139	1396	2857
140	750	2418
141	588	1358
142	1360	2579
143	1477	3000
144	2004	2358
145	544	1952
146	0	934
147	0	1220
148	1388	2815
149	0	1491
150	200	2105
151	881	2534
152	477	1399
153	646	1645
154	1094	1294
155	960	2909
156	858	2295
157	731	1544
158	775	2747
159	1663	3000
160	0	1607
161	225	1454
162	1002	2268
163	1024	2837
164	1038	1377
165	0	1653
166	1619	2762
167	1039	2787
168	0	1181
169	1202	1879
170	830	1822
171	1816	2855
172	878	2436
173	390	2047
174	573	1143
175	1340	1753
176	1846	2373
177	65	1819
178	0	1021
179	1581	2292
180	561	2263
181	736	1234
182	1224	3000
183	844	2569
184	107	1115
185	460	1187
186	20	1321
187	152	994
188	899	2808
189	457	1801
190	630	1900
191	206	1303
192	819	1209
193	1195	2047
194	668	1040
195	1128	2229
196	1153	2835
197	1627	2888
198	1633	2160
199	798	1734
200	1122	3000
201	1325	1644
202	1446	2963
203	0	1369
204	797	1608
205	570	1630
206	1198	2536
207	325	2040
208	308	2040
209	226	511
210	0	1686
211	728	1967
212	2237	2766
213	1467	1806
214	1575	2433
215	387	1604
216	1516	3000
217	629	1076
218	997	2164
219	2047	2397
220	1280	1576
221	53	1689
222	768	2256
223	440	973
224	377	1224
225	388	2277
226	500	2477
227	471	2338
228	1937	2667
229	0	1418
230	787	1403
231	467	1777
232	994	1358
233	1764	2300
234	647	1626
235	964	2514
236	1003	1347
237	1241	2240
238	665	1676
239	1158	1988
240	2251	2469
241	678	1073
242	1489	1877
243	957	2954
244	1424	1863
245	766	1612
246	1854	2531
247	1204	1441
248	1068	1401
249	1336	1581
250	1695	2768
251	2139	2716
252	882	1599
253	758	1218
254	360	1968
255	1247	1831
256	1664	2810
257	1337	1668
258	1712	2362
259	1839	2983
260	198	2060
261	1801	2859
262	0	1138
263	1521	2613
264	977	2840
265	331	1936
266	1585	2814
267	386	2188
268	2234	2915
269	414	1226
270	1260	2161
271	866	2467
272	670	2475
273	535	1812
274	1187	3000
275	469	1299
276	515	1794
277	858	2760
278	1431	2453
279	577	1597
280	1373	2586
281	214	1205
282	1547	1748
283	697	2383
284	1065	2032
285	359	1018
286	1146	2439
287	1192	1694
288	0	1445
289	1083	1510
290	1094	3000
291	627	2057
292	1111	1583
293	858	1235
294	0	1140
295	1044	1536
296	782	1220
297	0	1043
298	2360	2789
299	514	1520
300	1063	1401
301	1670	2765
302	1585	2704
303	1073	1917
304	1035	1656
305	844	1466
306	1417	2131
307	1240	3000
308	809	1380
309	1324	2368
310	1294	1517
311	1354	2324
312	0	1384
313	1128	1653
314	368	1910
315	135	1919
316	1077	2553
317	78	1411
318	1401	2501
319	974	2231
320	870	1938
321	473	2001
322	0	1571
323	690	2508
324	1148	2409
325	757	1929
326	1245	2032
327	154	1030
328	1166	2074
329	1555	2749
330	1870	2397
331	990	2691
332	0	1449
333	401	1274
334	1052	2165
335	841	2074
336	1501	1825
337	876	2057
338	1007	1944
339	1292	2695
340	1302	2358
341	0	458
342	500	1335
343	790	1480
344	752	2673
345	0	523
346	1265	1667
347	636	1608
348	702	1812
349	1128	2830
350	6	1847
351	385	1813
352	68	649
353	586	2068
354	0	1169
355	743	2176
356	1705	2376
357	1395	2234
358	0	1671
359	0	1467
360	1402	2968
361	1973	2389
362	1904	2375
363	460	1894
364	2126	2579
365	815	1917
366	0	1474
367	836	2190
368	651	2558
369	697	1095
370	210	1312
371	1008	1960
372	415	1599
373	1206	2157
374	553	2534
375	614	871
376	1267	2037
377	321	1852
378	738	2624
379	765	1931
380	194	700
381	1300	2265
382	709	2245
383	101	961
384	704	1803
385	1008	2008
386	860	2706
387	322	1607
388	604	1250
389	29	2016
390	1462	2498
391	1177	1624
392	1808	2099
393	1347	2399
394	1761	2149
395	433	2287
396	982	1627
397	1120	2229
398	1476	2698
399	1473	2175
400	1274	2263
401	1135	2646
402	1320	2576
403	1243	2575
404	1511	1757
405	1420	2465
406	820	2710
407	1255	2953
408	159	1919
409	608	1864
410	1727	1938
411	960	2171
412	688	2668
413	1986	2305
414	0	1209
415	464	1550
416	595	815
417	1872	2420
418	1005	2381
419	428	2269
420	180	2048
421	1026	2873
422	437	1894
423	0	941
424	1155	2760
425	469	1774
426	1173	1914
427	235	741
428	306	1184
429	975	1588
430	0	1170
431	0	1028
432	1692	2072
433	1075	2005
434	1375	1788
435	1901	2115
436	1095	1965
437	1705	2495
438	0	928
439	775	2644
440	1053	1340
441	418	978
442	947	1525
443	1605	2329
444	738	1762
445	1869	2123
446	1751	2042
447	67	2014
448	218	2128
449	1525	2828
450	76	1321
451	898	2054
452	96	1973
453	0	967
454	0	1770
455	1764	2796
456	1954	2853
457	633	1739
458	604	2376
459	0	1500
460	297	1647
461	1357	1566
462	1449	2189
463	16	816
464	345	1953
465	911	2043
466	1553	2503
467	1923	2322
468	42	1122
469	1006	1495
470	480	2104
471	894	1984
472	1496	2634
473	274	740
474	375	1091
475	1587	2750
476	282	1123
477	748	1815
478	48	1976
479	746	1746
480	1013	1621
481	0	1285
482	379	822
483	1483	2327
484	780	1636
485	1354	2102
486	905	1822
487	1791	2199
488	1525	1775
489	1953	3000
490	2131	2669
491	1296	1876
492	1396	1768
493	0	962
494	109	1478
495	385	1697
496	554	832
497	482	1892
498	810	1035
499	561	1563
500	5	1596
501	0	1636
502	2150	2772
503	16	1885
504	1967	2465
505	1634	2283
506	1127	1636
507	791	1231
508	302	1251
509	196	1268
510	1681	2892
511	1404	2523
512	1384	2868
513	0	1640
514	649	2468
515	716	2400
516	2042	2987
517	1542	2847
518	1885	2495
519	91	1085
520	1520	2120
521	1661	2007
522	1692	2467
523	739	2515
524	382	1432
525	511	938
526	1890	2577
527	0	1331
528	1399	3000
529	207	2042
530	1010	1357
531	1525	2757
532	698	1065
533	454	2229
534	695	2474
535	21	1469
536	0	1558
537	1793	2498
538	1826	3000
539	337	1158
540	998	1976
541	988	1666
542	167	1243
543	619	2543
544	1803	2011
545	726	2049
546	870	1133
547	435	1163
548	1666	2005
549	2207	2410
550	1807	3000
551	0	1056
552	748	2643
553	596	1249
554	317	1620
555	944	1446
556	1463	2678
557	19	1612
558	1049	2048
559	397	1417
560	0	1861
561	874	2626
562	402	2041
563	916	1668
564	800	2423
565	525	1612
566	307	1606
567	1463	2346
568	0	1549
569	1137	2674
570	45	1360
571	1384	2520
572	1707	2035
573	980	2489
574	866	2850
575	500	702
576	315	1339
577	310	1761
578	1331	2340
579	704	1935
580	704	1820
581	2018	2641
582	592	1207
583	218	1564
584	1860	2093
585	620	1243
586	1122	2648
587	422	1663
588	442	2376
589	0	654
590	1004	2879
591	1550	2254
592	36	1862
593	334	2121
594	141	1543
595	343	795
596	1108	2997
597	959	1462
598	916	1464
599	1152	1554
600	1044	2592
601	0	1698
602	1499	2133
603	1698	2067
604	1552	1767
605	1793	2233
606	606	1614
607	1911	2142
608	1428	1727
609	629	1472
610	1583	2292
611	989	1784
612	1358	1755
613	1062	2652
614	1200	1907
615	0	1378
616	86	1391
617	1173	2656
618	1732	2090
619	1473	1882
620	375	601
621	229	2041
622	1706	2767
623	299	2159
624	1710	2893
625	1723	2861
626	158	446
627	376	1941
628	1262	2568
629	921	1389
630	1011	2812
631	1927	2924
632	592	1312
633	865	1538
634	1584	2628
635	1409	2152
636	775	1457
637	1041	2137
638	1652	2060
639	1593	2376
640	1209	2892
641	1105	1792
642	1247	2930
643	72	803
644	105	1654
645	431	2353
646	0	1384
647	1243	3000
648	2085	2883
649	1182	2027
650	550	944
651	231	1337
652	74	1051
653	752	2333
654	11	1966
655	0	1416
656	1273	2521
657	607	1888
658	915	1990
659	0	837
660	123	1225
661	1213	2997
662	210	1993
663	207	1892
664	962	2785
665	0	1725
666	531	768
667	371	2113
668	898	2870
669	1259	2981
670	1547	2525
671	551	1814
672	1034	1527
673	1915	2616
674	1053	1502
675	486	1071
676	1363	2373
677	1614	3000
678	1079	1593
679	0	1063
680	156	1840
681	1434	2395
682	568	1815
683	0	1262
684	902	2703
685	50	1534
686	45	1599
687	1501	2804
688	2241	2766
689	1894	2708
690	1527	2496
691	1359	3000
692	499	1415
693	209	1251
694	1276	3000
695	644	1262
696	967	1718
697	1849	2701
698	0	1367
699	926	2688
700	1970	2734
701	602	1887
702	0	1603
703	1234	3000
704	43	917
705	0	1590
706	707	2079
707	0	1518
708	0	1196
709	863	1197
710	1670	2681
711	1228	1959
712	836	1867
713	1453	2408
714	2027	3000
715	688	1944
716	983	1799
717	1674	2229
718	571	1160
719	340	1199
720	0	1233
721	630	1297
722	1183	3000
723	1075	2470
724	749	1063
725	487	1390
726	0	1123
727	501	1132
728	0	983
729	1779	2761
730	98	1402
731	1555	2397
732	1585	1870
733	1412	2003
734	1552	2881
735	1192	2286
736	559	2131
737	850	1397
738	273	1608
739	1857	2313
740	1981	2434
741	1367	3000
742	65	1831
743	378	1676
744	428	902
745	91	1371
746	7	593
747	1108	1576
748	640	2266
749	706	2100
750	118	1963
751	0	1323
752	1470	2037
753	403	1028
754	1068	2241
755	939	1462
756	341	1449
757	1429	2263
758	802	2540
759	964	2294
760	427	2249
761	0	1361
762	0	1911
763	1600	2167
764	1234	2701
765	1467	2574
766	960	1417
767	1786	1987
768	1173	1486
769	1700	2559
770	968	2354
771	147	2051
772	271	1278
773	436	1947
774	646	1422
775	54	1845
776	1062	2020
777	1132	1352
778	693	2057
779	1167	3000
780	1359	1888
781	0	1588
782	1916	2940
783	1033	1429
784	509	1375
785	734	1659
786	605	1681
787	1095	2383
788	1205	2203
789	1240	2167
790	649	1396
791	1019	2115
792	1380	3000
793	447	1712
794	2144	2625
795	780	1714
796	862	2331
797	475	1755
798	1306	2417
799	876	1172
800	647	1092
801	461	1052
802	0	1429
803	93	816
804	818	2708
805	986	2094
806	1452	2058
807	1987	2302
808	2040	2503
809	0	1328
810	107	1566
811	1131	2243
812	359	2166
813	0	1810
814	323	1039
815	793	1855
816	1233	2831
817	1759	1971
818	0	1611
819	0	1680
820	1079	2999
821	841	2365
822	1789	2039
823	827	2670
824	1243	2657
825	1597	2629
826	0	1518
827	1631	2664
828	2254	3000
829	778	2214
830	991	2472
831	733	1724
832	934	1404
833	491	1234
834	0	1840
835	536	1839
836	1012	1874
837	1679	2132
838	899	1150
839	866	1388
840	1095	2800
841	1256	1757
842	297	1884
843	1378	1682
844	1649	2165
845	1127	2385
846	282	2072
847	1804	3000
848	1684	2277
849	365	1092
850	1749	2724
851	187	2175
852	1072	2729
853	793	2203
854	637	2425
855	1833	2086
856	1658	2122
857	735	1680
858	0	1648
859	2067	2555
860	1995	2245
861	921	1565
862	658	1251
863	1798	3000
864	636	1891
865	1749	2107
866	476	1670
867	1225	3000
868	1431	2549
869	690	2331
870	249	1858
871	1111	2046
872	645	2374
873	981	1222
874	714	2701
875	276	1861
876	0	1924
877	1486	2363
878	1165	1577
879	1509	2144
880	138	1496
881	1459	2227
882	2009	2690
883	1533	2082
884	1200	1499
885	597	2525
886	1068	1824
887	1443	2930
888	809	2472
889	1827	2523
890	330	916
891	0	1506
892	1444	1790
893	439	1442
894	403	711
895	1165	2646
896	818	2090
897	34	436
898	439	766
899	860	1390
900	1206	1695
901	934	2542
902	0	1046
903	126	723
904	1220	1777
905	272	2174
906	1509	2747
907	1686	2255
908	129	1150
909	328	1030
910	1051	2217
911	429	1096
912	525	1270
913	0	1386
914	349	1642
915	1162	2211
916	813	2131
917	1091	2528
918	2300	2584
919	236	615
920	1769	3000
921	993	1277
922	1236	2596
923	143	1628
924	654	1152
925	1799	2190
926	0	1838
927	1554	2112
928	1266	2454
929	1692	1922
930	528	1442
931	89	1091
932	1457	2575
933	1629	2115
934	972	2355
935	2119	2767
936	1499	3000
937	184	1558
938	1011	2817
939	43	243
940	1755	2432
941	646	2201
942	1281	1572
943	1969	2176
944	9	1404
945	1176	2418
946	264	1511
947	1341	2350
948	542	1427
949	839	2340
950	1174	2292
951	724	1378
952	550	1188
953	1294	2189
954	1546	1832
955	544	2533
956	1255	1723
957	1489	2419
958	1331	2116
959	1526	2287
960	307	2038
961	329	1365
962	1677	2689
963	1016	2591
964	1517	2637
965	1338	1914
966	654	1864
967	1492	2958
968	255	2034
969	351	2078
970	925	2311
971	905	2120
972	845	1588
973	634	1420
974	374	1101
975	128	1035
976	1409	2740
977	1846	2674
978	1606	1814
979	90	1343
980	835	2537
981	1475	1726
982	1563	2425
983	619	1165
984	1378	2036
985	597	1225
986	482	1739
987	190	1741
988	405	983
989	0	812
990	1432	1859
991	0	1088
992	382	1581
993	336	938
994	878	1585
995	1062	1834
996	767	1602
997	287	1823
998	1252	2188
999	1745	2029
1000	1484	2042
1001	72	1725
DEPOT_SECTION
1
-1
EOF
