NAME : n1001-0044
COMMENT : "Generated by pyvrp_manuel (OVRPTW)"
TYPE : OVRPTW
DIMENSION : 1001
EDGE_WEIGHT_TYPE : EUC_2D
CAPACITY : 150
VEHICLES : 1000
OPEN_ROUTE : YES
SERVICE_TIME : 200
NODE_COORD_SECTION
1	233	619
2	297	643
3	956	425
4	737	784
5	535	625
6	982	114
7	400	865
8	99	202
9	358	801
10	140	888
11	628	33
12	728	670
13	929	384
14	891	403
15	127	348
16	506	41
17	154	47
18	271	674
19	590	729
20	776	587
21	307	359
22	476	595
23	351	42
24	712	126
25	407	131
26	518	612
27	511	298
28	373	990
29	165	945
30	369	750
31	549	387
32	692	333
33	979	571
34	48	354
35	576	274
36	966	513
37	519	464
38	102	240
39	163	594
40	336	167
41	969	383
42	374	740
43	775	46
44	140	680
45	759	9
46	69	606
47	590	763
48	221	409
49	596	371
50	535	857
51	157	986
52	904	482
53	206	982
54	346	281
55	926	344
56	854	827
57	82	411
58	1	699
59	938	359
60	296	384
61	840	651
62	278	385
63	245	913
64	694	984
65	871	169
66	4	694
67	552	713
68	937	134
69	300	770
70	412	941
71	668	277
72	832	538
73	705	429
74	304	489
75	315	697
76	33	353
77	255	75
78	600	664
79	454	883
80	643	374
81	264	426
82	693	557
83	117	748
84	427	699
85	590	478
86	788	29
87	209	326
88	301	915
89	271	461
90	223	215
91	490	962
92	297	769
93	178	106
94	324	728
95	559	706
96	129	797
97	188	58
98	594	840
99	279	823
100	978	939
101	586	809
102	204	764
103	781	731
104	996	492
105	927	778
106	858	661
107	598	433
108	864	535
109	998	901
110	891	354
111	555	181
112	947	613
113	567	416
114	666	869
115	881	491
116	879	8
117	478	258
118	230	798
119	586	382
120	218	817
121	288	451
122	618	672
123	135	408
124	356	222
125	441	873
126	587	346
127	481	357
128	409	260
129	419	392
130	391	610
131	312	537
132	47	951
133	318	757
134	663	973
135	548	827
136	803	66
137	239	531
138	639	859
139	711	773
140	855	868
141	575	853
142	755	809
143	597	437
144	87	490
145	266	568
146	862	182
147	145	588
148	868	945
149	363	89
150	293	825
151	941	688
152	668	837
153	332	388
154	624	275
155	459	771
156	982	576
157	591	945
158	735	121
159	974	556
160	631	732
161	267	931
162	734	181
163	247	783
164	919	134
165	312	404
166	390	584
167	577	960
168	725	181
169	811	260
170	51	973
171	47	774
172	600	832
173	488	930
174	565	723
175	882	183
176	917	138
177	324	666
178	405	673
179	809	171
180	76	649
181	955	586
182	299	974
183	426	28
184	845	191
185	637	670
186	993	717
187	897	454
188	120	205
189	172	855
190	595	300
191	236	18
192	706	988
193	587	439
194	157	715
195	428	899
196	50	712
197	848	703
198	488	909
199	532	983
200	131	648
201	92	675
202	131	293
203	712	839
204	647	396
205	469	167
206	227	533
207	900	390
208	723	897
209	249	782
210	805	820
211	170	445
212	561	602
213	443	67
214	277	384
215	277	602
216	779	939
217	315	734
218	153	479
219	604	984
220	564	621
221	496	579
222	160	326
223	503	144
224	831	802
225	69	934
226	863	772
227	519	469
228	125	420
229	2	6
230	293	392
231	37	283
232	757	850
233	313	759
234	346	456
235	514	929
236	11	785
237	302	240
238	73	141
239	973	706
240	164	251
241	198	597
242	344	671
243	169	992
244	134	134
245	527	400
246	860	678
247	42	977
248	765	539
249	193	974
250	543	930
251	592	531
252	659	296
253	80	52
254	856	11
255	559	758
256	983	442
257	929	607
258	929	756
259	11	758
260	61	48
261	736	442
262	195	844
263	351	897
264	843	163
265	362	514
266	798	823
267	659	316
268	665	481
269	123	1
270	577	918
271	572	476
272	835	437
273	78	539
274	168	337
275	326	874
276	741	399
277	361	558
278	854	926
279	391	269
280	534	294
281	71	969
282	902	442
283	729	807
284	958	972
285	627	451
286	121	853
287	804	421
288	518	848
289	225	14
290	294	587
291	312	60
292	244	461
293	956	413
294	97	343
295	551	24
296	271	593
297	507	963
298	260	3
299	177	160
300	541	51
301	617	484
302	212	587
303	991	996
304	129	222
305	691	205
306	991	256
307	135	765
308	830	985
309	51	836
310	829	71
311	917	499
312	316	553
313	383	517
314	175	231
315	683	666
316	314	875
317	918	324
318	476	833
319	875	47
320	479	694
321	759	197
322	629	296
323	179	698
324	224	128
325	347	386
326	380	810
327	191	897
328	593	935
329	707	354
330	337	885
331	299	105
332	619	358
333	951	758
334	34	603
335	54	189
336	504	854
337	692	50
338	381	681
339	66	447
340	602	175
341	804	317
342	313	272
343	352	753
344	381	552
345	152	891
346	513	226
347	524	474
348	436	340
349	574	396
350	789	680
351	707	952
352	559	184
353	626	529
354	430	27
355	808	444
356	923	859
357	953	286
358	171	20
359	918	665
360	171	488
361	68	364
362	335	128
363	699	449
364	888	109
365	531	11
366	32	870
367	749	664
368	739	437
369	871	391
370	486	762
371	358	755
372	395	763
373	915	60
374	913	876
375	24	703
376	22	316
377	531	351
378	166	55
379	716	383
380	710	436
381	713	813
382	269	921
383	425	558
384	705	60
385	468	58
386	639	277
387	619	426
388	474	939
389	682	634
390	242	853
391	960	279
392	396	775
393	105	457
394	866	378
395	829	923
396	699	73
397	95	809
398	443	844
399	272	439
400	908	949
401	233	6
402	560	926
403	313	324
404	621	896
405	686	646
406	661	90
407	926	639
408	784	9
409	769	238
410	81	585
411	851	215
412	907	745
413	8	758
414	500	254
415	29	603
416	623	584
417	430	264
418	820	877
419	321	79
420	117	805
421	208	440
422	687	955
423	147	281
424	695	458
425	286	471
426	367	852
427	996	101
428	581	828
429	540	73
430	975	178
431	541	46
432	754	538
433	538	505
434	151	227
435	71	191
436	367	835
437	624	23
438	367	285
439	544	932
440	550	677
441	608	557
442	976	294
443	220	272
444	971	878
445	846	877
446	705	993
447	30	967
448	105	152
449	689	859
450	542	73
451	360	955
452	980	259
453	529	629
454	266	531
455	183	46
456	746	248
457	914	972
458	770	985
459	709	121
460	443	591
461	528	743
462	310	401
463	842	909
464	548	500
465	894	660
466	422	443
467	199	900
468	34	255
469	129	199
470	272	134
471	932	940
472	393	449
473	735	948
474	429	736
475	687	190
476	485	408
477	504	968
478	266	785
479	615	751
480	106	587
481	585	544
482	983	677
483	145	923
484	155	535
485	537	177
486	692	492
487	785	485
488	685	989
489	363	275
490	121	189
491	304	71
492	114	637
493	865	852
494	307	309
495	134	932
496	264	400
497	922	282
498	267	720
499	811	787
500	655	247
501	239	657
502	655	854
503	940	244
504	475	763
505	266	13
506	238	347
507	299	466
508	628	649
509	762	919
510	387	586
511	394	223
512	300	688
513	523	37
514	28	231
515	498	21
516	618	627
517	547	100
518	793	537
519	906	182
520	57	3
521	653	442
522	693	471
523	978	646
524	69	498
525	837	59
526	15	766
527	857	616
528	894	687
529	793	307
530	110	969
531	966	829
532	310	706
533	900	972
534	980	140
535	789	575
536	687	959
537	440	733
538	243	916
539	488	152
540	341	517
541	343	912
542	404	902
543	788	135
544	942	855
545	871	545
546	84	845
547	489	220
548	97	646
549	370	869
550	945	651
551	320	795
552	752	338
553	426	777
554	214	213
555	925	425
556	933	436
557	3	621
558	951	670
559	826	305
560	296	877
561	380	661
562	746	251
563	390	422
564	248	604
565	12	234
566	928	537
567	940	218
568	528	551
569	932	927
570	296	299
571	974	921
572	985	899
573	663	984
574	74	205
575	771	983
576	680	954
577	712	69
578	226	583
579	698	360
580	141	573
581	535	887
582	230	40
583	487	750
584	380	507
585	612	127
586	823	514
587	870	945
588	475	554
589	791	646
590	293	434
591	232	399
592	23	387
593	340	197
594	983	19
595	249	866
596	967	424
597	656	140
598	289	906
599	963	156
600	821	802
601	562	338
602	728	891
603	536	173
604	402	46
605	338	812
606	442	376
607	513	877
608	709	730
609	762	462
610	51	437
611	994	115
612	236	773
613	26	142
614	193	753
615	977	961
616	977	14
617	142	672
618	419	854
619	732	341
620	279	264
621	451	506
622	783	55
623	67	47
624	926	870
625	190	260
626	34	376
627	399	209
628	211	163
629	661	822
630	663	585
631	346	358
632	486	222
633	581	777
634	834	769
635	406	216
636	550	127
637	584	2
638	871	976
639	693	19
640	752	118
641	519	167
642	777	612
643	458	673
644	560	66
645	617	77
646	551	83
647	59	751
648	4	790
649	847	879
650	40	735
651	306	127
652	962	336
653	843	593
654	588	697
655	732	455
656	558	196
657	320	717
658	70	795
659	110	884
660	340	700
661	951	719
662	872	201
663	227	215
664	399	729
665	109	191
666	780	476
667	539	449
668	967	299
669	367	836
670	594	311
671	878	111
672	971	637
673	270	183
674	25	831
675	800	968
676	889	389
677	295	194
678	529	441
679	465	523
680	136	119
681	607	127
682	449	642
683	478	877
684	506	155
685	621	322
686	842	141
687	765	443
688	215	250
689	79	921
690	347	838
691	371	463
692	877	559
693	45	843
694	714	468
695	269	564
696	15	861
697	94	630
698	129	710
699	985	259
700	788	245
701	635	755
702	926	666
703	547	136
704	633	513
705	333	516
706	514	777
707	171	499
708	465	491
709	523	920
710	794	189
711	968	392
712	614	496
713	610	142
714	562	557
715	2	582
716	175	252
717	476	862
718	62	123
719	291	232
720	776	51
721	454	325
722	534	750
723	848	848
724	450	102
725	765	84
726	397	99
727	111	465
728	537	724
729	869	4
730	506	38
731	952	401
732	346	363
733	721	529
734	506	309
735	669	792
736	285	457
737	439	597
738	812	178
739	868	747
740	528	157
741	686	218
742	173	243
743	163	415
744	855	261
745	840	734
746	910	700
747	797	661
748	986	522
749	679	74
750	470	427
751	358	515
752	576	102
753	427	633
754	82	133
755	260	732
756	648	347
757	933	736
758	537	1
759	279	514
760	391	443
761	524	211
762	970	649
763	38	862
764	246	226
765	81	237
766	912	42
767	16	966
768	210	992
769	225	703
770	67	332
771	425	568
772	125	540
773	511	767
774	760	185
775	997	404
776	399	190
777	910	146
778	535	518
779	233	866
780	656	500
781	157	369
782	452	925
783	62	471
784	817	828
785	856	597
786	927	879
787	236	760
788	546	992
789	946	713
790	209	964
791	145	739
792	676	429
793	591	163
794	423	595
795	127	628
796	928	274
797	440	643
798	299	384
799	438	531
800	144	240
801	742	683
802	845	933
803	260	367
804	96	568
805	543	503
806	264	66
807	418	809
808	257	54
809	812	934
810	358	526
811	967	589
812	137	764
813	808	14
814	809	156
815	304	216
816	295	825
817	337	890
818	865	204
819	584	400
820	5	876
821	426	523
822	364	749
823	81	114
824	460	292
825	517	999
826	945	58
827	763	498
828	21	714
829	274	942
830	767	378
831	908	398
832	38	660
833	849	356
834	853	691
835	292	229
836	472	732
837	948	76
838	42	826
839	181	538
840	678	385
841	588	18
842	431	872
843	992	947
844	926	882
845	593	145
846	435	958
847	59	599
848	888	943
849	892	168
850	359	284
851	519	869
852	436	70
853	511	436
854	411	230
855	709	854
856	552	565
857	181	531
858	938	762
859	399	315
860	366	635
861	480	260
862	805	146
863	376	688
864	257	827
865	887	589
866	619	394
867	577	712
868	618	217
869	836	949
870	331	504
871	730	147
872	461	581
873	885	179
874	182	634
875	204	897
876	435	727
877	67	266
878	471	990
879	972	345
880	926	559
881	313	538
882	109	178
883	424	651
884	921	817
885	740	25
886	573	857
887	785	431
888	755	376
889	741	972
890	654	734
891	660	441
892	963	391
893	745	71
894	202	55
895	972	34
896	627	631
897	984	371
898	265	225
899	482	504
900	345	800
901	488	293
902	657	256
903	474	758
904	892	719
905	180	112
906	659	817
907	327	663
908	839	120
909	332	312
910	168	572
911	64	286
912	470	161
913	527	567
914	950	952
915	153	744
916	694	396
917	308	605
918	446	957
919	625	664
920	987	546
921	924	40
922	965	516
923	726	921
924	261	367
925	561	408
926	879	303
927	685	466
928	249	421
929	780	735
930	979	865
931	747	179
932	612	881
933	346	828
934	474	198
935	686	884
936	612	370
937	980	234
938	374	344
939	233	158
940	222	165
941	770	26
942	155	832
943	294	819
944	615	450
945	696	85
946	741	643
947	62	404
948	947	204
949	960	948
950	595	838
951	107	289
952	990	523
953	898	581
954	96	33
955	145	785
956	164	343
957	301	445
958	711	202
959	934	872
960	440	745
961	587	915
962	212	790
963	519	536
964	429	800
965	348	18
966	872	139
967	187	331
968	645	20
969	896	446
970	142	196
971	865	670
972	757	268
973	199	320
974	474	476
975	458	151
976	143	700
977	63	912
978	897	199
979	536	694
980	512	740
981	988	951
982	771	959
983	298	145
984	802	552
985	71	585
986	461	651
987	170	681
988	2	768
989	522	184
990	525	275
991	679	137
992	788	231
993	747	823
994	846	629
995	505	409
996	867	345
997	14	571
998	931	650
999	409	920
1000	197	959
1001	673	320
DEMAND_SECTION
1	0
2	2
3	5
4	8
5	6
6	1
7	7
8	9
9	8
10	7
11	2
12	7
13	9
14	2
15	9
16	7
17	9
18	9
19	4
20	9
21	5
22	6
23	3
24	2
25	6
26	5
27	9
28	4
29	5
30	3
31	2
32	2
33	4
34	9
35	2
36	1
37	6
38	3
39	6
40	2
41	5
42	5
43	7
44	2
45	4
46	1
47	3
48	4
49	1
50	4
51	3
52	9
53	9
54	1
55	8
56	8
57	9
58	5
59	5
60	1
61	1
62	9
63	4
64	4
65	8
66	6
67	9
68	7
69	4
70	7
71	8
72	2
73	5
74	4
75	9
76	6
77	8
78	8
79	6
80	2
81	7
82	3
83	5
84	2
85	7
86	3
87	7
88	1
89	4
90	9
91	6
92	5
93	3
94	1
95	7
96	3
97	5
98	1
99	1
100	2
101	6
102	2
103	7
104	8
105	3
106	6
107	8
108	5
109	3
110	8
111	8
112	8
113	3
114	6
115	2
116	2
117	2
118	5
119	6
120	9
121	7
122	3
123	5
124	4
125	4
126	9
127	9
128	1
129	9
130	5
131	2
132	9
133	1
134	4
135	3
136	4
137	7
138	5
139	1
140	2
141	1
142	1
143	6
144	9
145	9
146	5
147	9
148	9
149	4
150	1
151	2
152	2
153	3
154	8
155	9
156	2
157	4
158	7
159	7
160	3
161	7
162	3
163	7
164	6
165	5
166	5
167	1
168	9
169	5
170	4
171	5
172	1
173	1
174	9
175	7
176	7
177	2
178	6
179	1
180	1
181	3
182	4
183	4
184	6
185	2
186	2
187	2
188	6
189	7
190	5
191	3
192	7
193	5
194	3
195	2
196	7
197	6
198	1
199	1
200	9
201	3
202	8
203	9
204	4
205	6
206	6
207	7
208	9
209	2
210	2
211	5
212	1
213	2
214	8
215	7
216	6
217	7
218	7
219	7
220	5
221	8
222	8
223	2
224	7
225	6
226	9
227	8
228	6
229	7
230	4
231	2
232	8
233	5
234	1
235	9
236	5
237	9
238	4
239	8
240	6
241	7
242	1
243	3
244	9
245	8
246	6
247	5
248	2
249	3
250	8
251	6
252	9
253	7
254	6
255	4
256	9
257	9
258	2
259	9
260	9
261	6
262	4
263	3
264	1
265	9
266	8
267	7
268	3
269	2
270	4
271	3
272	9
273	2
274	4
275	7
276	3
277	8
278	4
279	2
280	5
281	8
282	1
283	2
284	7
285	2
286	1
287	7
288	9
289	7
290	9
291	6
292	6
293	5
294	3
295	3
296	2
297	6
298	5
299	1
300	4
301	2
302	1
303	2
304	6
305	2
306	2
307	8
308	2
309	5
310	1
311	7
312	4
313	1
314	6
315	8
316	7
317	5
318	9
319	1
320	5
321	9
322	5
323	2
324	7
325	4
326	7
327	8
328	3
329	9
330	1
331	2
332	5
333	4
334	8
335	7
336	9
337	2
338	5
339	3
340	9
341	5
342	5
343	5
344	5
345	5
346	6
347	9
348	9
349	9
350	5
351	4
352	3
353	6
354	5
355	7
356	5
357	5
358	9
359	5
360	4
361	2
362	1
363	7
364	6
365	9
366	5
367	4
368	5
369	3
370	2
371	1
372	9
373	5
374	3
375	3
376	5
377	5
378	1
379	2
380	2
381	1
382	7
383	1
384	3
385	9
386	4
387	8
388	2
389	7
390	6
391	3
392	7
393	4
394	3
395	8
396	9
397	2
398	1
399	6
400	8
401	5
402	6
403	2
404	6
405	3
406	5
407	6
408	7
409	5
410	3
411	9
412	2
413	3
414	9
415	7
416	1
417	1
418	4
419	3
420	3
421	1
422	8
423	8
424	5
425	4
426	1
427	1
428	6
429	9
430	6
431	8
432	3
433	9
434	1
435	7
436	2
437	3
438	5
439	9
440	2
441	5
442	4
443	7
444	7
445	3
446	8
447	2
448	2
449	5
450	6
451	1
452	6
453	5
454	5
455	3
456	2
457	3
458	9
459	5
460	8
461	2
462	7
463	3
464	8
465	7
466	9
467	1
468	3
469	4
470	8
471	6
472	8
473	2
474	4
475	6
476	1
477	1
478	5
479	8
480	7
481	1
482	4
483	6
484	9
485	8
486	6
487	6
488	7
489	9
490	1
491	1
492	9
493	5
494	1
495	8
496	3
497	2
498	8
499	1
500	7
501	4
502	8
503	4
504	6
505	7
506	3
507	4
508	3
509	5
510	5
511	4
512	7
513	4
514	9
515	1
516	4
517	1
518	3
519	5
520	8
521	5
522	8
523	1
524	7
525	8
526	8
527	6
528	1
529	6
530	2
531	1
532	8
533	2
534	7
535	9
536	1
537	2
538	4
539	9
540	9
541	2
542	1
543	3
544	1
545	8
546	7
547	2
548	2
549	4
550	1
551	2
552	4
553	3
554	2
555	8
556	3
557	7
558	7
559	1
560	7
561	4
562	3
563	5
564	3
565	8
566	8
567	1
568	8
569	5
570	7
571	4
572	8
573	1
574	5
575	9
576	7
577	9
578	8
579	1
580	2
581	2
582	5
583	3
584	6
585	5
586	5
587	5
588	6
589	7
590	2
591	7
592	1
593	7
594	5
595	9
596	3
597	7
598	9
599	7
600	5
601	9
602	9
603	1
604	7
605	7
606	5
607	6
608	1
609	2
610	3
611	1
612	6
613	4
614	3
615	6
616	3
617	7
618	7
619	1
620	6
621	8
622	8
623	1
624	3
625	4
626	5
627	4
628	3
629	6
630	3
631	6
632	3
633	6
634	8
635	7
636	6
637	2
638	6
639	1
640	5
641	6
642	3
643	8
644	4
645	3
646	1
647	5
648	9
649	5
650	2
651	3
652	1
653	8
654	1
655	1
656	2
657	8
658	7
659	1
660	2
661	4
662	4
663	8
664	7
665	9
666	2
667	5
668	6
669	6
670	2
671	3
672	8
673	7
674	4
675	4
676	7
677	8
678	1
679	7
680	9
681	2
682	8
683	6
684	9
685	3
686	2
687	8
688	7
689	6
690	6
691	4
692	9
693	5
694	1
695	8
696	5
697	3
698	5
699	6
700	2
701	2
702	4
703	9
704	4
705	2
706	6
707	1
708	9
709	7
710	7
711	5
712	2
713	3
714	1
715	8
716	7
717	5
718	5
719	6
720	3
721	3
722	9
723	3
724	7
725	5
726	4
727	6
728	1
729	8
730	5
731	2
732	5
733	5
734	3
735	9
736	5
737	5
738	2
739	6
740	5
741	6
742	2
743	4
744	7
745	7
746	8
747	1
748	7
749	3
750	9
751	7
752	8
753	8
754	7
755	3
756	7
757	6
758	5
759	7
760	6
761	5
762	4
763	5
764	6
765	7
766	6
767	4
768	9
769	2
770	4
771	3
772	9
773	7
774	3
775	6
776	9
777	4
778	3
779	9
780	6
781	3
782	9
783	2
784	2
785	9
786	5
787	5
788	1
789	8
790	4
791	9
792	7
793	3
794	5
795	3
796	9
797	1
798	2
799	4
800	4
801	9
802	6
803	3
804	4
805	1
806	5
807	2
808	3
809	5
810	2
811	7
812	6
813	7
814	7
815	1
816	2
817	4
818	2
819	2
820	9
821	6
822	9
823	3
824	7
825	9
826	7
827	5
828	5
829	2
830	9
831	5
832	2
833	8
834	2
835	2
836	7
837	2
838	5
839	6
840	1
841	5
842	3
843	7
844	9
845	3
846	7
847	4
848	8
849	1
850	8
851	9
852	4
853	1
854	8
855	3
856	3
857	7
858	2
859	6
860	6
861	7
862	4
863	5
864	9
865	8
866	4
867	4
868	9
869	3
870	8
871	9
872	1
873	1
874	9
875	2
876	3
877	8
878	5
879	3
880	3
881	3
882	2
883	2
884	1
885	6
886	6
887	2
888	3
889	4
890	9
891	9
892	9
893	2
894	4
895	7
896	7
897	7
898	1
899	3
900	1
901	2
902	7
903	4
904	7
905	9
906	5
907	4
908	4
909	5
910	4
911	3
912	4
913	4
914	1
915	2
916	1
917	1
918	6
919	1
920	6
921	2
922	3
923	8
924	2
925	7
926	9
927	6
928	8
929	8
930	5
931	8
932	6
933	4
934	5
935	1
936	8
937	2
938	1
939	6
940	8
941	4
942	5
943	5
944	4
945	2
946	7
947	1
948	1
949	3
950	2
951	2
952	9
953	8
954	8
955	6
956	9
957	1
958	9
959	2
960	1
961	9
962	3
963	8
964	3
965	1
966	6
967	7
968	3
969	1
970	6
971	8
972	6
973	8
974	3
975	6
976	2
977	3
978	9
979	3
980	1
981	6
982	1
983	7
984	2
985	7
986	1
987	9
988	6
989	8
990	8
991	2
992	2
993	9
994	3
995	5
996	1
997	3
998	7
999	2
1000	7
1001	9
TIME_WINDOW_SECTION
1	0	3000
2	4	861
3	994	1674
4	1007	1934
5	1188	2121
6	754	2381
7	241	479
8	1773	2041
9	1716	2348
10	589	2415
11	1660	1946
12	538	2105
13	1666	2343
14	1076	2163
15	1990	2612
16	1248	2733
17	399	1851
18	805	2422
19	1049	2671
20	833	1087
21	1552	3000
22	1870	2578
23	652	1782
24	710	1100
25	588	1081
26	954	2673
27	383	1771
28	746	1094
29	746	1366
30	750	2194
31	575	1468
32	264	930
33	689	1890
34	684	1018
35	169	823
36	514	1098
37	946	2023
38	511	1732
39	1669	1986
40	1682	2677
41	1476	2234
42	1848	3000
43	393	1680
44	136	1472
45	1487	2247
46	1294	2694
47	1386	2902
48	1841	3000
49	0	1481
50	1084	2559
51	0	1472
52	604	1139
53	1288	2441
54	690	1496
55	610	942
56	359	1142
57	756	1262
58	618	1373
59	1222	2114
60	1346	2463
61	1229	2095
62	262	1526
63	0	1067
64	49	1456
65	1015	2394
66	1220	2958
67	1012	2336
68	689	2616
69	1866	2784
70	410	2241
71	1373	1940
72	1028	2067
73	1857	2702
74	1483	3000
75	1463	2177
76	1440	2608
77	871	1872
78	1821	2398
79	1009	2173
80	677	1665
81	1979	3000
82	1042	2205
83	104	421
84	1124	1643
85	1019	1661
86	673	2153
87	541	1005
88	0	1740
89	926	2010
90	961	1321
91	1570	2612
92	156	618
93	255	1255
94	704	1742
95	1801	3000
96	1706	2925
97	547	780
98	788	2571
99	166	1912
100	1396	2065
101	233	1681
102	2190	2740
103	1094	2548
104	382	2201
105	1253	2009
106	446	2249
107	875	1766
108	1770	2357
109	1026	2006
110	435	1596
111	178	1169
112	664	1972
113	1603	1877
114	879	2854
115	1216	2179
116	322	1555
117	1061	1582
118	496	1226
119	1301	3000
120	456	2328
121	1978	3000
122	1414	1804
123	1581	2596
124	1561	2195
125	1616	3000
126	1177	2190
127	1266	2440
128	349	1704
129	729	1481
130	327	2007
131	775	2654
132	2198	2446
133	955	2637
134	354	1033
135	596	2432
136	981	2661
137	1041	1263
138	0	1425
139	694	2478
140	682	2586
141	155	1865
142	1039	2933
143	1350	3000
144	35	1462
145	481	1107
146	725	1368
147	836	2663
148	583	1438
149	590	1110
150	0	1419
151	1369	1609
152	95	1880
153	1316	2245
154	1237	1632
155	1366	2632
156	758	1772
157	659	2175
158	981	2171
159	638	2533
160	0	1155
161	777	1066
162	1298	2237
163	875	2587
164	435	1896
165	2203	2932
166	232	483
167	185	1832
168	1111	1883
169	651	922
170	607	1849
171	228	1865
172	1341	2513
173	0	1251
174	0	1938
175	1306	2616
176	1256	2236
177	0	1574
178	1683	2570
179	653	1960
180	773	2251
181	1010	2556
182	1422	3000
183	1323	2946
184	332	2272
185	966	2167
186	795	1363
187	1109	2607
188	418	2292
189	706	2569
190	1801	2341
191	0	1304
192	644	2562
193	1333	2103
194	1235	3000
195	412	1568
196	1113	1491
197	230	1869
198	432	695
199	1350	2787
200	1308	2405
201	1616	2375
202	288	1368
203	482	1184
204	262	2239
205	1443	2436
206	844	2012
207	1080	2629
208	686	1060
209	103	1987
210	889	1741
211	760	2618
212	413	1597
213	875	2696
214	727	1575
215	2299	3000
216	1837	2261
217	257	1001
218	0	563
219	1210	2672
220	1532	2857
221	0	1475
222	1659	2089
223	683	1567
224	625	2338
225	557	1246
226	889	1255
227	411	1540
228	927	2725
229	1642	2349
230	67	800
231	902	1173
232	1609	2695
233	73	1144
234	1329	2114
235	2097	2338
236	247	2189
237	1137	2822
238	1490	2590
239	1348	1807
240	750	1631
241	538	2048
242	0	1451
243	558	1889
244	1678	2531
245	223	662
246	1471	2341
247	1220	2724
248	681	1850
249	1337	3000
250	177	1651
251	168	2092
252	292	1203
253	452	806
254	964	1469
255	0	1357
256	0	1786
257	696	1033
258	1774	2000
259	1978	2957
260	296	1307
261	744	1639
262	505	2105
263	855	2256
264	328	1801
265	0	1016
266	680	2149
267	1012	1493
268	1223	3000
269	993	1717
270	616	1519
271	1993	2390
272	303	1037
273	497	1121
274	1102	2801
275	2044	2354
276	946	2607
277	0	1118
278	953	1899
279	1457	2405
280	1575	2237
281	1889	2743
282	1041	1541
283	1214	2861
284	890	1173
285	1281	1842
286	1093	2068
287	702	1469
288	407	1325
289	483	2012
290	2219	2475
291	0	1662
292	1691	2328
293	1659	1922
294	1469	2200
295	1113	3000
296	1111	2256
297	0	1179
298	1335	2558
299	658	1996
300	1577	2064
301	474	1275
302	1399	2231
303	794	1833
304	0	1635
305	528	2436
306	1157	1982
307	233	1045
308	1260	2743
309	1305	2466
310	932	2480
311	587	1603
312	0	1562
313	547	1241
314	538	1833
315	1959	2507
316	0	1258
317	979	2642
318	1168	2376
319	591	1322
320	857	2583
321	0	1894
322	217	2110
323	1054	1324
324	259	834
325	1357	3000
326	429	2357
327	1257	2463
328	1991	2503
329	1080	2702
330	1371	1960
331	188	1582
332	2104	2411
333	614	2344
334	194	1588
335	0	1472
336	503	1291
337	1257	1626
338	1740	3000
339	0	1263
340	1216	1459
341	702	2105
342	1301	2042
343	0	1320
344	1411	1650
345	888	2797
346	262	814
347	258	538
348	456	1701
349	320	1037
350	807	1242
351	0	1590
352	1617	2141
353	47	1453
354	377	1868
355	1406	2721
356	966	2129
357	1166	2340
358	570	1967
359	1424	1856
360	0	1868
361	0	1760
362	1475	1760
363	1313	2325
364	1050	1702
365	700	907
366	0	1041
367	1003	2611
368	785	1950
369	1875	2261
370	0	1432
371	105	1317
372	1622	2457
373	846	1668
374	1421	2192
375	1541	2952
376	1443	3000
377	274	2038
378	1791	2000
379	204	1586
380	1426	2505
381	837	1070
382	1603	2185
383	1225	2936
384	677	1029
385	748	2428
386	1104	2580
387	1938	2486
388	1137	2378
389	218	1696
390	867	1514
391	1142	2386
392	203	1607
393	159	1887
394	621	1705
395	312	1876
396	1280	2165
397	1696	2327
398	1103	1681
399	1275	1682
400	1853	2109
401	466	1462
402	1142	2623
403	629	1021
404	1078	1916
405	331	1806
406	942	2719
407	1593	2496
408	1038	2036
409	570	1330
410	0	1474
411	519	1304
412	0	1679
413	1886	2429
414	874	2426
415	1010	2648
416	1693	2974
417	1577	2759
418	945	1643
419	1069	2376
420	980	1668
421	0	1428
422	881	1236
423	1225	3000
424	1435	1894
425	855	2445
426	0	1829
427	1134	1539
428	86	1247
429	394	1758
430	1273	2487
431	681	1310
432	196	952
433	1352	3000
434	0	1345
435	1481	1712
436	460	722
437	284	1474
438	683	1309
439	0	1278
440	1530	1766
441	760	2083
442	459	2250
443	1886	2438
444	1504	1726
445	598	1131
446	165	1111
447	532	1293
448	1032	1629
449	1411	1677
450	0	1687
451	1431	1848
452	1163	2245
453	1653	2178
454	0	1011
455	1233	2262
456	1264	1643
457	1635	1961
458	1272	2056
459	939	1337
460	730	971
461	1430	2023
462	2085	2869
463	857	2188
464	945	2479
465	1550	2485
466	17	1098
467	144	1205
468	1916	2499
469	1597	2637
470	0	1617
471	692	2066
472	1781	2798
473	0	1554
474	1625	2692
475	1219	1723
476	1611	2101
477	401	1806
478	0	1501
479	870	2076
480	2337	2668
481	511	1819
482	263	1865
483	1556	3000
484	1571	2072
485	704	1701
486	296	1486
487	977	2782
488	0	1863
489	1589	2716
490	294	1291
491	563	1415
492	0	409
493	380	1005
494	1329	2251
495	0	1110
496	750	1719
497	284	1269
498	1350	3000
499	730	1323
500	336	2214
501	171	1646
502	621	1634
503	485	2066
504	172	1382
505	1470	1889
506	1468	2459
507	1518	3000
508	1085	2754
509	688	2541
510	1637	3000
511	553	1076
512	1613	2670
513	1057	2039
514	947	1914
515	851	2045
516	1247	1764
517	1480	2234
518	952	2802
519	119	1872
520	1897	2316
521	1042	1419
522	1306	2773
523	771	2435
524	446	1265
525	863	2478
526	449	1096
527	1118	3000
528	721	2573
529	1285	2839
530	1455	2001
531	1759	2220
532	1642	1993
533	1272	2499
534	945	1808
535	756	1423
536	865	1105
537	440	922
538	2190	2644
539	198	1381
540	1087	2923
541	1810	2603
542	136	902
543	419	2349
544	711	2570
545	448	1300
546	1751	2749
547	0	1658
548	1783	3000
549	0	1232
550	1945	2209
551	0	1288
552	491	1207
553	1084	1342
554	677	886
555	129	1620
556	439	1981
557	0	1350
558	1261	1950
559	747	1773
560	1431	1952
561	1082	1867
562	981	2409
563	836	1336
564	0	1548
565	624	847
566	1474	2171
567	1379	1892
568	1347	2277
569	995	1202
570	2208	2605
571	807	1967
572	899	2433
573	1374	2618
574	710	2212
575	1225	2668
576	583	2498
577	1173	2751
578	1778	2976
579	1582	2789
580	775	1089
581	1946	2494
582	1250	1807
583	64	1975
584	484	1015
585	1098	1866
586	1108	1353
587	1646	2515
588	385	874
589	1192	1544
590	1398	1796
591	1233	3000
592	0	1888
593	1091	3000
594	696	2695
595	292	1138
596	1258	1735
597	743	1906
598	1118	2905
599	672	1620
600	1074	1343
601	968	2107
602	1424	3000
603	1559	2164
604	639	1648
605	422	991
606	707	2575
607	471	675
608	1503	2699
609	1194	2479
610	0	1007
611	169	1756
612	0	705
613	404	696
614	0	1374
615	693	1930
616	494	1430
617	1601	2680
618	367	793
619	1045	2467
620	0	1411
621	1541	3000
622	1608	2264
623	1354	1890
624	1598	2378
625	1997	2210
626	1847	2880
627	634	960
628	0	1416
629	1511	2552
630	251	1218
631	637	1135
632	1278	3000
633	0	1094
634	1775	2084
635	876	2711
636	1388	2295
637	0	1803
638	1194	2505
639	435	2360
640	474	2377
641	1256	1521
642	850	2802
643	1063	1430
644	282	1312
645	1557	1762
646	1204	3000
647	1859	2618
648	1304	2376
649	1055	1986
650	533	2365
651	1172	2867
652	1330	1860
653	287	1877
654	1793	2266
655	1641	2208
656	375	1940
657	109	1640
658	1655	1872
659	529	859
660	873	1533
661	195	1619
662	1004	1658
663	553	2505
664	1563	2839
665	1171	1815
666	641	1327
667	1259	1823
668	912	2904
669	1316	3000
670	892	1495
671	768	1063
672	502	1657
673	349	1541
674	497	2246
675	334	1454
676	1140	2340
677	471	1627
678	558	2267
679	1836	3000
680	1657	2240
681	570	978
682	0	1410
683	1518	3000
684	1085	2011
685	736	1150
686	885	1303
687	801	1635
688	1989	2357
689	263	509
690	297	801
691	1118	1741
692	328	1354
693	308	1782
694	1409	2769
695	0	1839
696	1551	1948
697	1241	2163
698	0	459
699	993	2125
700	1079	2890
701	2141	2568
702	737	1915
703	930	1678
704	2085	2387
705	384	1248
706	0	1013
707	1425	2670
708	1689	2849
709	1626	2752
710	1823	2070
711	1053	1741
712	651	1870
713	1198	1662
714	1195	2620
715	242	2236
716	213	1040
717	741	1916
718	0	1243
719	901	2185
720	1075	2234
721	1705	1906
722	448	2166
723	132	1843
724	974	1648
725	871	2368
726	1103	1997
727	802	1880
728	108	1116
729	1086	1408
730	1398	2348
731	613	1752
732	0	1439
733	615	2388
734	969	2218
735	202	1947
736	301	1731
737	1205	2574
738	909	1135
739	362	1717
740	1054	2575
741	1751	2196
742	1322	3000
743	1310	3000
744	801	2581
745	794	1014
746	351	1306
747	1985	2481
748	583	2212
749	1483	2598
750	254	1863
751	722	1896
752	1312	2651
753	1508	2829
754	828	2669
755	1937	2224
756	1326	1750
757	601	2270
758	401	1475
759	920	1478
760	1128	2402
761	59	1716
762	0	1733
763	404	2069
764	769	974
765	1365	1630
766	557	1851
767	1640	1945
768	728	1953
769	379	648
770	842	1597
771	0	640
772	2011	3000
773	268	1636
774	514	2405
775	1146	2598
776	0	1420
777	1438	2072
778	1433	2159
779	350	2074
780	1742	2629
781	1071	2271
782	419	2327
783	87	1906
784	425	1324
785	325	1100
786	1142	2835
787	0	1226
788	1548	1856
789	593	2264
790	0	1780
791	1023	2540
792	585	841
793	628	1715
794	884	2374
795	204	601
796	1278	2406
797	690	2357
798	0	1113
799	499	985
800	1573	3000
801	0	1344
802	1348	1603
803	1874	3000
804	1391	2409
805	786	1416
806	488	1646
807	916	2709
808	856	1614
809	786	2260
810	2046	3000
811	505	1713
812	1330	2252
813	257	2189
814	374	1741
815	416	1479
816	2005	2256
817	704	1698
818	1256	1908
819	711	941
820	984	2932
821	0	1669
822	1725	2463
823	378	2057
824	1432	3000
825	357	1384
826	730	2650
827	264	1473
828	1558	2222
829	121	1065
830	1179	1704
831	375	1066
832	935	2667
833	1066	2316
834	403	2188
835	244	1011
836	0	1128
837	857	1060
838	1195	1796
839	529	1164
840	1042	1743
841	793	2365
842	315	1757
843	1065	2852
844	574	1861
845	351	1186
846	2073	2447
847	1469	1901
848	1656	2224
849	1342	2627
850	0	1482
851	440	1393
852	167	1497
853	0	1576
854	122	1201
855	1346	2781
856	1744	2430
857	1663	2850
858	0	1583
859	281	936
860	859	1082
861	27	1746
862	1510	1922
863	358	1897
864	1573	1875
865	416	1362
866	1234	1788
867	1388	3000
868	498	1150
869	723	2663
870	52	1907
871	591	1987
872	1625	2232
873	134	2019
874	156	550
875	1394	3000
876	0	1256
877	2057	2282
878	1536	1763
879	139	1829
880	685	1328
881	1578	3000
882	944	1484
883	1425	2775
884	1402	2625
885	601	1715
886	0	1820
887	1789	2353
888	1136	1971
889	1044	2191
890	110	1043
891	0	1297
892	938	2395
893	598	2176
894	1426	2300
895	432	2151
896	0	1240
897	283	2136
898	1404	2222
899	0	1694
900	1053	2959
901	0	1436
902	850	1756
903	1288	2131
904	571	1331
905	1854	2356
906	1340	2188
907	1970	3000
908	428	1362
909	0	1289
910	1119	2373
911	1697	1998
912	939	1951
913	1273	2887
914	1226	2634
915	0	898
916	328	1228
917	0	895
918	802	2214
919	1606	2934
920	684	2128
921	1220	1801
922	958	1931
923	811	2740
924	1252	2169
925	1054	1898
926	1367	2744
927	379	765
928	1629	2273
929	353	1257
930	1758	2066
931	435	1807
932	1359	1573
933	1794	2454
934	1460	1796
935	1538	2145
936	1306	1965
937	754	2043
938	1220	2214
939	1353	3000
940	1973	2221
941	928	2892
942	322	1404
943	1157	2893
944	947	1642
945	1160	1603
946	22	1364
947	642	1399
948	610	1148
949	1580	2384
950	395	2273
951	0	1411
952	1199	2315
953	999	1244
954	908	2037
955	399	1673
956	1096	2524
957	1956	3000
958	638	2004
959	228	1537
960	407	712
961	1252	1581
962	361	1329
963	1679	3000
964	442	1770
965	320	1251
966	1028	1919
967	114	747
968	955	1936
969	466	2195
970	441	2431
971	622	1317
972	1213	2124
973	1093	2306
974	1648	3000
975	806	1343
976	898	1635
977	0	1806
978	1443	2183
979	1385	1959
980	0	1005
981	619	1461
982	1573	2275
983	781	2060
984	1601	1961
985	112	1666
986	254	1347
987	0	1380
988	920	1511
989	932	1564
990	1020	1313
991	1887	2344
992	1583	2563
993	145	1723
994	168	2135
995	415	2104
996	0	1937
997	1269	2677
998	401	1177
999	902	1663
1000	0	1110
1001	1033	2138
DEPOT_SECTION
1
-1
EOF
