NAME : n1001-0022
COMMENT : "Generated by pyvrp_manuel (OVRPTW)"
TYPE : OVRPTW
DIMENSION : 1001
EDGE_WEIGHT_TYPE : EUC_2D
CAPACITY : 150
VEHICLES : 1000
OPEN_ROUTE : YES
SERVICE_TIME : 200
NODE_COORD_SECTION
1	686	9
2	355	478
3	167	146
4	336	7
5	91	230
6	868	793
7	634	121
8	237	463
9	506	863
10	543	417
11	169	803
12	679	651
13	434	303
14	471	731
15	838	775
16	637	412
17	64	912
18	16	320
19	725	405
20	296	999
21	658	123
22	371	106
23	974	784
24	27	724
25	110	967
26	898	451
27	604	2
28	909	545
29	668	590
30	321	606
31	672	193
32	375	641
33	871	417
34	666	886
35	626	995
36	761	609
37	564	729
38	791	216
39	174	168
40	817	682
41	191	981
42	664	6
43	52	581
44	696	903
45	666	839
46	72	926
47	179	25
48	345	71
49	399	741
50	171	902
51	567	376
52	54	734
53	594	843
54	642	137
55	258	190
56	690	595
57	595	938
58	472	337
59	180	796
60	610	545
61	997	906
62	353	474
63	146	121
64	460	443
65	121	440
66	770	613
67	670	415
68	431	180
69	635	563
70	34	202
71	477	980
72	990	449
73	753	527
74	130	144
75	552	231
76	892	648
77	949	105
78	118	474
79	548	984
80	454	56
81	228	307
82	119	238
83	633	254
84	774	45
85	184	607
86	289	41
87	660	561
88	237	307
89	508	541
90	495	906
91	419	768
92	957	211
93	949	403
94	676	913
95	215	236
96	907	311
97	444	276
98	229	951
99	158	721
100	114	406
101	690	516
102	822	914
103	982	160
104	423	296
105	819	708
106	78	288
107	621	698
108	410	645
109	670	911
110	289	293
111	261	675
112	515	858
113	185	214
114	835	656
115	344	707
116	219	495
117	821	195
118	937	172
119	583	638
120	385	423
121	252	101
122	859	58
123	602	149
124	174	157
125	328	558
126	734	373
127	200	118
128	910	705
129	369	588
130	897	603
131	988	611
132	207	743
133	66	439
134	623	51
135	153	14
136	648	339
137	814	351
138	171	567
139	386	147
140	391	511
141	925	678
142	377	623
143	945	451
144	397	573
145	258	4
146	52	562
147	558	321
148	515	725
149	339	796
150	572	341
151	217	883
152	320	47
153	102	887
154	746	552
155	338	594
156	744	668
157	534	148
158	920	473
159	814	727
160	206	273
161	404	787
162	982	39
163	240	556
164	349	128
165	983	879
166	693	223
167	280	131
168	916	124
169	892	790
170	357	646
171	964	650
172	215	923
173	62	219
174	685	980
175	136	722
176	586	409
177	522	711
178	777	804
179	687	274
180	291	15
181	563	868
182	984	355
183	800	138
184	456	359
185	105	969
186	254	675
187	627	306
188	423	572
189	31	796
190	223	254
191	485	531
192	211	125
193	882	661
194	92	312
195	376	913
196	6	244
197	760	848
198	192	6
199	211	187
200	979	515
201	557	15
202	969	283
203	595	492
204	14	203
205	581	971
206	992	272
207	444	73
208	994	277
209	734	566
210	996	437
211	842	230
212	528	980
213	269	357
214	165	515
215	796	294
216	926	753
217	354	611
218	288	188
219	63	637
220	556	812
221	349	640
222	798	432
223	540	81
224	989	456
225	527	313
226	810	613
227	768	449
228	970	984
229	174	282
230	983	705
231	997	177
232	873	849
233	526	221
234	520	839
235	228	833
236	59	998
237	649	343
238	613	37
239	100	557
240	444	364
241	611	329
242	733	639
243	17	152
244	792	993
245	64	426
246	247	561
247	457	25
248	602	437
249	193	81
250	114	203
251	826	71
252	697	224
253	509	231
254	798	790
255	938	491
256	243	724
257	375	23
258	840	705
259	323	932
260	330	357
261	890	92
262	8	86
263	131	597
264	825	172
265	724	758
266	710	317
267	414	858
268	354	767
269	830	612
270	879	150
271	987	760
272	40	30
273	0	394
274	690	958
275	275	471
276	811	803
277	251	999
278	111	920
279	43	167
280	853	221
281	332	10
282	205	365
283	825	968
284	49	890
285	600	557
286	279	364
287	136	274
288	795	680
289	738	318
290	212	359
291	775	671
292	465	793
293	480	811
294	95	358
295	980	295
296	416	443
297	980	823
298	309	987
299	754	253
300	0	749
301	931	979
302	603	187
303	173	163
304	910	758
305	949	853
306	460	746
307	29	303
308	516	664
309	17	594
310	471	867
311	210	54
312	553	626
313	572	239
314	485	112
315	390	768
316	262	76
317	992	631
318	274	451
319	82	722
320	685	18
321	139	562
322	678	528
323	122	208
324	935	908
325	292	930
326	674	509
327	640	670
328	689	310
329	987	520
330	379	623
331	115	654
332	424	384
333	588	14
334	567	402
335	450	700
336	684	801
337	183	747
338	380	162
339	122	125
340	777	88
341	359	269
342	657	401
343	371	364
344	500	503
345	833	694
346	726	686
347	437	879
348	144	930
349	771	187
350	523	16
351	560	874
352	188	773
353	184	592
354	372	359
355	99	410
356	791	562
357	484	867
358	619	759
359	664	216
360	281	16
361	111	585
362	721	734
363	712	635
364	57	271
365	33	938
366	633	237
367	454	494
368	592	88
369	121	929
370	72	818
371	747	632
372	756	998
373	116	645
374	792	402
375	361	688
376	712	198
377	755	170
378	944	24
379	112	656
380	703	187
381	745	78
382	864	160
383	839	808
384	875	885
385	701	96
386	215	988
387	258	497
388	648	872
389	276	377
390	873	69
391	79	675
392	635	765
393	694	368
394	213	948
395	60	817
396	948	990
397	612	229
398	299	297
399	122	724
400	160	782
401	953	2
402	716	368
403	466	944
404	678	616
405	181	381
406	899	75
407	485	431
408	31	987
409	297	926
410	379	165
411	90	56
412	104	77
413	290	199
414	63	371
415	313	341
416	137	256
417	824	199
418	376	931
419	985	680
420	385	753
421	524	708
422	795	393
423	463	53
424	261	356
425	349	953
426	957	758
427	879	742
428	129	455
429	42	576
430	524	767
431	490	153
432	947	344
433	316	437
434	22	186
435	825	408
436	78	370
437	329	542
438	508	44
439	956	366
440	491	138
441	701	985
442	908	618
443	890	874
444	931	311
445	780	694
446	127	917
447	659	860
448	978	227
449	323	918
450	904	260
451	788	480
452	604	170
453	468	586
454	96	358
455	79	102
456	657	825
457	911	135
458	320	53
459	199	936
460	33	695
461	833	186
462	576	254
463	542	683
464	952	394
465	103	126
466	412	364
467	688	250
468	762	245
469	107	657
470	300	345
471	729	830
472	234	992
473	789	950
474	476	158
475	45	290
476	87	399
477	618	692
478	1	803
479	228	121
480	35	882
481	472	900
482	319	627
483	354	709
484	597	574
485	465	324
486	301	716
487	742	827
488	46	916
489	864	703
490	974	482
491	39	892
492	54	386
493	269	136
494	816	373
495	957	77
496	388	694
497	652	927
498	736	930
499	757	931
500	996	516
501	993	224
502	690	519
503	872	634
504	474	251
505	768	844
506	177	179
507	253	812
508	475	47
509	9	868
510	147	872
511	903	274
512	592	784
513	184	364
514	282	296
515	133	79
516	569	359
517	562	802
518	730	933
519	127	990
520	449	389
521	572	621
522	239	696
523	684	464
524	315	803
525	764	688
526	387	899
527	423	393
528	898	846
529	322	419
530	845	755
531	275	215
532	73	685
533	37	959
534	922	795
535	691	70
536	182	172
537	29	886
538	569	749
539	643	253
540	512	665
541	358	939
542	669	400
543	971	694
544	758	155
545	590	416
546	547	875
547	437	229
548	817	866
549	106	769
550	757	903
551	813	341
552	863	923
553	477	112
554	713	727
555	29	228
556	754	894
557	989	447
558	616	362
559	802	778
560	894	734
561	830	456
562	24	450
563	665	550
564	289	70
565	100	596
566	269	388
567	413	338
568	322	888
569	98	952
570	131	53
571	543	244
572	922	508
573	476	813
574	299	817
575	166	909
576	338	434
577	631	12
578	829	436
579	686	21
580	106	808
581	793	427
582	880	968
583	750	788
584	582	154
585	597	21
586	176	927
587	989	3
588	874	428
589	405	345
590	71	184
591	768	162
592	121	339
593	799	330
594	94	239
595	666	215
596	420	156
597	68	517
598	337	439
599	44	839
600	461	769
601	994	609
602	992	819
603	91	441
604	446	732
605	739	687
606	584	475
607	911	566
608	716	769
609	905	783
610	701	830
611	793	576
612	219	871
613	634	408
614	173	457
615	579	284
616	325	607
617	749	353
618	919	780
619	961	399
620	876	10
621	992	303
622	920	518
623	575	568
624	60	546
625	994	430
626	242	323
627	634	837
628	267	69
629	556	543
630	985	487
631	893	958
632	64	52
633	330	437
634	225	856
635	92	717
636	170	588
637	66	2
638	850	587
639	514	313
640	919	88
641	19	401
642	747	754
643	560	667
644	373	153
645	527	656
646	713	212
647	480	805
648	893	158
649	38	842
650	948	257
651	305	829
652	770	144
653	242	412
654	722	241
655	614	467
656	331	634
657	366	301
658	599	40
659	628	236
660	175	722
661	204	863
662	544	778
663	0	750
664	979	311
665	732	981
666	299	674
667	574	77
668	556	962
669	348	819
670	953	575
671	914	293
672	318	720
673	619	15
674	119	498
675	517	926
676	657	493
677	949	797
678	28	96
679	199	460
680	643	364
681	859	25
682	609	14
683	361	737
684	419	83
685	278	123
686	787	964
687	513	104
688	222	662
689	51	61
690	533	344
691	149	112
692	351	332
693	228	91
694	956	83
695	667	195
696	620	47
697	438	69
698	499	523
699	324	937
700	188	265
701	153	320
702	126	682
703	354	439
704	830	954
705	646	379
706	133	933
707	373	647
708	837	735
709	918	254
710	70	486
711	887	281
712	618	752
713	645	982
714	543	711
715	494	864
716	701	273
717	206	374
718	789	209
719	156	390
720	185	312
721	275	775
722	495	315
723	420	320
724	153	26
725	598	884
726	267	320
727	482	886
728	935	431
729	377	123
730	522	862
731	711	451
732	7	775
733	615	66
734	353	666
735	428	672
736	813	827
737	366	88
738	398	823
739	952	677
740	769	407
741	874	926
742	914	231
743	739	265
744	309	963
745	91	289
746	343	395
747	67	822
748	47	722
749	130	580
750	539	899
751	757	15
752	161	416
753	247	601
754	253	70
755	451	51
756	597	607
757	830	867
758	862	618
759	126	456
760	304	375
761	902	126
762	441	605
763	520	584
764	344	210
765	445	221
766	325	67
767	32	821
768	890	37
769	675	806
770	148	373
771	319	398
772	547	765
773	510	507
774	200	820
775	274	21
776	3	149
777	222	265
778	179	893
779	365	258
780	480	435
781	73	787
782	666	660
783	546	433
784	864	532
785	504	635
786	784	840
787	93	325
788	27	259
789	117	370
790	775	2
791	741	521
792	301	770
793	696	567
794	896	195
795	234	742
796	185	499
797	27	307
798	477	355
799	253	414
800	851	755
801	961	265
802	388	960
803	167	263
804	81	445
805	475	549
806	346	141
807	161	335
808	838	894
809	383	72
810	354	624
811	723	310
812	836	669
813	309	748
814	135	263
815	206	548
816	5	55
817	971	223
818	736	508
819	907	588
820	929	530
821	666	429
822	950	811
823	439	236
824	662	437
825	329	220
826	488	688
827	951	197
828	713	229
829	403	446
830	774	156
831	704	715
832	82	489
833	786	694
834	675	763
835	62	386
836	294	340
837	947	173
838	99	422
839	650	849
840	814	25
841	470	958
842	3	769
843	272	642
844	232	866
845	655	906
846	538	355
847	652	183
848	545	786
849	249	356
850	212	279
851	260	251
852	642	682
853	213	767
854	937	924
855	973	321
856	102	413
857	607	997
858	39	176
859	437	228
860	299	713
861	837	642
862	298	745
863	373	170
864	371	608
865	175	966
866	892	491
867	950	594
868	895	231
869	303	161
870	784	516
871	336	716
872	518	765
873	787	182
874	468	783
875	623	553
876	50	471
877	339	337
878	641	825
879	383	892
880	7	496
881	67	827
882	304	445
883	921	363
884	331	671
885	250	368
886	892	87
887	567	521
888	562	784
889	447	23
890	413	13
891	434	947
892	928	263
893	486	178
894	649	806
895	402	266
896	129	832
897	233	390
898	985	363
899	74	211
900	108	548
901	172	767
902	993	87
903	70	762
904	617	821
905	706	547
906	579	224
907	380	562
908	808	491
909	966	889
910	277	799
911	563	804
912	75	106
913	846	952
914	28	47
915	449	956
916	498	757
917	252	491
918	79	484
919	631	788
920	429	655
921	335	459
922	323	604
923	133	790
924	926	489
925	547	377
926	938	48
927	501	301
928	526	111
929	151	874
930	183	560
931	523	353
932	766	284
933	472	250
934	512	196
935	110	938
936	852	339
937	629	426
938	425	384
939	113	962
940	853	336
941	642	988
942	423	880
943	154	966
944	942	15
945	888	245
946	939	29
947	816	351
948	263	595
949	22	166
950	199	771
951	370	278
952	844	106
953	70	493
954	118	612
955	177	726
956	722	268
957	980	826
958	284	189
959	116	863
960	553	732
961	678	490
962	99	560
963	10	498
964	336	895
965	646	791
966	248	244
967	24	66
968	448	781
969	239	11
970	592	901
971	609	182
972	259	100
973	698	512
974	348	907
975	88	271
976	293	463
977	570	359
978	320	11
979	375	923
980	361	160
981	958	168
982	95	854
983	516	17
984	610	926
985	292	887
986	850	61
987	206	588
988	248	34
989	794	772
990	640	83
991	512	562
992	607	65
993	11	69
994	850	799
995	439	314
996	620	861
997	238	232
998	357	543
999	390	787
1000	726	988
1001	107	184
DEMAND_SECTION
1	0
2	9
3	6
4	8
5	7
6	1
7	4
8	9
9	7
10	9
11	4
12	2
13	7
14	5
15	8
16	5
17	8
18	3
19	1
20	2
21	8
22	9
23	6
24	9
25	2
26	1
27	3
28	5
29	8
30	4
31	5
32	4
33	9
34	9
35	9
36	6
37	8
38	1
39	1
40	2
41	9
42	9
43	4
44	8
45	8
46	4
47	7
48	5
49	7
50	9
51	4
52	9
53	9
54	9
55	7
56	2
57	1
58	2
59	3
60	9
61	4
62	1
63	8
64	9
65	6
66	2
67	9
68	5
69	9
70	3
71	6
72	9
73	5
74	5
75	6
76	1
77	9
78	1
79	7
80	1
81	4
82	4
83	1
84	3
85	5
86	2
87	8
88	3
89	5
90	8
91	1
92	7
93	3
94	7
95	7
96	7
97	8
98	6
99	5
100	3
101	6
102	9
103	4
104	5
105	2
106	1
107	3
108	1
109	1
110	7
111	8
112	3
113	9
114	6
115	1
116	6
117	2
118	3
119	1
120	6
121	8
122	8
123	1
124	4
125	9
126	7
127	6
128	9
129	2
130	9
131	5
132	7
133	9
134	2
135	4
136	4
137	1
138	9
139	4
140	1
141	7
142	2
143	6
144	7
145	6
146	7
147	4
148	1
149	3
150	9
151	7
152	3
153	5
154	7
155	5
156	4
157	2
158	8
159	6
160	4
161	8
162	5
163	9
164	8
165	5
166	7
167	6
168	3
169	4
170	8
171	3
172	4
173	3
174	3
175	4
176	2
177	4
178	5
179	7
180	9
181	5
182	9
183	3
184	1
185	9
186	6
187	5
188	6
189	2
190	5
191	1
192	2
193	3
194	1
195	3
196	9
197	1
198	4
199	7
200	7
201	7
202	5
203	5
204	4
205	6
206	5
207	8
208	1
209	8
210	1
211	8
212	5
213	1
214	1
215	2
216	5
217	2
218	4
219	1
220	1
221	5
222	9
223	3
224	4
225	5
226	5
227	5
228	4
229	9
230	8
231	3
232	5
233	6
234	9
235	7
236	1
237	9
238	1
239	9
240	7
241	4
242	3
243	5
244	9
245	7
246	3
247	4
248	2
249	6
250	2
251	6
252	3
253	2
254	3
255	4
256	5
257	7
258	5
259	9
260	6
261	9
262	9
263	2
264	3
265	4
266	5
267	6
268	4
269	8
270	4
271	9
272	6
273	1
274	4
275	2
276	7
277	6
278	7
279	1
280	9
281	4
282	1
283	7
284	5
285	2
286	5
287	6
288	5
289	7
290	6
291	3
292	6
293	6
294	1
295	1
296	1
297	8
298	1
299	5
300	4
301	4
302	8
303	7
304	1
305	6
306	2
307	7
308	3
309	9
310	8
311	4
312	8
313	7
314	3
315	9
316	5
317	8
318	7
319	7
320	4
321	6
322	7
323	1
324	2
325	5
326	7
327	8
328	2
329	7
330	6
331	9
332	8
333	1
334	2
335	2
336	3
337	6
338	5
339	1
340	5
341	9
342	2
343	5
344	9
345	4
346	7
347	6
348	4
349	8
350	9
351	8
352	1
353	3
354	9
355	6
356	2
357	5
358	4
359	2
360	5
361	2
362	8
363	5
364	2
365	9
366	4
367	8
368	2
369	1
370	9
371	3
372	6
373	1
374	3
375	7
376	6
377	7
378	6
379	1
380	7
381	8
382	1
383	1
384	6
385	8
386	2
387	5
388	5
389	5
390	9
391	5
392	2
393	6
394	1
395	4
396	6
397	6
398	7
399	4
400	1
401	5
402	6
403	9
404	3
405	6
406	5
407	9
408	9
409	9
410	2
411	1
412	1
413	5
414	8
415	1
416	8
417	1
418	1
419	1
420	9
421	7
422	2
423	6
424	8
425	2
426	2
427	9
428	3
429	2
430	7
431	2
432	8
433	1
434	7
435	5
436	7
437	8
438	6
439	7
440	9
441	8
442	1
443	4
444	1
445	2
446	7
447	4
448	2
449	2
450	1
451	3
452	7
453	9
454	1
455	3
456	9
457	7
458	4
459	3
460	5
461	9
462	1
463	8
464	8
465	5
466	9
467	7
468	5
469	9
470	6
471	9
472	5
473	5
474	8
475	7
476	5
477	2
478	6
479	9
480	4
481	2
482	3
483	7
484	1
485	8
486	9
487	4
488	2
489	3
490	7
491	4
492	7
493	4
494	3
495	6
496	9
497	4
498	3
499	3
500	2
501	9
502	8
503	8
504	2
505	8
506	4
507	4
508	8
509	5
510	2
511	4
512	1
513	9
514	5
515	6
516	8
517	2
518	1
519	3
520	6
521	4
522	8
523	8
524	1
525	8
526	8
527	4
528	3
529	8
530	4
531	4
532	2
533	7
534	4
535	2
536	2
537	5
538	4
539	5
540	7
541	2
542	5
543	3
544	4
545	2
546	4
547	7
548	9
549	8
550	9
551	5
552	8
553	1
554	3
555	7
556	7
557	7
558	7
559	3
560	8
561	1
562	3
563	7
564	9
565	9
566	3
567	6
568	5
569	3
570	1
571	9
572	1
573	4
574	7
575	1
576	7
577	2
578	6
579	6
580	2
581	1
582	2
583	3
584	6
585	5
586	4
587	8
588	6
589	5
590	6
591	4
592	6
593	9
594	3
595	2
596	1
597	4
598	9
599	3
600	9
601	7
602	8
603	8
604	7
605	3
606	1
607	3
608	6
609	8
610	9
611	4
612	8
613	6
614	3
615	9
616	5
617	1
618	5
619	6
620	5
621	5
622	3
623	9
624	9
625	1
626	9
627	9
628	5
629	3
630	1
631	4
632	1
633	6
634	5
635	6
636	7
637	3
638	6
639	5
640	9
641	9
642	7
643	7
644	1
645	8
646	6
647	8
648	9
649	6
650	7
651	3
652	4
653	7
654	9
655	2
656	6
657	2
658	4
659	2
660	4
661	8
662	3
663	5
664	3
665	2
666	7
667	5
668	9
669	6
670	9
671	8
672	3
673	2
674	5
675	9
676	2
677	3
678	3
679	6
680	5
681	6
682	5
683	5
684	6
685	1
686	4
687	1
688	2
689	5
690	8
691	9
692	3
693	5
694	3
695	9
696	7
697	5
698	2
699	5
700	9
701	6
702	9
703	7
704	9
705	4
706	6
707	2
708	1
709	4
710	4
711	6
712	6
713	6
714	5
715	2
716	2
717	6
718	4
719	2
720	9
721	7
722	3
723	4
724	3
725	7
726	5
727	7
728	3
729	7
730	5
731	2
732	6
733	3
734	8
735	2
736	1
737	6
738	5
739	1
740	1
741	1
742	6
743	9
744	1
745	4
746	1
747	8
748	6
749	3
750	3
751	1
752	1
753	1
754	2
755	4
756	5
757	3
758	2
759	1
760	7
761	7
762	8
763	5
764	4
765	1
766	6
767	6
768	8
769	6
770	3
771	9
772	4
773	3
774	1
775	7
776	4
777	7
778	4
779	5
780	1
781	8
782	2
783	7
784	9
785	7
786	3
787	3
788	7
789	3
790	5
791	3
792	4
793	8
794	4
795	6
796	1
797	2
798	1
799	3
800	7
801	1
802	1
803	5
804	4
805	8
806	1
807	6
808	3
809	2
810	5
811	7
812	6
813	5
814	4
815	6
816	7
817	6
818	8
819	6
820	8
821	1
822	4
823	7
824	5
825	4
826	8
827	4
828	1
829	6
830	5
831	8
832	8
833	6
834	9
835	9
836	7
837	6
838	8
839	3
840	1
841	7
842	3
843	8
844	3
845	8
846	6
847	4
848	7
849	1
850	7
851	7
852	2
853	4
854	9
855	1
856	5
857	6
858	8
859	5
860	1
861	4
862	6
863	9
864	6
865	9
866	4
867	3
868	9
869	2
870	8
871	8
872	7
873	3
874	9
875	4
876	1
877	9
878	5
879	3
880	1
881	8
882	9
883	3
884	3
885	7
886	6
887	6
888	8
889	6
890	4
891	8
892	9
893	3
894	1
895	7
896	6
897	3
898	2
899	7
900	2
901	5
902	3
903	1
904	5
905	1
906	8
907	2
908	7
909	5
910	8
911	5
912	2
913	4
914	5
915	1
916	3
917	2
918	3
919	5
920	2
921	7
922	7
923	2
924	2
925	4
926	3
927	1
928	7
929	7
930	1
931	9
932	7
933	4
934	9
935	4
936	4
937	5
938	2
939	7
940	9
941	4
942	7
943	2
944	9
945	4
946	3
947	6
948	2
949	4
950	3
951	6
952	5
953	8
954	7
955	9
956	5
957	8
958	9
959	6
960	4
961	6
962	7
963	4
964	3
965	1
966	2
967	7
968	1
969	8
970	8
971	6
972	9
973	5
974	4
975	4
976	6
977	3
978	8
979	5
980	1
981	5
982	5
983	8
984	7
985	8
986	4
987	6
988	7
989	1
990	1
991	1
992	3
993	1
994	2
995	4
996	1
997	2
998	1
999	9
1000	5
1001	4
TIME_WINDOW_SECTION
1	0	3000
2	1118	1807
3	1266	2721
4	1472	2567
5	344	2041
6	300	2087
7	1887	2409
8	1589	2189
9	1079	2026
10	574	876
11	1179	1672
12	1344	1648
13	1271	2821
14	953	1724
15	666	2218
16	1335	2684
17	1174	2229
18	139	1599
19	968	1234
20	776	1987
21	660	888
22	1407	2948
23	519	1366
24	694	1636
25	1325	1775
26	381	1127
27	0	1299
28	1236	2357
29	1000	2467
30	1023	2719
31	527	810
32	213	1562
33	831	2234
34	1015	1505
35	1097	1915
36	0	1352
37	1103	1349
38	401	2149
39	1177	2524
40	764	1483
41	1207	1989
42	1334	2138
43	1168	2447
44	1366	1761
45	1206	2528
46	1166	1807
47	1827	2386
48	1716	3000
49	1181	2266
50	704	2009
51	105	1113
52	602	1533
53	1436	2242
54	1685	2796
55	1431	2610
56	1558	2314
57	814	2392
58	712	1821
59	1623	2060
60	574	1501
61	572	1935
62	1510	2621
63	971	2727
64	221	1264
65	1191	1912
66	298	1628
67	1223	3000
68	0	1444
69	1541	2483
70	566	1921
71	1043	1710
72	307	821
73	1003	1986
74	1481	2192
75	0	1342
76	825	2364
77	1780	2775
78	685	2183
79	579	2231
80	1479	2860
81	446	1876
82	20	1497
83	0	1222
84	1124	1738
85	1079	2253
86	1825	2495
87	1050	1632
88	425	1194
89	0	1349
90	842	2387
91	465	2129
92	232	1800
93	1027	2383
94	1174	2118
95	1375	2103
96	1213	2999
97	0	1422
98	135	2012
99	295	1673
100	1153	2704
101	1253	2955
102	1231	1877
103	1803	2970
104	569	1043
105	934	1304
106	1104	2525
107	946	1645
108	1357	2186
109	684	2522
110	1239	3000
111	373	1769
112	206	2107
113	703	1335
114	917	1352
115	1349	2245
116	1665	2496
117	1920	3000
118	580	1482
119	1226	1702
120	1630	2480
121	1758	2953
122	191	756
123	1374	1885
124	0	1536
125	1042	1794
126	1289	1599
127	397	1321
128	1268	2511
129	625	2160
130	815	2470
131	0	1715
132	1426	1700
133	0	1891
134	0	1100
135	22	1706
136	1225	1486
137	1005	2949
138	1389	2620
139	1843	2766
140	441	1325
141	510	1450
142	1042	2445
143	1747	2065
144	683	1935
145	1007	1354
146	1175	1541
147	697	1755
148	0	1744
149	336	1427
150	0	1081
151	547	2371
152	1758	2854
153	1241	1690
154	1350	2759
155	622	1024
156	28	1690
157	261	655
158	887	2810
159	438	2110
160	178	1124
161	483	1558
162	1578	2534
163	1373	1712
164	917	1208
165	958	1315
166	1051	1756
167	2024	2255
168	1013	1736
169	823	2155
170	825	1762
171	539	1762
172	386	1920
173	1369	2318
174	963	2622
175	920	2317
176	79	1869
177	1439	1959
178	1419	1908
179	865	2646
180	0	1310
181	444	2210
182	1923	2601
183	0	624
184	1394	1812
185	951	2227
186	1372	2364
187	1319	1778
188	550	2253
189	1046	1415
190	0	1327
191	1142	2192
192	436	1410
193	1081	1749
194	395	2030
195	1149	1732
196	333	1483
197	962	2124
198	1327	2670
199	930	1371
200	1116	1917
201	540	1629
202	1403	3000
203	1001	2380
204	1431	2439
205	1245	2321
206	1012	2062
207	0	1511
208	0	1044
209	546	837
210	1787	2329
211	1199	1863
212	897	1338
213	495	1524
214	1097	2910
215	1443	3000
216	645	2171
217	1642	2299
218	1332	3000
219	699	2549
220	1033	1764
221	638	2511
222	736	1341
223	761	2264
224	766	1817
225	890	1846
226	478	2231
227	476	714
228	391	2380
229	1131	1751
230	268	1898
231	1216	1777
232	181	1819
233	659	1584
234	825	1094
235	772	1762
236	829	1946
237	0	1573
238	0	1521
239	917	2594
240	1021	1995
241	1383	2435
242	1284	1976
243	387	2025
244	407	2334
245	1245	2023
246	1612	1846
247	931	2166
248	1602	3000
249	740	954
250	916	2283
251	0	1208
252	1610	2931
253	0	1274
254	667	1199
255	649	1520
256	429	1678
257	1433	2068
258	0	1858
259	760	1434
260	529	1472
261	333	1030
262	514	1850
263	335	1381
264	435	1127
265	1289	1527
266	340	856
267	121	1781
268	824	1797
269	59	1881
270	753	2323
271	1346	2308
272	1095	2592
273	1270	2526
274	417	2390
275	986	2431
276	1381	1622
277	485	2104
278	674	2324
279	778	2082
280	2055	2841
281	957	2142
282	139	2011
283	1050	2530
284	355	1836
285	1318	2128
286	1299	3000
287	962	1561
288	0	1662
289	508	1062
290	832	2556
291	655	1624
292	511	1694
293	351	1935
294	608	872
295	1237	1609
296	798	1817
297	1413	2433
298	1019	2213
299	519	1968
300	900	2159
301	1397	1901
302	0	1148
303	184	2144
304	1539	2035
305	881	1883
306	1113	1419
307	214	1427
308	653	1447
309	1378	2129
310	391	1511
311	0	1097
312	0	1778
313	83	2015
314	0	1645
315	940	2880
316	491	979
317	1359	2221
318	1452	2652
319	587	2098
320	529	1685
321	1127	2879
322	1536	2021
323	0	1527
324	981	2459
325	669	1437
326	975	1370
327	1370	2885
328	376	1606
329	619	887
330	998	2216
331	646	1524
332	875	1393
333	122	1891
334	1058	1822
335	1330	2298
336	956	1700
337	706	1088
338	500	1002
339	288	1114
340	496	2061
341	1427	3000
342	2069	2491
343	557	1202
344	692	1895
345	332	1207
346	1784	2018
347	279	1868
348	647	2581
349	0	538
350	2217	2801
351	376	2229
352	1322	1703
353	1082	2494
354	600	1715
355	1277	2489
356	409	2382
357	620	1168
358	851	1398
359	1477	2040
360	1759	2092
361	963	1991
362	631	2170
363	317	1526
364	339	1787
365	1289	1563
366	715	1841
367	833	1727
368	0	1182
369	703	2589
370	718	1899
371	1726	2145
372	1105	1429
373	1143	1653
374	1191	2959
375	618	1211
376	1662	1866
377	0	1636
378	0	1375
379	524	1858
380	0	1099
381	842	1940
382	1488	2382
383	1038	2226
384	539	2137
385	268	1796
386	1373	1931
387	0	1776
388	671	2140
389	1436	2842
390	0	1085
391	1536	2185
392	23	1854
393	843	1832
394	1018	1630
395	824	2528
396	1131	1437
397	0	929
398	206	2072
399	1170	1896
400	1286	1714
401	1772	2362
402	923	1336
403	1067	2307
404	999	2768
405	927	2848
406	1324	2020
407	1782	2477
408	777	1610
409	1384	1858
410	24	895
411	510	1902
412	972	2146
413	1479	2411
414	1323	2637
415	859	1399
416	607	2087
417	0	1159
418	1161	1695
419	495	1595
420	377	2105
421	1595	2094
422	358	646
423	230	1779
424	0	1928
425	1493	1762
426	379	1265
427	1434	2030
428	814	1597
429	415	2373
430	400	1336
431	742	1068
432	71	810
433	1286	1929
434	1016	2971
435	0	1138
436	857	2258
437	1765	2128
438	1429	2466
439	672	1728
440	467	973
441	974	1773
442	26	1616
443	1587	2100
444	1381	1915
445	1200	2862
446	1238	2091
447	774	1406
448	0	1786
449	676	1640
450	389	1489
451	454	2004
452	1325	2252
453	1178	2137
454	247	1821
455	177	1086
456	1049	1734
457	1054	2358
458	721	1819
459	1013	1477
460	213	1739
461	719	1459
462	793	1760
463	1341	2774
464	0	1077
465	1032	2279
466	2120	2383
467	1134	1948
468	131	1228
469	1569	2159
470	1183	1833
471	343	1686
472	924	1539
473	823	2092
474	1732	2571
475	484	1050
476	664	1927
477	739	1394
478	611	2579
479	0	1792
480	882	1868
481	365	2212
482	612	1774
483	476	1518
484	1105	1867
485	1577	2484
486	457	1408
487	1234	1805
488	160	2085
489	414	1568
490	1013	2697
491	827	1542
492	1015	2186
493	310	620
494	326	1813
495	569	1181
496	481	1693
497	1093	2629
498	526	2272
499	259	2194
500	694	1903
501	1778	2037
502	269	1807
503	1576	2427
504	1414	3000
505	1832	2088
506	937	1375
507	1120	2414
508	1248	2629
509	477	1749
510	712	1426
511	614	1222
512	1409	1717
513	1332	2707
514	771	2228
515	169	1995
516	167	722
517	846	1689
518	1081	1991
519	648	1999
520	72	1020
521	1656	2560
522	1635	2125
523	1586	2639
524	1230	2329
525	1307	2079
526	1141	2453
527	973	1961
528	1082	2102
529	206	2091
530	1574	2031
531	0	1123
532	508	2215
533	792	1750
534	1474	1706
535	953	1715
536	1200	2313
537	767	2306
538	844	1787
539	426	2078
540	1635	2002
541	586	1490
542	1701	2342
543	884	1801
544	2070	2710
545	513	2362
546	492	1729
547	787	1435
548	1622	1928
549	1449	2089
550	1086	2043
551	0	1389
552	868	2101
553	745	2029
554	1056	2380
555	545	1072
556	625	1714
557	1990	2386
558	731	1360
559	1272	2764
560	742	2324
561	415	1823
562	707	2561
563	994	2489
564	1554	1789
565	741	1794
566	582	1873
567	1427	1979
568	1492	1960
569	1024	1444
570	920	2833
571	352	1285
572	1092	1614
573	309	1694
574	941	2843
575	967	2092
576	1487	2704
577	1456	1973
578	516	1263
579	911	2070
580	1511	1804
581	575	2105
582	664	1499
583	876	2793
584	1145	2934
585	1834	3000
586	428	1709
587	1379	2872
588	1446	2107
589	807	1710
590	1060	3000
591	1136	1946
592	600	2402
593	429	2220
594	699	1400
595	0	920
596	216	899
597	691	1198
598	897	1814
599	546	2030
600	1052	1917
601	1293	2601
602	126	2021
603	1139	2329
604	963	1572
605	937	1206
606	1307	2264
607	1343	2267
608	1057	2108
609	1227	2470
610	440	1309
611	880	2385
612	453	2177
613	615	1982
614	1183	2093
615	1971	2707
616	871	1974
617	1315	3000
618	1760	2176
619	1030	2126
620	981	2637
621	0	1781
622	1723	2469
623	1238	1959
624	806	1846
625	1008	1495
626	136	1165
627	249	1546
628	1202	2503
629	1386	2690
630	837	2032
631	1479	1724
632	1101	2694
633	1579	1959
634	408	1898
635	495	2145
636	210	1817
637	1015	1706
638	1437	1729
639	575	796
640	80	1119
641	819	1883
642	704	2407
643	56	1792
644	731	2310
645	1462	1907
646	1546	3000
647	1228	1625
648	953	2311
649	620	2229
650	1831	2512
651	624	2366
652	658	1284
653	337	1066
654	1265	2400
655	483	2131
656	1469	2582
657	648	1173
658	807	1753
659	1387	2664
660	1085	2292
661	898	1657
662	1052	1589
663	660	1761
664	0	1607
665	1144	2491
666	1180	2151
667	244	878
668	262	1887
669	844	2352
670	968	2389
671	952	1291
672	1100	1308
673	1222	2849
674	581	2100
675	1185	2067
676	907	1490
677	1186	2035
678	1158	2039
679	600	1320
680	995	1350
681	18	1324
682	0	543
683	992	1741
684	0	1128
685	1128	1650
686	648	2525
687	1459	2606
688	1193	2540
689	1637	1838
690	0	1855
691	690	2059
692	221	1250
693	1943	2246
694	217	521
695	25	1434
696	1948	2821
697	1167	3000
698	1837	2461
699	1312	1720
700	1186	2156
701	1807	2338
702	929	1645
703	532	957
704	682	2454
705	917	1399
706	1058	2224
707	1474	2341
708	612	2354
709	1358	3000
710	950	2499
711	0	1277
712	1002	1213
713	430	1955
714	1562	2370
715	1007	1285
716	582	1422
717	0	1680
718	769	2767
719	644	2578
720	1097	1717
721	653	2151
722	1453	2310
723	971	1651
724	802	1234
725	1246	1834
726	474	2385
727	677	1380
728	1758	2279
729	422	1982
730	1042	1278
731	528	1084
732	546	2287
733	0	749
734	1293	2366
735	1089	2869
736	982	1544
737	264	1117
738	1209	1854
739	1571	1925
740	1600	2188
741	963	1426
742	1083	2992
743	748	2698
744	869	2498
745	352	2317
746	687	2551
747	1542	1761
748	488	1555
749	1430	2102
750	959	1812
751	501	2381
752	319	2035
753	1339	1702
754	892	2463
755	0	1320
756	1935	2280
757	348	1969
758	74	1399
759	1120	1975
760	775	2696
761	0	1382
762	1050	1768
763	1275	3000
764	33	1018
765	1361	2214
766	1951	2861
767	1319	1896
768	1346	2443
769	1322	1599
770	1473	2659
771	1572	2689
772	639	1279
773	642	1780
774	499	2467
775	796	1425
776	819	2330
777	1795	2034
778	289	2251
779	0	1414
780	695	1068
781	890	1765
782	790	2299
783	902	1300
784	1848	2141
785	1748	2043
786	318	1554
787	823	1774
788	0	1783
789	723	2376
790	1920	3000
791	968	2108
792	510	1304
793	848	2651
794	1047	2057
795	1251	2593
796	775	2048
797	0	1500
798	0	1534
799	1505	1859
800	1162	2850
801	874	1469
802	567	1804
803	1691	2148
804	1461	1993
805	1606	2025
806	1141	2045
807	755	1664
808	764	2681
809	636	1816
810	181	1595
811	1538	3000
812	337	2224
813	809	2709
814	635	1472
815	1045	2961
816	1196	2090
817	0	1031
818	1354	2063
819	313	1327
820	1104	1929
821	0	1007
822	913	1602
823	350	1665
824	1378	2783
825	344	739
826	244	2126
827	1151	2924
828	560	2419
829	0	1352
830	622	2247
831	563	2413
832	848	1886
833	920	2633
834	0	1632
835	1244	1942
836	1388	2589
837	567	912
838	314	1894
839	1137	1591
840	0	400
841	1384	1917
842	468	1809
843	582	1391
844	508	2368
845	1406	1659
846	0	879
847	603	1627
848	592	2297
849	1533	2283
850	251	1522
851	631	2289
852	727	1479
853	749	2133
854	921	1938
855	491	1870
856	265	1667
857	1070	1792
858	0	1608
859	1494	3000
860	962	2602
861	366	1730
862	427	1266
863	922	2833
864	1157	1822
865	824	1992
866	652	1612
867	614	2237
868	0	777
869	2025	2375
870	297	2090
871	1348	2137
872	1168	1567
873	1522	2981
874	1420	2318
875	1274	1707
876	1210	1444
877	583	2332
878	478	1188
879	532	2117
880	55	1807
881	1134	2397
882	1495	2599
883	1456	2278
884	985	1204
885	573	1563
886	0	1439
887	1941	2159
888	1731	2071
889	1162	1527
890	853	1409
891	507	1969
892	627	2276
893	1205	2067
894	587	1767
895	1020	2825
896	351	1723
897	310	1126
898	1187	1992
899	833	2167
900	57	1963
901	1081	2537
902	1055	1696
903	783	1263
904	994	2191
905	1173	3000
906	453	1964
907	313	1620
908	1606	1940
909	838	1136
910	660	1339
911	586	1716
912	0	1694
913	1452	2215
914	133	1569
915	908	1118
916	909	2687
917	146	1208
918	507	1228
919	1284	1606
920	675	2450
921	611	2393
922	734	1630
923	1171	1820
924	48	1405
925	1549	2129
926	2068	2973
927	1837	2908
928	1712	3000
929	473	1566
930	788	1573
931	0	1339
932	0	1533
933	1659	2639
934	768	1359
935	1104	1967
936	1261	2378
937	0	1469
938	1312	2796
939	1274	1599
940	2186	2640
941	945	2267
942	733	2122
943	1340	1726
944	1476	1709
945	642	1442
946	26	1964
947	1008	2669
948	1218	2842
949	824	2106
950	668	1910
951	0	895
952	0	911
953	412	1190
954	196	1832
955	1465	1725
956	196	519
957	1579	1876
958	1492	1925
959	321	1904
960	668	2411
961	504	1784
962	623	2591
963	163	1967
964	1313	2046
965	1035	2583
966	1332	2310
967	0	1512
968	752	1960
969	781	2618
970	1014	2267
971	0	775
972	0	1424
973	572	881
974	772	1849
975	420	1268
976	1954	2332
977	1450	2502
978	1101	1301
979	238	1743
980	1759	2626
981	0	1437
982	127	2046
983	173	1191
984	1153	1419
985	1137	1341
986	0	1180
987	977	2280
988	2185	2414
989	1409	1908
990	1214	3000
991	495	854
992	33	362
993	1173	2711
994	1156	2723
995	818	2585
996	1074	2339
997	1120	1890
998	321	2023
999	602	2002
1000	545	2406
1001	1424	2741
DEPOT_SECTION
1
-1
EOF
