NAME : n1001-0028
COMMENT : "Generated by pyvrp_manuel (OVRPTW)"
TYPE : OVRPTW
DIMENSION : 1001
EDGE_WEIGHT_TYPE : EUC_2D
CAPACITY : 150
VEHICLES : 1000
OPEN_ROUTE : YES
SERVICE_TIME : 200
NODE_COORD_SECTION
1	513	369
2	75	889
3	339	249
4	69	229
5	247	454
6	888	993
7	293	44
8	824	667
9	467	827
10	49	300
11	414	761
12	692	426
13	718	914
14	14	849
15	366	83
16	962	467
17	322	997
18	48	91
19	330	433
20	860	988
21	398	852
22	805	759
23	1	480
24	234	440
25	944	234
26	987	70
27	342	585
28	784	725
29	699	712
30	997	831
31	385	325
32	200	493
33	501	141
34	611	807
35	6	254
36	49	600
37	967	281
38	563	993
39	922	420
40	151	819
41	501	780
42	461	856
43	157	525
44	300	153
45	735	976
46	424	186
47	155	54
48	347	885
49	672	565
50	315	673
51	678	873
52	786	729
53	805	180
54	435	415
55	320	11
56	968	662
57	817	971
58	179	780
59	313	735
60	53	404
61	729	452
62	668	740
63	717	545
64	139	180
65	167	633
66	965	151
67	860	709
68	443	489
69	247	624
70	850	304
71	792	65
72	13	982
73	601	31
74	440	396
75	898	265
76	377	101
77	550	842
78	405	886
79	604	826
80	649	175
81	459	630
82	25	830
83	770	171
84	641	983
85	196	614
86	741	637
87	550	691
88	368	603
89	95	194
90	400	410
91	939	814
92	21	737
93	873	891
94	519	558
95	243	148
96	78	737
97	225	187
98	137	391
99	429	876
100	39	827
101	687	985
102	776	409
103	833	497
104	594	467
105	193	718
106	589	755
107	85	826
108	493	99
109	521	156
110	213	221
111	962	981
112	832	844
113	3	91
114	711	52
115	179	285
116	262	37
117	332	653
118	429	610
119	346	378
120	264	809
121	368	638
122	886	171
123	744	966
124	988	389
125	824	46
126	977	856
127	382	160
128	306	937
129	281	557
130	484	719
131	382	474
132	646	389
133	299	98
134	108	617
135	552	42
136	941	115
137	470	605
138	871	865
139	935	626
140	237	239
141	545	317
142	750	212
143	27	825
144	712	474
145	627	4
146	939	852
147	144	239
148	453	539
149	783	439
150	119	38
151	652	317
152	910	930
153	322	661
154	509	312
155	311	437
156	555	711
157	867	502
158	125	649
159	608	319
160	982	188
161	452	536
162	993	445
163	282	883
164	193	938
165	794	350
166	837	992
167	909	945
168	590	45
169	442	890
170	821	384
171	869	520
172	666	587
173	366	837
174	287	495
175	254	216
176	694	571
177	559	920
178	436	582
179	388	281
180	509	855
181	134	843
182	113	926
183	436	174
184	885	719
185	187	561
186	812	385
187	130	111
188	475	769
189	631	980
190	598	734
191	757	885
192	846	180
193	541	255
194	400	541
195	396	805
196	453	846
197	831	562
198	547	935
199	577	27
200	282	434
201	983	644
202	23	427
203	414	635
204	990	146
205	16	961
206	288	919
207	889	811
208	857	704
209	229	422
210	910	952
211	681	647
212	43	862
213	540	915
214	697	987
215	572	746
216	327	154
217	22	395
218	218	422
219	106	159
220	116	195
221	155	200
222	771	286
223	522	785
224	51	812
225	264	635
226	306	428
227	802	536
228	768	102
229	874	833
230	247	733
231	528	32
232	907	90
233	928	63
234	898	574
235	459	856
236	86	530
237	492	716
238	451	805
239	580	754
240	438	835
241	228	754
242	154	753
243	995	76
244	412	293
245	913	322
246	408	165
247	541	656
248	693	693
249	135	156
250	148	84
251	734	686
252	16	452
253	754	218
254	93	946
255	596	356
256	849	733
257	118	240
258	57	402
259	437	853
260	251	461
261	992	123
262	702	99
263	30	633
264	355	449
265	226	598
266	367	278
267	677	598
268	97	387
269	236	244
270	574	347
271	153	567
272	675	766
273	35	172
274	486	749
275	754	613
276	764	731
277	854	176
278	117	646
279	529	297
280	247	448
281	24	879
282	571	220
283	324	925
284	846	126
285	831	50
286	1	685
287	975	718
288	848	412
289	657	252
290	220	318
291	25	349
292	120	40
293	34	947
294	494	791
295	863	398
296	541	778
297	352	75
298	831	57
299	852	525
300	402	543
301	490	271
302	930	304
303	527	369
304	256	108
305	866	605
306	369	293
307	959	153
308	429	748
309	440	526
310	273	547
311	644	686
312	392	723
313	531	243
314	735	677
315	185	132
316	404	41
317	59	518
318	634	956
319	796	643
320	797	112
321	465	589
322	69	878
323	332	888
324	498	871
325	884	160
326	495	97
327	236	151
328	647	464
329	253	790
330	622	45
331	32	387
332	488	541
333	863	880
334	933	879
335	615	858
336	491	872
337	540	117
338	726	573
339	437	244
340	788	527
341	257	543
342	690	454
343	833	97
344	580	0
345	145	351
346	595	197
347	443	667
348	207	443
349	831	572
350	829	888
351	71	67
352	753	278
353	829	10
354	29	95
355	987	10
356	574	464
357	797	555
358	169	479
359	703	131
360	382	644
361	945	686
362	108	492
363	489	174
364	428	344
365	641	772
366	547	505
367	106	229
368	582	838
369	820	874
370	372	540
371	935	441
372	181	985
373	260	586
374	831	877
375	48	360
376	718	966
377	710	713
378	24	925
379	365	238
380	248	225
381	352	590
382	438	730
383	443	902
384	970	68
385	201	996
386	593	330
387	253	346
388	545	497
389	766	928
390	894	634
391	365	993
392	355	125
393	189	385
394	265	265
395	560	474
396	531	118
397	167	57
398	97	277
399	839	902
400	433	978
401	888	943
402	569	589
403	793	111
404	791	836
405	213	692
406	35	877
407	2	533
408	763	226
409	633	263
410	97	910
411	404	352
412	749	940
413	180	519
414	244	127
415	5	988
416	550	377
417	936	40
418	560	592
419	327	559
420	18	337
421	642	779
422	649	851
423	289	553
424	550	740
425	500	917
426	871	971
427	476	685
428	495	875
429	586	200
430	707	892
431	992	730
432	599	244
433	999	415
434	342	465
435	12	695
436	74	47
437	585	137
438	703	148
439	936	608
440	134	595
441	843	550
442	102	679
443	290	379
444	717	526
445	441	969
446	694	477
447	948	824
448	181	450
449	783	165
450	441	102
451	784	595
452	236	883
453	97	859
454	288	82
455	328	515
456	273	242
457	929	122
458	49	301
459	110	409
460	991	933
461	397	294
462	918	784
463	142	29
464	725	379
465	930	475
466	675	162
467	858	261
468	53	496
469	991	661
470	665	174
471	609	173
472	460	846
473	250	360
474	25	496
475	422	319
476	303	416
477	35	410
478	905	412
479	674	421
480	679	369
481	325	343
482	68	656
483	827	903
484	548	727
485	998	46
486	289	922
487	230	276
488	615	497
489	615	745
490	141	305
491	528	542
492	759	969
493	250	948
494	975	347
495	605	425
496	58	720
497	260	609
498	95	313
499	93	403
500	259	320
501	893	975
502	800	388
503	354	97
504	637	312
505	870	758
506	270	693
507	737	746
508	208	698
509	215	11
510	518	345
511	853	875
512	586	886
513	458	623
514	881	229
515	141	92
516	772	190
517	623	675
518	585	610
519	917	907
520	53	590
521	380	241
522	605	432
523	103	882
524	498	359
525	379	358
526	800	674
527	863	563
528	217	16
529	31	35
530	55	256
531	190	910
532	615	246
533	270	649
534	939	677
535	636	199
536	228	781
537	559	766
538	553	430
539	836	503
540	280	22
541	656	38
542	190	932
543	29	516
544	821	155
545	610	386
546	22	316
547	259	866
548	42	807
549	817	314
550	636	661
551	359	714
552	892	510
553	564	736
554	335	523
555	745	100
556	662	884
557	112	535
558	506	927
559	913	189
560	393	845
561	679	111
562	148	592
563	713	790
564	878	354
565	633	280
566	761	212
567	205	187
568	38	997
569	691	162
570	331	478
571	195	391
572	617	177
573	151	5
574	532	139
575	918	722
576	406	523
577	814	761
578	753	523
579	425	455
580	778	722
581	835	386
582	267	83
583	148	695
584	313	726
585	622	262
586	953	928
587	93	153
588	943	955
589	205	3
590	485	319
591	287	258
592	212	357
593	448	372
594	832	822
595	943	818
596	774	435
597	417	898
598	457	342
599	771	92
600	485	897
601	23	580
602	184	394
603	190	833
604	706	402
605	749	904
606	218	778
607	886	160
608	451	711
609	271	845
610	806	548
611	990	50
612	950	903
613	24	728
614	880	479
615	198	430
616	656	850
617	669	228
618	117	212
619	281	583
620	171	735
621	198	637
622	185	805
623	586	469
624	750	474
625	189	754
626	429	703
627	114	97
628	665	155
629	142	872
630	113	70
631	665	364
632	206	725
633	18	116
634	697	506
635	623	9
636	339	556
637	604	992
638	45	243
639	453	586
640	836	404
641	406	863
642	45	837
643	312	80
644	607	568
645	976	315
646	274	169
647	434	95
648	636	219
649	879	608
650	82	287
651	22	508
652	230	98
653	907	383
654	292	209
655	418	117
656	237	296
657	814	223
658	256	233
659	946	562
660	869	334
661	529	186
662	86	121
663	637	654
664	582	393
665	213	54
666	835	424
667	678	610
668	149	313
669	105	73
670	980	473
671	836	914
672	463	814
673	478	491
674	520	135
675	551	900
676	781	385
677	525	138
678	95	542
679	918	319
680	169	889
681	283	637
682	66	909
683	707	806
684	317	733
685	968	698
686	147	210
687	187	697
688	672	160
689	36	849
690	38	219
691	179	912
692	964	303
693	78	249
694	26	857
695	26	273
696	748	192
697	542	880
698	322	319
699	348	935
700	914	175
701	557	540
702	262	926
703	980	98
704	784	104
705	685	213
706	426	776
707	97	99
708	973	806
709	255	846
710	140	668
711	344	654
712	714	150
713	128	943
714	432	249
715	0	439
716	293	310
717	403	279
718	636	526
719	536	683
720	117	608
721	2	64
722	934	899
723	422	310
724	726	713
725	568	738
726	106	264
727	603	851
728	152	132
729	554	120
730	425	44
731	281	246
732	605	439
733	917	476
734	315	580
735	242	348
736	67	735
737	421	572
738	963	374
739	372	992
740	701	797
741	533	771
742	243	349
743	695	529
744	44	787
745	88	861
746	158	152
747	458	469
748	628	903
749	149	592
750	563	99
751	733	641
752	886	704
753	76	922
754	663	632
755	503	573
756	663	259
757	664	1
758	814	61
759	183	355
760	579	779
761	98	202
762	805	92
763	517	510
764	787	269
765	570	538
766	334	56
767	268	871
768	645	1
769	537	800
770	78	321
771	485	212
772	288	267
773	463	778
774	607	493
775	872	846
776	321	519
777	868	856
778	365	698
779	244	835
780	655	185
781	783	394
782	28	495
783	405	189
784	906	892
785	314	250
786	288	79
787	159	738
788	967	949
789	725	595
790	541	876
791	138	90
792	308	781
793	574	420
794	450	311
795	43	742
796	517	71
797	744	265
798	4	774
799	538	566
800	457	704
801	488	418
802	638	22
803	717	615
804	131	15
805	256	619
806	51	862
807	458	852
808	787	986
809	898	247
810	795	138
811	612	928
812	120	839
813	254	127
814	334	962
815	711	309
816	7	45
817	71	797
818	778	958
819	87	231
820	789	779
821	908	276
822	580	5
823	497	860
824	909	503
825	736	500
826	847	980
827	813	263
828	986	880
829	796	948
830	423	425
831	700	852
832	276	905
833	24	438
834	30	95
835	242	564
836	386	985
837	906	153
838	414	266
839	885	539
840	610	381
841	723	299
842	329	62
843	486	71
844	991	814
845	817	1
846	428	244
847	191	819
848	336	324
849	40	431
850	946	880
851	527	95
852	632	486
853	110	85
854	355	723
855	828	378
856	170	134
857	607	202
858	316	266
859	60	721
860	569	425
861	303	474
862	370	168
863	678	701
864	456	530
865	439	893
866	152	580
867	708	467
868	466	584
869	100	798
870	352	151
871	125	557
872	954	588
873	638	24
874	448	395
875	733	618
876	19	154
877	231	761
878	360	412
879	861	471
880	671	342
881	439	520
882	214	166
883	890	101
884	352	94
885	752	720
886	529	135
887	202	736
888	610	115
889	651	348
890	820	510
891	222	717
892	444	955
893	134	128
894	577	355
895	742	176
896	709	178
897	93	595
898	386	340
899	668	574
900	805	70
901	939	291
902	892	600
903	43	304
904	208	79
905	330	913
906	601	999
907	267	857
908	453	793
909	604	857
910	738	925
911	570	26
912	893	941
913	488	895
914	175	614
915	890	405
916	988	917
917	31	745
918	449	727
919	731	286
920	146	93
921	565	576
922	640	705
923	514	239
924	469	763
925	779	77
926	303	159
927	739	154
928	491	151
929	46	853
930	618	815
931	750	412
932	849	47
933	265	39
934	508	589
935	787	273
936	950	427
937	909	976
938	418	878
939	733	860
940	664	252
941	924	746
942	338	524
943	890	290
944	278	654
945	293	280
946	93	112
947	520	434
948	733	228
949	996	878
950	146	127
951	711	869
952	915	137
953	212	35
954	853	131
955	718	878
956	444	42
957	289	533
958	726	525
959	60	301
960	659	843
961	365	815
962	268	289
963	854	4
964	528	530
965	317	220
966	802	103
967	918	40
968	145	144
969	8	453
970	577	982
971	549	166
972	147	385
973	839	660
974	260	28
975	629	799
976	32	122
977	402	96
978	972	376
979	421	146
980	598	895
981	522	573
982	199	48
983	811	714
984	478	189
985	658	95
986	935	985
987	519	967
988	74	731
989	180	150
990	942	918
991	395	750
992	521	748
993	280	698
994	383	601
995	991	838
996	552	436
997	336	539
998	588	940
999	360	270
1000	856	406
1001	331	617
DEMAND_SECTION
1	0
2	1
3	2
4	5
5	2
6	2
7	3
8	7
9	7
10	4
11	1
12	5
13	3
14	2
15	9
16	1
17	2
18	3
19	4
20	3
21	5
22	8
23	2
24	3
25	5
26	4
27	7
28	5
29	4
30	4
31	2
32	2
33	1
34	5
35	6
36	2
37	4
38	4
39	8
40	1
41	8
42	7
43	1
44	2
45	4
46	4
47	2
48	3
49	7
50	2
51	2
52	4
53	5
54	8
55	2
56	4
57	5
58	9
59	2
60	8
61	6
62	6
63	5
64	7
65	6
66	1
67	5
68	7
69	5
70	6
71	6
72	3
73	7
74	8
75	7
76	5
77	6
78	4
79	5
80	9
81	8
82	7
83	6
84	5
85	8
86	4
87	1
88	1
89	5
90	3
91	9
92	7
93	9
94	7
95	7
96	5
97	4
98	6
99	7
100	5
101	3
102	7
103	6
104	2
105	5
106	5
107	9
108	2
109	6
110	2
111	4
112	8
113	3
114	7
115	8
116	7
117	9
118	6
119	3
120	1
121	5
122	4
123	1
124	9
125	2
126	8
127	7
128	9
129	2
130	3
131	7
132	8
133	9
134	5
135	9
136	3
137	7
138	2
139	3
140	9
141	3
142	7
143	9
144	2
145	6
146	1
147	7
148	1
149	8
150	5
151	6
152	1
153	5
154	7
155	1
156	5
157	6
158	7
159	8
160	5
161	2
162	1
163	7
164	2
165	4
166	8
167	3
168	7
169	2
170	7
171	5
172	8
173	4
174	8
175	9
176	5
177	7
178	1
179	4
180	3
181	4
182	4
183	3
184	1
185	8
186	1
187	1
188	1
189	1
190	2
191	1
192	3
193	9
194	1
195	2
196	6
197	7
198	2
199	2
200	6
201	8
202	1
203	5
204	2
205	3
206	9
207	9
208	4
209	1
210	1
211	1
212	3
213	4
214	2
215	8
216	6
217	1
218	2
219	6
220	2
221	5
222	8
223	8
224	8
225	6
226	6
227	7
228	2
229	3
230	7
231	1
232	4
233	6
234	7
235	8
236	7
237	9
238	6
239	7
240	3
241	8
242	9
243	5
244	6
245	7
246	6
247	1
248	3
249	4
250	1
251	4
252	9
253	6
254	9
255	5
256	4
257	5
258	3
259	9
260	6
261	9
262	1
263	1
264	2
265	9
266	2
267	9
268	5
269	3
270	8
271	4
272	3
273	5
274	6
275	3
276	3
277	4
278	6
279	2
280	5
281	6
282	4
283	8
284	4
285	1
286	9
287	5
288	6
289	2
290	8
291	7
292	7
293	1
294	3
295	2
296	5
297	3
298	9
299	6
300	3
301	1
302	9
303	1
304	7
305	1
306	6
307	3
308	9
309	2
310	6
311	5
312	4
313	2
314	5
315	3
316	2
317	8
318	8
319	3
320	9
321	8
322	4
323	8
324	3
325	9
326	6
327	2
328	2
329	1
330	4
331	7
332	4
333	8
334	3
335	9
336	4
337	4
338	8
339	8
340	9
341	2
342	8
343	7
344	6
345	8
346	3
347	9
348	2
349	2
350	8
351	5
352	5
353	3
354	9
355	7
356	6
357	2
358	5
359	8
360	7
361	1
362	3
363	9
364	2
365	2
366	7
367	9
368	2
369	7
370	2
371	1
372	1
373	9
374	7
375	7
376	3
377	3
378	6
379	5
380	8
381	8
382	6
383	1
384	9
385	4
386	3
387	5
388	4
389	4
390	3
391	7
392	7
393	8
394	1
395	8
396	5
397	3
398	5
399	6
400	5
401	9
402	1
403	1
404	5
405	7
406	2
407	9
408	6
409	9
410	6
411	5
412	1
413	6
414	6
415	3
416	3
417	6
418	1
419	7
420	4
421	7
422	4
423	1
424	7
425	3
426	6
427	4
428	3
429	4
430	1
431	4
432	1
433	4
434	2
435	2
436	9
437	8
438	7
439	3
440	3
441	5
442	6
443	4
444	1
445	1
446	6
447	3
448	9
449	4
450	4
451	6
452	4
453	4
454	7
455	5
456	9
457	6
458	3
459	4
460	9
461	9
462	1
463	6
464	5
465	4
466	4
467	8
468	6
469	8
470	2
471	4
472	2
473	2
474	2
475	9
476	1
477	8
478	7
479	3
480	9
481	3
482	2
483	7
484	1
485	2
486	8
487	3
488	6
489	7
490	2
491	8
492	3
493	1
494	3
495	9
496	4
497	7
498	9
499	2
500	8
501	3
502	2
503	1
504	4
505	1
506	5
507	4
508	7
509	9
510	6
511	2
512	8
513	2
514	4
515	9
516	4
517	7
518	4
519	9
520	2
521	4
522	1
523	5
524	5
525	6
526	9
527	4
528	9
529	1
530	5
531	9
532	2
533	8
534	5
535	8
536	2
537	2
538	4
539	3
540	7
541	5
542	5
543	7
544	7
545	7
546	6
547	4
548	2
549	4
550	1
551	2
552	3
553	6
554	7
555	1
556	3
557	4
558	3
559	6
560	4
561	7
562	8
563	8
564	7
565	1
566	3
567	6
568	9
569	8
570	6
571	5
572	1
573	4
574	9
575	2
576	8
577	8
578	7
579	8
580	5
581	1
582	3
583	6
584	2
585	6
586	8
587	7
588	8
589	3
590	9
591	4
592	7
593	4
594	3
595	4
596	9
597	1
598	9
599	8
600	8
601	2
602	2
603	6
604	1
605	4
606	3
607	1
608	6
609	8
610	2
611	2
612	3
613	7
614	3
615	6
616	6
617	5
618	5
619	4
620	9
621	2
622	9
623	5
624	5
625	7
626	3
627	2
628	1
629	1
630	4
631	9
632	3
633	7
634	3
635	5
636	1
637	5
638	7
639	5
640	2
641	9
642	2
643	9
644	4
645	8
646	3
647	2
648	7
649	9
650	6
651	9
652	2
653	9
654	3
655	7
656	3
657	9
658	3
659	3
660	3
661	4
662	8
663	7
664	7
665	7
666	1
667	6
668	5
669	8
670	9
671	1
672	6
673	1
674	2
675	1
676	2
677	9
678	3
679	4
680	5
681	9
682	2
683	8
684	1
685	5
686	7
687	8
688	6
689	6
690	9
691	8
692	9
693	1
694	4
695	4
696	6
697	5
698	3
699	5
700	8
701	9
702	9
703	4
704	1
705	5
706	9
707	4
708	5
709	5
710	1
711	1
712	9
713	2
714	2
715	1
716	5
717	3
718	6
719	8
720	4
721	5
722	6
723	8
724	1
725	6
726	3
727	6
728	2
729	8
730	9
731	6
732	9
733	7
734	8
735	9
736	3
737	3
738	1
739	5
740	9
741	2
742	3
743	3
744	3
745	1
746	2
747	8
748	2
749	6
750	7
751	5
752	8
753	8
754	4
755	4
756	2
757	4
758	8
759	1
760	3
761	1
762	5
763	1
764	3
765	6
766	7
767	2
768	9
769	1
770	7
771	4
772	4
773	7
774	8
775	2
776	2
777	2
778	4
779	2
780	8
781	1
782	9
783	3
784	9
785	1
786	1
787	9
788	5
789	2
790	5
791	9
792	2
793	5
794	9
795	3
796	5
797	9
798	4
799	5
800	8
801	6
802	4
803	3
804	2
805	9
806	2
807	9
808	1
809	4
810	3
811	9
812	5
813	6
814	6
815	1
816	1
817	8
818	8
819	4
820	1
821	4
822	3
823	4
824	7
825	1
826	5
827	1
828	9
829	2
830	9
831	3
832	4
833	1
834	8
835	8
836	4
837	7
838	4
839	2
840	8
841	9
842	4
843	6
844	8
845	9
846	4
847	9
848	7
849	2
850	5
851	7
852	8
853	4
854	6
855	9
856	7
857	7
858	7
859	6
860	5
861	1
862	9
863	2
864	4
865	3
866	7
867	9
868	2
869	4
870	6
871	4
872	4
873	1
874	7
875	1
876	4
877	6
878	5
879	3
880	9
881	9
882	1
883	8
884	8
885	2
886	3
887	4
888	5
889	5
890	6
891	7
892	6
893	5
894	6
895	6
896	6
897	2
898	4
899	2
900	3
901	2
902	3
903	6
904	6
905	2
906	7
907	9
908	1
909	3
910	7
911	7
912	4
913	1
914	6
915	6
916	9
917	3
918	5
919	8
920	7
921	1
922	8
923	9
924	3
925	1
926	6
927	4
928	1
929	5
930	8
931	9
932	2
933	2
934	1
935	9
936	8
937	1
938	6
939	9
940	9
941	1
942	9
943	5
944	8
945	2
946	1
947	2
948	7
949	1
950	7
951	8
952	6
953	7
954	4
955	9
956	9
957	3
958	2
959	2
960	4
961	3
962	2
963	5
964	4
965	6
966	4
967	9
968	8
969	4
970	6
971	4
972	4
973	8
974	8
975	1
976	1
977	6
978	1
979	1
980	7
981	2
982	3
983	4
984	3
985	5
986	5
987	9
988	9
989	3
990	8
991	3
992	2
993	7
994	9
995	8
996	9
997	2
998	1
999	2
1000	8
1001	2
TIME_WINDOW_SECTION
1	0	3000
2	141	1932
3	225	1047
4	424	1668
5	908	2631
6	1014	2419
7	242	1672
8	124	2015
9	915	2071
10	249	751
11	785	1377
12	0	1064
13	402	869
14	403	2034
15	1804	3000
16	765	2002
17	1142	2911
18	1123	2274
19	1666	3000
20	1066	2110
21	305	2281
22	698	2226
23	1016	1422
24	923	2115
25	0	1229
26	615	1557
27	1779	2974
28	250	2125
29	0	1338
30	1244	2867
31	770	2513
32	0	1583
33	2063	3000
34	282	1744
35	1266	2953
36	175	914
37	947	2008
38	1102	1887
39	1565	2399
40	1196	1586
41	0	1302
42	1476	2508
43	993	2478
44	160	1105
45	1375	2102
46	1457	2059
47	837	2335
48	728	2276
49	474	2195
50	1273	3000
51	1809	2263
52	1129	1477
53	0	1306
54	1436	2054
55	138	1743
56	1702	2800
57	1446	1929
58	868	1265
59	1673	2531
60	707	2094
61	623	1503
62	1547	2270
63	1225	2792
64	492	951
65	421	1282
66	1954	2277
67	744	983
68	324	1149
69	262	1103
70	2040	2635
71	1986	2587
72	856	2182
73	892	2226
74	2387	2627
75	621	1006
76	966	2870
77	1434	1774
78	716	1915
79	402	1710
80	617	2114
81	1595	3000
82	1016	1761
83	1145	1766
84	666	1458
85	149	1445
86	781	1426
87	832	2546
88	0	999
89	1525	2872
90	2259	2995
91	1550	2339
92	628	2379
93	1362	2408
94	1142	2150
95	1301	1925
96	321	1007
97	0	1188
98	345	1152
99	1561	2534
100	98	2073
101	1003	2627
102	768	1303
103	1748	3000
104	410	658
105	1625	2631
106	1558	2727
107	894	1277
108	1527	1932
109	1177	1545
110	0	1704
111	769	2264
112	1080	1379
113	786	2304
114	0	1258
115	736	1012
116	1013	2814
117	972	1623
118	0	1444
119	1448	2967
120	0	1399
121	2129	2667
122	622	2449
123	1422	1932
124	333	1368
125	801	2076
126	246	2004
127	483	1089
128	0	1592
129	1271	2622
130	0	1487
131	1848	2568
132	1260	2451
133	1223	2673
134	1489	2970
135	1559	2615
136	1115	1335
137	487	2242
138	1068	2600
139	1246	2633
140	1296	2536
141	585	1363
142	514	1807
143	1194	2397
144	2182	2900
145	810	2797
146	1106	1497
147	28	1292
148	1516	3000
149	313	2213
150	1449	1912
151	76	1457
152	896	2768
153	373	1606
154	1574	1787
155	894	1224
156	478	1403
157	1354	2332
158	387	1364
159	708	1858
160	1472	2854
161	2513	2719
162	426	2018
163	678	2122
164	791	1355
165	1374	3000
166	952	1614
167	1945	2158
168	482	1322
169	949	2698
170	252	1621
171	734	2290
172	1213	3000
173	1078	3000
174	1546	2412
175	2226	2698
176	1550	2181
177	274	1255
178	1420	2720
179	1090	2489
180	135	902
181	803	2287
182	482	1374
183	1193	2170
184	522	2163
185	1613	2023
186	966	2780
187	0	1623
188	400	2057
189	1119	1481
190	1784	2959
191	1690	2696
192	1627	1975
193	0	1438
194	1637	2512
195	140	1318
196	954	1802
197	1113	1746
198	1420	2524
199	1040	2393
200	1736	2682
201	269	1906
202	1485	2858
203	1036	1815
204	225	1113
205	0	1606
206	1786	2334
207	2073	2332
208	1822	2144
209	213	1863
210	745	1262
211	2052	2694
212	701	1933
213	1197	3000
214	852	2495
215	300	911
216	861	2481
217	1790	2160
218	129	1206
219	608	1683
220	1834	2438
221	1703	3000
222	1316	2084
223	1240	2599
224	474	2148
225	209	1002
226	232	1962
227	495	1226
228	906	2432
229	8	1931
230	246	1855
231	1953	2552
232	1205	2698
233	565	1463
234	1294	2501
235	1269	2978
236	1504	2425
237	242	1169
238	325	2016
239	774	1905
240	375	1583
241	0	1858
242	748	1721
243	385	1694
244	1550	2549
245	257	1966
246	1794	2795
247	953	1792
248	1528	2896
249	1377	1881
250	1463	2306
251	0	1361
252	636	2112
253	263	503
254	1278	1887
255	408	959
256	1057	1694
257	236	1500
258	0	1467
259	1141	2866
260	0	1358
261	1193	2838
262	1108	2171
263	371	1875
264	0	1294
265	713	2036
266	1314	2719
267	1534	2371
268	247	1390
269	1497	1865
270	402	1071
271	101	901
272	1840	2377
273	722	1814
274	1108	1864
275	1125	3000
276	462	1323
277	401	2325
278	1626	1900
279	1046	2362
280	0	1069
281	255	1228
282	690	2094
283	747	1700
284	1850	2575
285	1329	3000
286	554	2535
287	61	1418
288	741	947
289	0	1749
290	1077	1819
291	948	1897
292	0	1508
293	1153	1573
294	483	844
295	217	718
296	1197	1898
297	887	1365
298	0	1435
299	1192	2260
300	1358	3000
301	1669	2234
302	1794	2787
303	901	2399
304	1619	3000
305	1035	2249
306	1843	2106
307	1637	2916
308	780	2776
309	1673	2922
310	437	722
311	2049	2527
312	554	1884
313	1637	3000
314	1571	3000
315	0	1410
316	367	867
317	1267	2258
318	606	1838
319	194	960
320	363	1334
321	220	781
322	1106	3000
323	1037	1649
324	1514	1823
325	151	1184
326	0	1007
327	1498	2250
328	787	1829
329	1334	2448
330	1778	2295
331	106	1070
332	118	2025
333	819	2315
334	610	2441
335	1366	2519
336	1426	2560
337	590	1024
338	231	626
339	1420	2736
340	257	2153
341	1099	2637
342	774	1245
343	1866	2620
344	168	859
345	932	2360
346	1739	3000
347	43	1491
348	871	1090
349	706	1956
350	756	2186
351	0	1715
352	1201	2069
353	597	2019
354	1568	2330
355	1168	2663
356	62	424
357	1599	3000
358	790	1771
359	1993	2467
360	1538	2758
361	919	1943
362	965	1374
363	226	1834
364	526	1309
365	212	1622
366	471	2393
367	706	2399
368	340	2201
369	1427	2185
370	451	2295
371	1112	2194
372	238	1614
373	0	998
374	129	1905
375	908	2274
376	1434	2033
377	65	1568
378	1131	1991
379	586	2334
380	84	1613
381	1942	2803
382	0	1376
383	629	2196
384	446	2330
385	602	1039
386	293	819
387	3	1058
388	243	911
389	1537	2289
390	936	1451
391	159	1703
392	743	2465
393	1589	3000
394	0	1044
395	1478	2182
396	1080	1388
397	662	1190
398	706	1649
399	86	1430
400	1406	2314
401	609	2371
402	1458	2431
403	1265	2086
404	410	1791
405	1056	1384
406	922	2366
407	1087	2130
408	250	1783
409	604	1986
410	1057	3000
411	1975	3000
412	1297	1621
413	969	2243
414	504	1755
415	706	1376
416	0	816
417	128	1596
418	1687	2272
419	666	1436
420	823	2219
421	1574	2291
422	62	1319
423	620	2461
424	219	1708
425	587	1258
426	543	1648
427	1378	2812
428	0	1357
429	172	1764
430	1394	1884
431	1273	2078
432	1184	1862
433	992	2882
434	1526	1999
435	1257	2050
436	0	1490
437	0	1402
438	1189	1564
439	1186	3000
440	385	1844
441	810	1928
442	1213	1859
443	0	1628
444	145	872
445	687	997
446	954	2765
447	771	2561
448	802	2611
449	443	1640
450	0	690
451	0	1257
452	902	1369
453	422	2007
454	975	2261
455	1503	3000
456	203	1997
457	969	1790
458	1443	2952
459	0	1399
460	1622	1971
461	2278	2688
462	1025	2972
463	1665	1952
464	418	1932
465	1681	1916
466	2129	2543
467	1417	2127
468	1530	2650
469	1577	2862
470	765	2427
471	768	2474
472	490	1493
473	923	2365
474	644	1855
475	839	2340
476	1652	2202
477	0	1932
478	1307	3000
479	1872	2609
480	1003	2272
481	1787	2143
482	438	1731
483	1202	2340
484	1468	1871
485	770	985
486	968	1333
487	598	2136
488	130	1313
489	2188	2610
490	1845	2690
491	838	2154
492	1198	2457
493	1206	2772
494	552	2425
495	2028	2429
496	1281	2889
497	216	1656
498	1486	2802
499	1286	2082
500	1584	3000
501	1549	1881
502	429	1934
503	784	2531
504	471	1392
505	29	1732
506	632	886
507	82	1149
508	1291	1775
509	1688	2780
510	1641	1906
511	725	1648
512	124	1787
513	584	1257
514	1164	1542
515	645	890
516	1043	1713
517	1256	1760
518	1659	2543
519	0	1645
520	1162	1739
521	181	488
522	1165	1862
523	1233	1890
524	1380	3000
525	1477	3000
526	331	1681
527	862	1176
528	798	2020
529	716	1636
530	961	2537
531	1069	2707
532	179	853
533	792	2745
534	0	1219
535	832	1997
536	1008	2842
537	287	2043
538	1139	2676
539	443	2100
540	1815	2929
541	1151	3000
542	532	1490
543	1164	1569
544	2064	2676
545	1833	2974
546	881	1591
547	612	1564
548	1222	2438
549	1056	1783
550	1330	3000
551	1240	2603
552	91	792
553	683	2099
554	738	2479
555	0	1016
556	486	1369
557	1435	2476
558	492	1629
559	1755	2774
560	566	2250
561	102	1117
562	565	1533
563	33	1484
564	1987	2545
565	1619	2308
566	0	1169
567	1282	1773
568	72	1845
569	342	1310
570	1375	2629
571	192	1173
572	1572	3000
573	322	1317
574	0	1376
575	1095	2739
576	1093	1322
577	1387	2789
578	2072	2825
579	456	884
580	335	1388
581	999	1653
582	61	729
583	368	1308
584	216	795
585	1417	2001
586	500	1249
587	1879	2289
588	1839	2172
589	1312	2087
590	1794	2742
591	680	1959
592	1843	2750
593	399	1118
594	810	2345
595	1100	2665
596	274	1386
597	242	1395
598	1432	2014
599	941	2475
600	1156	1464
601	1622	2835
602	0	1248
603	685	952
604	957	1950
605	831	1400
606	1272	3000
607	1367	3000
608	769	1084
609	399	2199
610	1590	2716
611	149	1197
612	993	2529
613	429	1286
614	1770	2516
615	267	2128
616	852	1518
617	1989	2921
618	1412	2417
619	429	1371
620	0	1756
621	412	2060
622	1004	2236
623	2321	2715
624	33	1451
625	0	1216
626	1141	2150
627	651	2124
628	1627	3000
629	1223	2581
630	1264	2787
631	0	940
632	126	1094
633	793	1523
634	309	670
635	0	1888
636	153	1927
637	857	1179
638	277	1357
639	1371	2739
640	1244	2779
641	800	1125
642	1049	1672
643	1879	2605
644	1539	1962
645	999	2230
646	513	1488
647	520	2414
648	1693	3000
649	384	1934
650	1420	2503
651	0	1494
652	1052	2847
653	881	2775
654	1292	2891
655	22	899
656	562	1417
657	1086	2206
658	579	1151
659	559	2278
660	684	1369
661	732	1651
662	537	2335
663	1409	1681
664	30	674
665	126	1721
666	1075	1643
667	66	1632
668	1725	2326
669	731	1511
670	227	1349
671	1714	2334
672	752	1611
673	1054	2909
674	0	1462
675	986	1821
676	0	1344
677	854	2756
678	85	1215
679	604	1844
680	0	1476
681	374	1036
682	916	2820
683	645	1702
684	137	774
685	424	991
686	2137	2389
687	1136	3000
688	1474	3000
689	637	1115
690	339	1865
691	164	1292
692	836	1708
693	0	1545
694	1522	1741
695	95	2028
696	1479	2113
697	105	1420
698	375	1755
699	675	2149
700	671	2644
701	896	1385
702	986	2427
703	119	1293
704	827	2695
705	625	2405
706	588	2174
707	1429	1921
708	496	1226
709	736	1144
710	965	1794
711	1780	2561
712	1850	2385
713	633	973
714	51	1497
715	1452	2596
716	1876	2823
717	1812	3000
718	8	1132
719	69	2014
720	1713	2466
721	2092	2306
722	1321	2233
723	0	1134
724	223	871
725	1485	3000
726	1856	2510
727	300	1384
728	0	1256
729	0	1171
730	1167	3000
731	242	2032
732	0	1113
733	794	2169
734	2226	2474
735	0	1553
736	842	1192
737	285	1549
738	1259	2992
739	193	1255
740	262	1244
741	872	2758
742	1156	1462
743	0	1158
744	800	1998
745	1322	2515
746	1369	2216
747	440	1302
748	213	1536
749	1351	3000
750	0	1577
751	608	2209
752	1695	2803
753	63	1616
754	298	952
755	332	937
756	769	1211
757	1922	2543
758	1932	2199
759	1858	2748
760	1986	2286
761	1086	1872
762	1541	2057
763	0	1921
764	151	990
765	258	1421
766	1164	1964
767	420	2116
768	941	2710
769	494	2059
770	275	866
771	1222	1649
772	1610	2165
773	1921	2340
774	1964	3000
775	292	2180
776	1448	2377
777	419	2272
778	581	1210
779	1809	2067
780	132	1327
781	1402	3000
782	834	2467
783	1617	2304
784	353	1232
785	1977	2292
786	1025	1995
787	242	1461
788	1913	2123
789	154	2049
790	819	2062
791	1197	1769
792	0	1500
793	497	863
794	610	1302
795	500	2006
796	1894	2137
797	2109	2831
798	1256	2521
799	1883	2175
800	456	864
801	1402	3000
802	1028	2912
803	232	470
804	1928	2551
805	135	2102
806	1457	2524
807	824	1958
808	178	1292
809	1963	2271
810	796	2485
811	243	952
812	249	1376
813	2052	2543
814	1731	2147
815	977	2846
816	1653	2499
817	655	2431
818	1068	1636
819	543	1180
820	1093	2595
821	0	1133
822	0	1369
823	976	1869
824	101	1968
825	1303	3000
826	754	1415
827	1260	1508
828	947	1740
829	1459	1737
830	0	862
831	602	2383
832	313	2271
833	0	1793
834	68	1909
835	411	677
836	963	2556
837	577	1921
838	1466	3000
839	235	1174
840	2238	2727
841	0	1377
842	1587	2692
843	741	2263
844	913	2380
845	403	1476
846	886	2799
847	363	1570
848	617	1319
849	1163	1700
850	658	1685
851	0	756
852	1786	3000
853	1298	2371
854	910	1955
855	711	2520
856	1402	3000
857	1267	1684
858	0	1372
859	1158	3000
860	899	2421
861	130	2033
862	2040	2524
863	1012	1911
864	1792	3000
865	989	1776
866	802	1239
867	1913	2687
868	224	1346
869	1718	2178
870	1235	2984
871	987	2745
872	1017	2866
873	1392	2376
874	1224	2391
875	56	615
876	227	1427
877	1305	3000
878	614	924
879	241	895
880	1244	3000
881	120	1957
882	1027	2581
883	2017	2342
884	1360	2069
885	1283	2544
886	1716	2758
887	1365	1949
888	1008	2908
889	1805	2679
890	261	1342
891	31	1311
892	692	1508
893	265	660
894	932	2887
895	1629	2175
896	0	1391
897	0	1596
898	1485	2324
899	167	2084
900	651	2190
901	1168	2681
902	56	1583
903	483	844
904	1353	1591
905	919	1874
906	1298	1514
907	1253	1548
908	561	1728
909	1665	2128
910	1013	1544
911	479	1107
912	969	1629
913	792	2464
914	335	1940
915	314	1099
916	523	1146
917	1470	1801
918	380	1424
919	608	850
920	423	2262
921	2133	2913
922	1051	2701
923	1284	1764
924	242	964
925	1853	2552
926	452	1458
927	232	1160
928	1011	1380
929	1849	2073
930	1239	2895
931	190	1552
932	0	1687
933	304	2023
934	1374	2108
935	0	1695
936	1205	2693
937	684	1249
938	1228	2425
939	308	1611
940	674	2625
941	583	2088
942	1705	2544
943	1991	2700
944	1750	2188
945	1799	3000
946	18	1657
947	0	916
948	7	594
949	150	1958
950	467	1115
951	1014	1991
952	828	2119
953	366	1137
954	2176	2413
955	1031	1867
956	744	1089
957	38	1994
958	251	1912
959	1139	2429
960	1012	2469
961	19	1236
962	2075	2449
963	120	2001
964	1535	1884
965	1076	2965
966	122	1323
967	1219	1652
968	782	1082
969	498	1836
970	950	2349
971	1605	3000
972	548	1167
973	578	2375
974	911	1891
975	879	2776
976	1167	1966
977	1479	2910
978	496	748
979	0	1929
980	1355	2414
981	119	1555
982	785	2471
983	1104	1425
984	1128	1687
985	1783	2952
986	804	2001
987	740	1952
988	1946	2294
989	725	1341
990	842	2005
991	554	2307
992	1246	2789
993	1483	1985
994	376	2077
995	853	1850
996	1194	1419
997	1338	3000
998	1271	2575
999	1440	2487
1000	0	1167
1001	488	1832
DEPOT_SECTION
1
-1
EOF
