NAME : n1001-0042
COMMENT : "Generated by pyvrp_manuel (OVRPTW)"
TYPE : OVRPTW
DIMENSION : 1001
EDGE_WEIGHT_TYPE : EUC_2D
CAPACITY : 150
VEHICLES : 1000
OPEN_ROUTE : YES
SERVICE_TIME : 200
NODE_COORD_SECTION
1	669	222
2	277	562
3	262	422
4	396	513
5	794	968
6	279	786
7	514	580
8	64	775
9	453	527
10	678	771
11	10	321
12	803	151
13	937	382
14	503	596
15	79	679
16	212	49
17	890	924
18	759	186
19	475	12
20	756	614
21	458	472
22	579	692
23	693	251
24	763	81
25	554	922
26	767	295
27	743	330
28	878	17
29	465	774
30	744	915
31	521	80
32	1	619
33	173	326
34	544	604
35	998	11
36	585	139
37	781	891
38	372	609
39	986	611
40	805	952
41	605	933
42	82	695
43	222	294
44	211	230
45	654	248
46	612	766
47	970	352
48	378	584
49	783	786
50	344	944
51	525	96
52	996	24
53	330	392
54	828	43
55	635	417
56	112	902
57	904	70
58	862	486
59	899	683
60	942	822
61	565	468
62	372	311
63	997	65
64	799	815
65	95	806
66	525	834
67	137	404
68	939	805
69	831	179
70	86	743
71	310	137
72	875	998
73	90	752
74	725	631
75	302	471
76	701	624
77	217	323
78	511	29
79	773	572
80	412	867
81	662	559
82	589	44
83	716	174
84	436	615
85	118	379
86	134	445
87	672	754
88	164	171
89	634	727
90	41	524
91	579	477
92	763	904
93	26	474
94	65	402
95	707	28
96	676	260
97	453	178
98	138	808
99	993	707
100	315	843
101	523	840
102	349	80
103	241	979
104	255	59
105	963	930
106	53	739
107	677	437
108	394	549
109	923	828
110	738	629
111	515	511
112	139	32
113	999	828
114	55	374
115	798	206
116	371	166
117	512	854
118	386	469
119	528	542
120	173	254
121	958	158
122	803	435
123	622	326
124	341	516
125	236	120
126	352	623
127	111	750
128	715	775
129	21	17
130	667	968
131	639	596
132	676	4
133	219	805
134	522	725
135	773	868
136	106	35
137	775	423
138	236	390
139	113	371
140	594	920
141	634	514
142	841	296
143	778	292
144	2	120
145	302	474
146	641	25
147	455	910
148	745	647
149	353	522
150	266	95
151	972	232
152	979	399
153	74	767
154	263	739
155	435	355
156	114	951
157	400	640
158	122	409
159	443	614
160	387	138
161	467	752
162	628	995
163	902	489
164	548	783
165	633	666
166	107	384
167	343	139
168	571	954
169	171	967
170	958	817
171	307	570
172	557	396
173	328	348
174	724	80
175	838	85
176	947	20
177	894	407
178	520	246
179	298	345
180	553	805
181	827	54
182	317	810
183	294	956
184	898	439
185	952	219
186	623	370
187	924	468
188	248	656
189	15	149
190	433	399
191	989	731
192	834	489
193	397	915
194	874	953
195	196	65
196	560	354
197	768	483
198	57	555
199	385	426
200	191	245
201	427	675
202	898	596
203	896	425
204	979	138
205	878	460
206	624	926
207	226	234
208	305	799
209	161	599
210	182	336
211	188	686
212	465	848
213	274	912
214	226	413
215	7	283
216	913	242
217	764	553
218	291	145
219	254	700
220	427	840
221	979	15
222	253	805
223	74	478
224	730	850
225	290	92
226	985	779
227	647	686
228	436	49
229	943	507
230	528	90
231	69	789
232	809	836
233	237	386
234	161	447
235	699	474
236	181	587
237	993	462
238	919	674
239	921	855
240	821	933
241	841	701
242	505	734
243	893	299
244	297	256
245	641	232
246	297	908
247	723	458
248	216	582
249	492	345
250	886	711
251	609	897
252	888	257
253	830	468
254	576	842
255	754	582
256	716	716
257	91	30
258	655	196
259	83	928
260	553	582
261	919	912
262	893	173
263	415	924
264	163	425
265	31	657
266	875	635
267	779	330
268	751	410
269	779	988
270	118	712
271	505	631
272	244	904
273	909	781
274	983	836
275	236	125
276	241	63
277	774	218
278	103	913
279	63	251
280	769	95
281	206	72
282	109	849
283	971	954
284	284	218
285	847	687
286	705	134
287	767	866
288	675	987
289	801	817
290	835	149
291	340	913
292	500	523
293	820	798
294	66	345
295	139	193
296	426	964
297	997	358
298	548	741
299	710	365
300	842	19
301	137	536
302	821	208
303	237	645
304	805	366
305	157	739
306	312	148
307	814	11
308	491	950
309	532	139
310	681	393
311	960	109
312	674	169
313	134	25
314	816	695
315	141	125
316	959	633
317	58	878
318	489	644
319	263	250
320	31	160
321	44	619
322	508	618
323	771	670
324	199	282
325	879	174
326	220	939
327	146	787
328	115	273
329	528	913
330	373	615
331	390	873
332	615	127
333	494	826
334	798	476
335	418	757
336	685	149
337	600	456
338	735	490
339	832	198
340	106	257
341	766	140
342	820	805
343	579	992
344	831	854
345	481	175
346	694	886
347	166	864
348	800	297
349	796	820
350	996	835
351	761	301
352	861	871
353	522	686
354	488	366
355	191	250
356	702	127
357	597	958
358	733	15
359	343	659
360	387	952
361	793	652
362	99	406
363	497	287
364	550	330
365	642	58
366	136	623
367	848	835
368	674	917
369	787	372
370	559	669
371	448	181
372	158	884
373	92	541
374	657	35
375	891	175
376	322	270
377	428	982
378	763	497
379	995	110
380	16	921
381	740	736
382	477	158
383	748	112
384	415	807
385	349	500
386	370	740
387	265	586
388	498	552
389	35	78
390	216	845
391	462	457
392	68	504
393	603	601
394	672	841
395	417	547
396	26	344
397	264	899
398	724	987
399	366	698
400	79	160
401	72	511
402	705	544
403	708	919
404	537	256
405	555	521
406	714	318
407	645	138
408	736	396
409	623	559
410	315	760
411	606	589
412	788	18
413	488	487
414	356	616
415	821	533
416	144	36
417	273	788
418	619	802
419	625	31
420	247	443
421	637	398
422	140	487
423	128	884
424	32	436
425	179	720
426	457	596
427	718	201
428	982	540
429	382	970
430	25	869
431	285	678
432	745	849
433	975	780
434	191	773
435	952	489
436	752	98
437	771	977
438	624	512
439	84	557
440	942	486
441	830	952
442	953	734
443	598	395
444	866	71
445	75	800
446	903	162
447	874	802
448	598	258
449	543	728
450	125	696
451	448	179
452	918	775
453	708	445
454	896	541
455	847	142
456	308	71
457	860	353
458	692	141
459	891	11
460	984	759
461	469	733
462	538	680
463	979	959
464	259	3
465	726	66
466	683	456
467	267	555
468	340	248
469	413	330
470	216	765
471	639	491
472	643	898
473	677	519
474	719	534
475	830	496
476	248	498
477	791	635
478	831	950
479	243	864
480	930	439
481	106	608
482	411	503
483	907	788
484	366	883
485	916	263
486	355	805
487	125	171
488	109	866
489	327	53
490	34	272
491	996	179
492	81	48
493	643	116
494	922	73
495	681	236
496	65	381
497	964	769
498	611	747
499	885	326
500	400	392
501	188	320
502	935	649
503	454	210
504	676	891
505	292	279
506	132	781
507	887	253
508	725	432
509	512	680
510	826	104
511	371	131
512	119	370
513	642	447
514	150	932
515	872	930
516	350	96
517	811	447
518	866	11
519	382	970
520	13	949
521	664	400
522	113	91
523	635	48
524	822	403
525	273	45
526	747	65
527	336	117
528	65	748
529	616	349
530	790	230
531	974	835
532	82	316
533	382	464
534	199	340
535	553	302
536	171	867
537	132	272
538	114	510
539	209	578
540	956	565
541	225	973
542	323	437
543	241	212
544	286	379
545	682	589
546	344	636
547	711	60
548	821	162
549	324	841
550	400	307
551	500	416
552	639	351
553	480	50
554	366	182
555	539	509
556	855	429
557	720	831
558	560	116
559	708	525
560	869	215
561	746	264
562	268	978
563	311	980
564	837	712
565	335	414
566	466	693
567	191	6
568	510	650
569	922	431
570	554	559
571	655	219
572	27	986
573	951	346
574	239	557
575	466	902
576	185	699
577	319	388
578	298	172
579	455	338
580	877	412
581	650	791
582	264	97
583	155	337
584	186	554
585	401	668
586	384	508
587	62	475
588	384	183
589	234	410
590	985	607
591	80	451
592	788	99
593	91	674
594	994	266
595	558	607
596	790	607
597	624	52
598	242	196
599	815	702
600	326	65
601	960	276
602	651	227
603	387	228
604	197	990
605	107	114
606	148	300
607	640	372
608	288	47
609	494	597
610	640	794
611	996	161
612	991	750
613	422	313
614	975	339
615	919	554
616	216	809
617	361	968
618	575	158
619	189	448
620	520	839
621	545	2
622	594	90
623	407	486
624	151	2
625	550	129
626	375	47
627	512	109
628	826	243
629	539	960
630	42	698
631	401	42
632	292	573
633	627	364
634	966	953
635	747	428
636	598	34
637	962	395
638	863	163
639	56	916
640	357	363
641	115	68
642	415	470
643	435	16
644	747	314
645	542	982
646	760	981
647	36	181
648	131	181
649	841	362
650	723	837
651	562	947
652	562	795
653	500	93
654	880	147
655	24	133
656	899	860
657	983	232
658	584	68
659	86	615
660	322	887
661	802	190
662	343	444
663	288	369
664	268	822
665	723	571
666	614	388
667	542	726
668	799	46
669	808	788
670	769	924
671	346	911
672	353	842
673	737	20
674	539	528
675	333	339
676	726	509
677	438	190
678	430	902
679	949	857
680	44	408
681	194	510
682	478	687
683	445	258
684	370	526
685	176	378
686	0	753
687	38	85
688	608	724
689	252	641
690	700	730
691	746	453
692	895	834
693	815	846
694	578	453
695	160	752
696	836	84
697	675	590
698	306	3
699	40	992
700	187	595
701	338	303
702	562	20
703	562	509
704	573	639
705	828	218
706	490	71
707	238	774
708	810	920
709	610	251
710	321	407
711	125	484
712	738	727
713	167	354
714	17	334
715	788	455
716	670	369
717	659	314
718	249	486
719	330	666
720	786	21
721	542	559
722	887	937
723	890	474
724	247	849
725	969	152
726	655	969
727	20	300
728	924	68
729	65	413
730	527	876
731	612	23
732	492	208
733	597	992
734	351	841
735	652	500
736	326	195
737	594	228
738	385	273
739	835	770
740	361	549
741	148	704
742	333	486
743	790	344
744	373	138
745	756	231
746	909	848
747	203	159
748	368	17
749	410	290
750	15	392
751	739	911
752	453	150
753	469	881
754	64	346
755	823	455
756	610	812
757	750	20
758	852	749
759	395	55
760	904	128
761	912	931
762	614	71
763	987	162
764	229	574
765	297	660
766	445	450
767	706	829
768	28	669
769	854	692
770	985	32
771	561	374
772	194	778
773	110	270
774	518	801
775	831	730
776	786	962
777	763	21
778	502	960
779	844	533
780	179	181
781	125	274
782	189	662
783	17	909
784	978	995
785	437	994
786	893	779
787	385	597
788	709	320
789	164	773
790	231	623
791	447	252
792	377	305
793	986	673
794	715	840
795	598	469
796	407	779
797	118	189
798	731	148
799	535	255
800	824	246
801	222	925
802	600	910
803	319	896
804	827	691
805	103	605
806	632	349
807	674	929
808	231	201
809	834	58
810	398	414
811	115	143
812	480	91
813	838	768
814	831	260
815	467	89
816	520	162
817	324	742
818	251	722
819	948	478
820	24	458
821	582	542
822	601	331
823	824	916
824	668	918
825	497	182
826	313	137
827	631	48
828	102	280
829	457	500
830	7	648
831	136	378
832	461	273
833	551	118
834	715	932
835	452	654
836	478	325
837	585	418
838	59	954
839	929	622
840	740	606
841	173	967
842	809	862
843	32	152
844	167	476
845	113	776
846	106	236
847	525	805
848	880	819
849	95	301
850	701	731
851	47	154
852	13	296
853	489	36
854	776	19
855	973	261
856	682	855
857	964	899
858	674	310
859	95	924
860	128	94
861	975	606
862	406	240
863	805	142
864	333	87
865	902	710
866	642	397
867	450	333
868	124	588
869	7	941
870	396	918
871	966	791
872	836	279
873	555	305
874	487	652
875	157	263
876	497	346
877	71	491
878	691	337
879	759	857
880	973	939
881	210	611
882	235	126
883	81	399
884	336	45
885	173	668
886	407	626
887	336	451
888	862	307
889	616	803
890	567	9
891	596	808
892	962	139
893	224	969
894	200	930
895	338	821
896	970	227
897	828	278
898	57	377
899	825	951
900	192	981
901	109	694
902	895	49
903	606	442
904	637	654
905	33	969
906	716	105
907	786	72
908	277	238
909	730	682
910	509	314
911	879	240
912	554	429
913	537	878
914	472	218
915	904	921
916	350	856
917	732	201
918	345	384
919	70	818
920	231	698
921	831	973
922	498	524
923	856	874
924	847	200
925	86	51
926	263	725
927	101	780
928	956	43
929	973	206
930	945	739
931	544	444
932	794	383
933	503	97
934	582	55
935	459	334
936	615	161
937	691	271
938	397	774
939	70	556
940	759	961
941	712	958
942	160	431
943	554	814
944	121	784
945	391	675
946	528	242
947	739	410
948	121	998
949	855	188
950	695	20
951	556	195
952	541	33
953	86	61
954	941	291
955	838	836
956	770	662
957	299	803
958	865	802
959	192	793
960	933	558
961	513	851
962	4	41
963	951	44
964	956	87
965	67	576
966	418	113
967	181	220
968	761	356
969	693	865
970	520	75
971	951	591
972	547	120
973	801	538
974	176	137
975	387	837
976	742	168
977	917	64
978	586	153
979	733	11
980	563	338
981	348	826
982	727	58
983	527	352
984	857	605
985	513	547
986	288	640
987	397	579
988	52	155
989	920	788
990	691	327
991	432	597
992	415	915
993	155	227
994	389	190
995	826	700
996	701	608
997	452	285
998	636	52
999	642	857
1000	676	265
1001	203	408
DEMAND_SECTION
1	0
2	9
3	1
4	4
5	3
6	4
7	3
8	5
9	4
10	2
11	9
12	9
13	7
14	4
15	1
16	3
17	4
18	9
19	2
20	3
21	8
22	6
23	5
24	1
25	2
26	4
27	6
28	4
29	4
30	2
31	1
32	7
33	7
34	4
35	1
36	1
37	4
38	2
39	9
40	1
41	5
42	6
43	1
44	8
45	4
46	2
47	7
48	8
49	5
50	8
51	4
52	7
53	2
54	2
55	2
56	1
57	1
58	8
59	3
60	2
61	8
62	4
63	1
64	6
65	8
66	9
67	6
68	5
69	5
70	8
71	5
72	7
73	3
74	9
75	3
76	5
77	1
78	7
79	1
80	3
81	6
82	1
83	2
84	8
85	6
86	7
87	5
88	2
89	9
90	9
91	5
92	2
93	9
94	1
95	9
96	6
97	3
98	6
99	2
100	7
101	3
102	1
103	7
104	3
105	2
106	8
107	8
108	8
109	7
110	4
111	3
112	8
113	9
114	2
115	2
116	1
117	3
118	5
119	3
120	6
121	1
122	6
123	3
124	6
125	6
126	5
127	9
128	2
129	7
130	4
131	4
132	6
133	4
134	8
135	5
136	6
137	2
138	3
139	5
140	1
141	9
142	2
143	5
144	9
145	7
146	4
147	7
148	5
149	8
150	2
151	1
152	5
153	9
154	3
155	6
156	7
157	6
158	3
159	5
160	2
161	5
162	7
163	2
164	2
165	3
166	8
167	4
168	3
169	9
170	5
171	6
172	4
173	9
174	8
175	7
176	8
177	5
178	7
179	1
180	3
181	7
182	8
183	1
184	4
185	2
186	4
187	7
188	6
189	5
190	1
191	7
192	7
193	4
194	8
195	4
196	6
197	3
198	4
199	4
200	3
201	8
202	1
203	5
204	8
205	5
206	8
207	3
208	5
209	9
210	1
211	5
212	8
213	4
214	3
215	3
216	3
217	9
218	4
219	7
220	9
221	1
222	6
223	1
224	7
225	6
226	2
227	6
228	8
229	1
230	6
231	6
232	3
233	3
234	1
235	6
236	2
237	2
238	4
239	4
240	5
241	8
242	3
243	5
244	9
245	7
246	7
247	4
248	7
249	8
250	8
251	4
252	8
253	3
254	9
255	2
256	7
257	6
258	8
259	6
260	8
261	9
262	9
263	9
264	3
265	7
266	2
267	4
268	9
269	5
270	4
271	4
272	6
273	1
274	7
275	2
276	7
277	2
278	6
279	1
280	8
281	3
282	8
283	2
284	1
285	2
286	7
287	8
288	7
289	3
290	7
291	8
292	7
293	6
294	1
295	3
296	4
297	1
298	6
299	1
300	3
301	6
302	5
303	8
304	7
305	1
306	3
307	7
308	9
309	2
310	7
311	6
312	8
313	3
314	2
315	4
316	7
317	3
318	4
319	7
320	3
321	8
322	3
323	2
324	6
325	5
326	1
327	3
328	1
329	1
330	2
331	9
332	6
333	6
334	5
335	5
336	1
337	7
338	8
339	1
340	8
341	8
342	7
343	1
344	7
345	1
346	6
347	3
348	6
349	5
350	7
351	6
352	7
353	4
354	1
355	6
356	4
357	8
358	2
359	4
360	7
361	4
362	6
363	6
364	3
365	1
366	8
367	4
368	9
369	1
370	1
371	3
372	2
373	2
374	1
375	8
376	3
377	7
378	2
379	4
380	5
381	1
382	6
383	5
384	4
385	2
386	9
387	1
388	9
389	6
390	1
391	1
392	2
393	3
394	9
395	5
396	4
397	2
398	7
399	2
400	2
401	2
402	8
403	1
404	4
405	5
406	3
407	2
408	6
409	7
410	7
411	3
412	5
413	3
414	7
415	8
416	2
417	4
418	9
419	3
420	7
421	3
422	4
423	6
424	7
425	3
426	3
427	7
428	1
429	8
430	3
431	8
432	4
433	2
434	3
435	7
436	4
437	9
438	4
439	3
440	4
441	5
442	1
443	9
444	1
445	2
446	9
447	6
448	9
449	5
450	1
451	9
452	5
453	9
454	4
455	4
456	1
457	9
458	4
459	6
460	4
461	1
462	2
463	6
464	8
465	7
466	3
467	2
468	1
469	5
470	5
471	8
472	6
473	6
474	5
475	7
476	4
477	1
478	6
479	7
480	4
481	4
482	7
483	6
484	4
485	3
486	4
487	3
488	6
489	9
490	7
491	9
492	9
493	2
494	6
495	2
496	2
497	4
498	7
499	8
500	4
501	9
502	3
503	7
504	5
505	5
506	3
507	1
508	8
509	1
510	1
511	3
512	9
513	7
514	4
515	2
516	2
517	6
518	4
519	5
520	1
521	2
522	4
523	7
524	6
525	7
526	7
527	1
528	7
529	8
530	5
531	1
532	1
533	5
534	8
535	4
536	4
537	3
538	9
539	5
540	7
541	9
542	9
543	9
544	9
545	4
546	7
547	2
548	3
549	6
550	5
551	5
552	7
553	7
554	8
555	2
556	1
557	7
558	4
559	1
560	1
561	3
562	7
563	6
564	4
565	5
566	9
567	4
568	8
569	1
570	1
571	9
572	5
573	4
574	2
575	4
576	1
577	9
578	9
579	1
580	9
581	6
582	9
583	7
584	1
585	8
586	4
587	5
588	9
589	7
590	2
591	9
592	1
593	3
594	9
595	6
596	8
597	5
598	1
599	9
600	5
601	3
602	8
603	7
604	3
605	8
606	6
607	2
608	9
609	7
610	4
611	2
612	6
613	2
614	1
615	7
616	2
617	7
618	8
619	7
620	9
621	2
622	7
623	2
624	5
625	6
626	5
627	2
628	5
629	6
630	4
631	4
632	8
633	7
634	8
635	5
636	2
637	1
638	3
639	7
640	5
641	7
642	6
643	1
644	5
645	4
646	7
647	9
648	5
649	6
650	4
651	8
652	9
653	6
654	7
655	8
656	9
657	2
658	5
659	8
660	7
661	6
662	5
663	1
664	5
665	4
666	2
667	7
668	4
669	2
670	9
671	1
672	9
673	3
674	3
675	9
676	8
677	6
678	1
679	2
680	4
681	9
682	8
683	7
684	8
685	1
686	3
687	8
688	9
689	5
690	6
691	1
692	3
693	3
694	9
695	6
696	5
697	2
698	4
699	7
700	7
701	6
702	8
703	8
704	6
705	7
706	8
707	2
708	8
709	4
710	3
711	2
712	2
713	2
714	4
715	7
716	6
717	9
718	9
719	9
720	5
721	4
722	5
723	9
724	1
725	8
726	9
727	4
728	4
729	9
730	3
731	5
732	2
733	2
734	6
735	7
736	2
737	9
738	2
739	5
740	7
741	2
742	6
743	7
744	6
745	2
746	2
747	3
748	3
749	9
750	8
751	1
752	1
753	5
754	3
755	5
756	7
757	3
758	3
759	9
760	2
761	7
762	2
763	6
764	9
765	7
766	6
767	1
768	3
769	5
770	1
771	8
772	4
773	5
774	8
775	7
776	9
777	1
778	9
779	8
780	3
781	7
782	3
783	8
784	6
785	6
786	9
787	3
788	9
789	9
790	3
791	4
792	4
793	1
794	3
795	8
796	8
797	4
798	2
799	4
800	7
801	2
802	6
803	6
804	6
805	1
806	1
807	9
808	5
809	3
810	3
811	4
812	8
813	3
814	9
815	3
816	4
817	3
818	2
819	8
820	7
821	1
822	1
823	8
824	5
825	2
826	9
827	5
828	7
829	8
830	8
831	3
832	1
833	1
834	1
835	3
836	9
837	1
838	9
839	7
840	6
841	6
842	9
843	7
844	7
845	5
846	5
847	3
848	6
849	4
850	3
851	3
852	5
853	3
854	6
855	2
856	6
857	2
858	4
859	1
860	5
861	9
862	9
863	1
864	9
865	6
866	3
867	2
868	2
869	7
870	9
871	1
872	1
873	8
874	4
875	3
876	9
877	6
878	3
879	4
880	1
881	7
882	2
883	4
884	1
885	7
886	9
887	9
888	2
889	2
890	1
891	9
892	5
893	8
894	9
895	5
896	3
897	5
898	4
899	7
900	4
901	6
902	4
903	2
904	1
905	1
906	6
907	5
908	7
909	9
910	2
911	9
912	9
913	5
914	8
915	6
916	1
917	1
918	6
919	4
920	2
921	9
922	6
923	1
924	4
925	4
926	9
927	2
928	8
929	3
930	3
931	5
932	9
933	5
934	8
935	5
936	8
937	7
938	8
939	6
940	8
941	4
942	1
943	3
944	1
945	2
946	3
947	3
948	8
949	1
950	4
951	1
952	8
953	4
954	7
955	2
956	6
957	7
958	3
959	2
960	5
961	2
962	8
963	8
964	2
965	1
966	2
967	4
968	3
969	8
970	7
971	2
972	9
973	6
974	4
975	1
976	2
977	5
978	2
979	7
980	9
981	8
982	6
983	5
984	7
985	8
986	8
987	7
988	5
989	1
990	5
991	3
992	3
993	3
994	6
995	8
996	4
997	6
998	2
999	4
1000	1
1001	3
TIME_WINDOW_SECTION
1	0	3000
2	449	1630
3	369	2069
4	189	1469
5	1039	1376
6	952	2684
7	1234	2221
8	1228	1788
9	1374	1935
10	741	1712
11	0	1635
12	728	1126
13	747	1983
14	1161	2059
15	765	2220
16	754	2206
17	740	2166
18	757	2363
19	657	1038
20	1254	2055
21	580	2571
22	1184	2330
23	1347	2524
24	2141	3000
25	883	2319
26	0	1382
27	0	468
28	1556	2728
29	373	2367
30	1286	1551
31	2036	2635
32	1586	2285
33	1220	1975
34	502	1741
35	667	2266
36	697	1770
37	1482	2587
38	362	2082
39	857	2262
40	349	1223
41	1101	1930
42	384	1177
43	509	899
44	1270	2372
45	742	1784
46	393	2073
47	0	1809
48	494	2449
49	784	1205
50	0	1866
51	0	760
52	1603	2827
53	1119	2980
54	214	905
55	1955	2631
56	699	2191
57	41	1749
58	0	1743
59	778	2553
60	667	1591
61	1146	2508
62	1778	2888
63	614	2066
64	465	2304
65	180	1821
66	678	2026
67	4	1311
68	131	1241
69	467	1831
70	1017	2735
71	2021	2283
72	953	1223
73	641	2335
74	980	2041
75	950	2769
76	275	774
77	1987	2408
78	325	870
79	839	2821
80	1401	1825
81	0	1257
82	278	1791
83	1706	2947
84	309	2172
85	0	1759
86	278	1426
87	910	1597
88	150	2127
89	802	2163
90	681	1440
91	725	2339
92	356	1887
93	836	1419
94	953	2416
95	1981	2831
96	1232	1777
97	0	993
98	197	1848
99	60	1801
100	1174	2461
101	739	1132
102	986	1211
103	1180	1449
104	1643	2155
105	611	955
106	830	1653
107	1010	2474
108	1115	2959
109	309	1519
110	483	832
111	293	1270
112	1270	3000
113	1295	2104
114	1135	2041
115	322	738
116	1988	2427
117	825	1528
118	0	1080
119	1643	3000
120	1395	2146
121	1263	2182
122	609	1012
123	649	2472
124	331	695
125	1062	1341
126	1018	2636
127	1104	2709
128	1584	2694
129	887	2873
130	963	2947
131	56	1670
132	747	1341
133	0	1919
134	520	1621
135	714	1368
136	180	2173
137	726	2454
138	1937	2708
139	377	1130
140	918	2525
141	370	1425
142	0	1607
143	2335	2565
144	1025	1652
145	352	1074
146	1211	3000
147	1451	1675
148	192	784
149	321	1407
150	803	1479
151	652	1528
152	198	981
153	1009	1490
154	1094	1318
155	1340	3000
156	1147	2003
157	0	1787
158	207	1634
159	1063	2932
160	1263	2344
161	1129	2325
162	786	1938
163	1659	2290
164	1763	2432
165	951	2205
166	1319	1930
167	1221	1673
168	1185	2932
169	652	1506
170	955	2676
171	693	1033
172	0	1715
173	1463	1995
174	1870	3000
175	0	1465
176	1436	2622
177	1883	2395
178	1656	2851
179	355	1346
180	54	1135
181	1547	2484
182	236	1480
183	538	2312
184	0	935
185	0	970
186	1436	2476
187	1516	2534
188	636	1507
189	1274	2640
190	1389	2635
191	1276	1867
192	119	608
193	1111	2790
194	1473	1708
195	356	1481
196	555	1881
197	1815	2696
198	319	1394
199	1790	2324
200	748	1667
201	102	1675
202	1084	3000
203	1632	2496
204	1585	2301
205	851	1287
206	434	2361
207	974	1181
208	943	1276
209	1225	3000
210	0	1726
211	1391	2263
212	548	1441
213	658	1531
214	1061	1329
215	1806	2055
216	858	1811
217	1226	3000
218	713	2189
219	74	1667
220	1388	1759
221	2069	2358
222	397	2233
223	533	1191
224	513	1922
225	1741	2034
226	553	2297
227	331	886
228	361	1813
229	1659	2343
230	1022	2760
231	918	1986
232	1409	2167
233	28	1241
234	758	1394
235	1607	3000
236	959	1788
237	0	1276
238	193	2072
239	883	2660
240	944	1691
241	206	2097
242	293	1238
243	0	1326
244	1251	2180
245	0	1097
246	35	2020
247	1145	3000
248	262	1437
249	1353	3000
250	564	2375
251	1649	1987
252	1496	2735
253	1446	1930
254	1650	2112
255	1091	2006
256	937	1562
257	98	2070
258	743	2219
259	1246	2365
260	0	1191
261	854	2091
262	279	1728
263	1064	2093
264	342	1022
265	861	2497
266	920	1585
267	1559	2368
268	1164	1886
269	0	1778
270	551	2315
271	0	1011
272	516	2405
273	1600	2722
274	85	2029
275	895	2381
276	1515	3000
277	1227	2635
278	997	2153
279	1158	2152
280	1252	2740
281	940	1208
282	977	1799
283	886	1902
284	512	827
285	0	1381
286	0	943
287	1457	2799
288	1516	2461
289	360	2070
290	331	1375
291	558	1892
292	173	849
293	1483	2184
294	1036	2933
295	325	2230
296	1344	2025
297	0	1239
298	1212	1834
299	1997	2580
300	1312	2684
301	0	1469
302	1485	2109
303	1792	2401
304	1048	2574
305	407	2249
306	288	775
307	1180	2529
308	1426	1796
309	0	1123
310	341	1271
311	1973	2837
312	2080	3000
313	554	2274
314	0	1681
315	271	1604
316	703	2698
317	1463	2003
318	628	1981
319	1607	3000
320	540	1524
321	626	2419
322	937	1688
323	816	2298
324	571	2248
325	1090	2683
326	813	2262
327	1085	2030
328	0	1356
329	181	1998
330	431	2300
331	1443	2666
332	211	2058
333	1899	2265
334	979	1945
335	87	1762
336	0	704
337	816	2502
338	397	1335
339	1615	2729
340	775	2619
341	923	1347
342	887	1827
343	987	1428
344	108	1399
345	92	865
346	0	1831
347	936	1222
348	357	1652
349	1020	2231
350	1012	2458
351	1809	3000
352	0	1770
353	264	830
354	36	770
355	1936	2241
356	860	1215
357	1199	2390
358	703	1725
359	367	1452
360	407	1812
361	1419	2441
362	770	2146
363	1677	3000
364	661	1080
365	0	1223
366	1762	2453
367	1812	2078
368	1367	2778
369	298	2189
370	1774	2353
371	1457	3000
372	0	1774
373	502	2144
374	1453	3000
375	1676	2656
376	213	1426
377	1367	2060
378	1271	3000
379	155	769
380	993	2519
381	967	1763
382	779	1541
383	1189	1581
384	74	1800
385	1279	3000
386	1090	1443
387	214	2011
388	957	1421
389	374	1356
390	1197	1497
391	219	1135
392	396	2170
393	347	1967
394	481	1485
395	0	1534
396	1453	1774
397	866	1419
398	1674	1880
399	865	1203
400	1623	2577
401	780	1184
402	1150	2139
403	1018	2700
404	0	1014
405	0	1546
406	799	1415
407	1612	2851
408	2295	2754
409	131	1237
410	808	2536
411	546	1624
412	807	2712
413	733	2500
414	873	2576
415	1671	2631
416	1326	1959
417	643	1303
418	743	2182
419	468	2227
420	466	1769
421	650	1455
422	1669	2263
423	783	2399
424	1139	2240
425	383	2153
426	1239	1877
427	150	482
428	508	754
429	842	1631
430	449	1480
431	624	988
432	787	1981
433	1180	1926
434	1464	2406
435	900	1559
436	898	1883
437	707	956
438	1046	2541
439	561	1428
440	301	1624
441	661	2205
442	1255	1503
443	1116	2237
444	64	1118
445	1447	2037
446	596	1392
447	1004	2229
448	10	598
449	459	1692
450	704	1488
451	972	2030
452	1460	1983
453	997	2572
454	858	1828
455	573	1833
456	0	1711
457	1260	2868
458	738	1966
459	0	1192
460	898	2897
461	177	1269
462	567	2406
463	355	1696
464	993	2252
465	1107	3000
466	1559	3000
467	1478	2876
468	0	1387
469	783	2748
470	846	2401
471	406	1889
472	318	1811
473	1881	2580
474	86	815
475	0	952
476	580	1964
477	0	1503
478	1194	1754
479	400	1756
480	1620	2569
481	216	1848
482	1081	1836
483	834	2627
484	849	1939
485	313	1983
486	1476	2477
487	457	1413
488	952	2245
489	905	1430
490	0	1729
491	927	1754
492	1185	1804
493	404	1089
494	408	2179
495	0	1485
496	1758	2204
497	664	2352
498	480	2163
499	886	1625
500	1701	3000
501	1099	1912
502	1569	1888
503	1355	2309
504	0	1794
505	1941	2500
506	279	2210
507	0	561
508	1914	2579
509	566	1794
510	1755	2010
511	860	1331
512	424	1829
513	1293	2069
514	659	2302
515	335	1871
516	1188	2279
517	0	1790
518	2195	2792
519	838	1383
520	495	1476
521	1967	3000
522	849	2029
523	2099	2317
524	513	921
525	1344	2363
526	0	1141
527	0	1197
528	1376	2316
529	1716	3000
530	752	2679
531	1399	2717
532	1271	2208
533	872	1863
534	768	977
535	636	2124
536	642	1728
537	453	1293
538	1727	2416
539	632	1766
540	23	1657
541	1326	2090
542	785	1138
543	467	2283
544	438	662
545	54	896
546	1288	2582
547	1636	2967
548	1178	3000
549	1455	1917
550	1544	2033
551	0	1262
552	0	1242
553	1994	2813
554	2149	2426
555	1994	2957
556	279	626
557	916	1643
558	670	2612
559	798	2733
560	1418	2596
561	753	1440
562	1459	2340
563	1070	2328
564	1345	2888
565	1518	2433
566	1186	2160
567	1286	2174
568	1056	1673
569	1273	2103
570	1572	2421
571	1578	2216
572	229	2227
573	1027	2702
574	1365	1868
575	1099	2100
576	821	1112
577	751	1638
578	45	1714
579	518	1839
580	1581	2555
581	1293	2977
582	1605	2247
583	414	1749
584	95	1757
585	1830	2572
586	1060	2544
587	1255	1474
588	1698	2803
589	865	1232
590	1052	1297
591	1420	1872
592	0	1225
593	639	1342
594	1961	2375
595	858	1504
596	164	793
597	1998	2881
598	1965	2391
599	1533	2892
600	939	2592
601	1955	2220
602	2174	2826
603	150	1287
604	1161	1531
605	429	1105
606	800	2627
607	0	1289
608	798	2506
609	1340	1757
610	0	1450
611	787	2022
612	1811	2319
613	1555	3000
614	564	2175
615	1481	2608
616	1786	2311
617	1189	2012
618	1032	2241
619	201	1618
620	312	1445
621	688	1579
622	0	665
623	14	1409
624	1345	2879
625	1452	3000
626	1709	2218
627	1416	2106
628	1507	2811
629	1584	2168
630	1325	1646
631	0	1408
632	1317	1621
633	823	1174
634	1451	1998
635	500	1767
636	0	446
637	0	1271
638	2117	2666
639	587	2043
640	756	2086
641	394	1159
642	1734	3000
643	1254	1656
644	1325	2412
645	983	2115
646	819	1596
647	323	1753
648	123	1479
649	907	1460
650	114	2064
651	344	2037
652	471	1200
653	322	1337
654	1055	2555
655	1260	2263
656	395	1350
657	1490	3000
658	1797	2620
659	313	1749
660	1499	2155
661	0	1278
662	821	2733
663	1118	2165
664	492	1703
665	1423	2019
666	128	1457
667	614	1586
668	1897	3000
669	488	1590
670	1685	2462
671	775	1067
672	892	2741
673	2025	2946
674	70	1383
675	663	1469
676	1071	1575
677	785	1720
678	381	1614
679	508	1805
680	1000	1913
681	655	951
682	1892	2696
683	1358	3000
684	1334	2817
685	521	1538
686	861	1863
687	1451	2497
688	265	1987
689	1657	2484
690	718	1780
691	1194	3000
692	251	1588
693	1197	2470
694	739	1252
695	326	1840
696	2183	2484
697	979	2570
698	313	1788
699	752	2247
700	1425	1708
701	1493	2091
702	460	1026
703	734	2504
704	683	2105
705	33	816
706	530	1218
707	1172	1950
708	923	2143
709	1327	1815
710	743	1313
711	1415	2496
712	1072	1921
713	874	2823
714	955	2728
715	0	1168
716	36	1244
717	0	1633
718	1267	2338
719	1606	2661
720	1215	1915
721	118	786
722	689	2417
723	41	1070
724	1397	2579
725	871	1150
726	666	1068
727	1367	2638
728	591	1191
729	986	1244
730	1016	2547
731	840	2359
732	0	1272
733	882	2190
734	1266	2730
735	746	1310
736	2015	2608
737	344	1270
738	1403	2286
739	1080	3000
740	1625	1864
741	74	1491
742	1012	2956
743	1122	1715
744	482	1295
745	2463	2845
746	1522	2326
747	591	1952
748	894	1680
749	1525	2076
750	951	1636
751	1823	2387
752	1440	2586
753	0	1569
754	1032	1698
755	1550	1777
756	0	1861
757	1298	2315
758	1925	2136
759	1296	3000
760	483	1022
761	581	2200
762	1272	1554
763	312	1191
764	892	1272
765	1562	2689
766	1209	1801
767	935	2033
768	889	2347
769	1250	2551
770	114	1125
771	251	1854
772	1236	2323
773	1134	1441
774	701	1587
775	1569	2382
776	289	2138
777	1492	2140
778	466	2382
779	91	987
780	888	1865
781	872	1688
782	182	1348
783	909	2213
784	1225	2447
785	996	1967
786	0	1645
787	571	774
788	622	877
789	402	1755
790	980	2205
791	0	1559
792	1062	2126
793	417	1408
794	354	1854
795	1197	1827
796	1260	2757
797	1781	2482
798	6	637
799	1323	3000
800	1518	2665
801	632	1282
802	600	2318
803	894	2559
804	0	1649
805	1117	1908
806	1871	2934
807	424	1466
808	919	2752
809	1211	2477
810	1138	2017
811	494	1321
812	415	782
813	1127	2594
814	1137	2394
815	952	1827
816	0	1028
817	285	2216
818	976	2206
819	84	1966
820	1112	1998
821	0	1452
822	243	1778
823	1196	1929
824	1607	2240
825	267	1773
826	220	1105
827	1411	3000
828	719	2613
829	0	1530
830	1294	2063
831	1227	2792
832	1796	3000
833	1594	2847
834	726	1582
835	1436	2422
836	1787	3000
837	0	848
838	1121	2361
839	1142	2201
840	1131	3000
841	1149	2198
842	927	2638
843	316	2151
844	1334	2334
845	990	2371
846	1875	2306
847	1392	2336
848	67	1901
849	939	1323
850	175	1288
851	1282	3000
852	328	1119
853	1641	2399
854	0	1283
855	1307	2002
856	185	1574
857	490	2393
858	1785	2295
859	805	2448
860	1673	2039
861	1718	2174
862	2346	2708
863	549	1981
864	0	1418
865	92	2056
866	1463	1936
867	0	1437
868	1640	2439
869	574	2315
870	899	1609
871	1545	1844
872	61	1837
873	635	2090
874	1207	2220
875	1254	2869
876	224	659
877	1743	1974
878	66	1989
879	861	1676
880	888	2703
881	1487	2241
882	177	2049
883	1553	1955
884	597	2188
885	129	1624
886	381	1977
887	935	2444
888	876	1522
889	91	1274
890	1923	2745
891	821	1815
892	1595	3000
893	699	2570
894	942	2639
895	1370	1885
896	533	1179
897	2271	2677
898	462	2129
899	340	1181
900	544	2103
901	1355	1955
902	1703	2563
903	1944	2449
904	102	1049
905	937	1240
906	0	1602
907	439	851
908	1093	1712
909	1269	3000
910	781	1118
911	245	1440
912	1573	2210
913	635	1749
914	405	1692
915	1273	1555
916	1227	1903
917	364	1962
918	1132	2946
919	974	2195
920	1705	2346
921	1723	2290
922	1495	2816
923	579	2221
924	1704	3000
925	967	1948
926	306	1439
927	853	2660
928	2155	2761
929	924	2268
930	361	2103
931	211	1596
932	28	1260
933	1326	2971
934	1816	2804
935	1429	2282
936	1584	2177
937	360	1160
938	981	1858
939	78	1827
940	1376	2547
941	1023	2490
942	864	1563
943	1064	2579
944	413	1626
945	1366	2441
946	0	930
947	895	1607
948	928	1448
949	201	486
950	0	1386
951	2081	2566
952	0	1734
953	0	1364
954	844	2304
955	626	2550
956	1086	2934
957	1139	2287
958	0	1731
959	968	2857
960	0	1136
961	1538	2424
962	1178	2039
963	239	1316
964	1331	2620
965	1159	2938
966	386	1310
967	1259	2451
968	0	1401
969	120	2068
970	866	2538
971	563	2318
972	261	580
973	0	1266
974	456	1959
975	228	1135
976	1064	2216
977	1259	3000
978	750	1771
979	1545	2066
980	1163	2319
981	873	1479
982	1551	2677
983	1570	3000
984	1623	2944
985	1536	3000
986	48	1967
987	1284	2305
988	775	2054
989	302	1961
990	160	969
991	1474	2978
992	1075	2338
993	283	1267
994	1027	1590
995	0	1776
996	1814	2805
997	582	2480
998	90	2044
999	712	2578
1000	1297	1760
1001	1285	2401
DEPOT_SECTION
1
-1
EOF
