NAME : n1001-0026
COMMENT : "Generated by pyvrp_manuel (OVRPTW)"
TYPE : OVRPTW
DIMENSION : 1001
EDGE_WEIGHT_TYPE : EUC_2D
CAPACITY : 150
VEHICLES : 1000
OPEN_ROUTE : YES
SERVICE_TIME : 200
NODE_COORD_SECTION
1	332	290
2	844	467
3	902	953
4	189	915
5	815	463
6	698	818
7	878	514
8	978	325
9	963	998
10	389	642
11	352	872
12	448	467
13	894	669
14	229	959
15	577	953
16	221	750
17	978	532
18	886	241
19	124	758
20	488	242
21	89	201
22	660	970
23	554	226
24	492	150
25	863	151
26	978	768
27	930	611
28	506	413
29	584	258
30	347	288
31	467	977
32	586	20
33	182	192
34	100	896
35	807	193
36	898	739
37	345	305
38	908	587
39	853	588
40	240	112
41	767	834
42	929	872
43	942	103
44	935	789
45	974	688
46	915	779
47	712	369
48	117	969
49	430	863
50	452	418
51	952	784
52	54	559
53	472	545
54	458	902
55	883	127
56	316	404
57	618	668
58	249	631
59	867	528
60	748	958
61	351	45
62	590	230
63	94	298
64	650	188
65	632	564
66	51	455
67	693	807
68	476	531
69	220	257
70	341	101
71	190	182
72	799	414
73	696	316
74	480	493
75	748	177
76	849	959
77	632	512
78	393	651
79	295	617
80	690	474
81	872	311
82	415	697
83	97	330
84	86	791
85	394	532
86	447	867
87	90	111
88	274	891
89	247	4
90	316	691
91	873	783
92	543	460
93	332	398
94	874	683
95	2	858
96	699	990
97	815	974
98	799	385
99	57	929
100	65	459
101	826	389
102	609	236
103	626	173
104	912	747
105	719	845
106	203	184
107	679	993
108	427	899
109	736	429
110	91	4
111	332	769
112	255	408
113	281	574
114	517	490
115	550	894
116	791	370
117	190	17
118	794	263
119	471	962
120	655	350
121	519	364
122	839	213
123	597	472
124	139	975
125	830	223
126	991	199
127	447	53
128	308	63
129	184	983
130	389	691
131	857	190
132	569	194
133	702	816
134	929	509
135	665	971
136	540	981
137	690	841
138	41	818
139	136	150
140	913	351
141	668	745
142	478	744
143	136	983
144	636	696
145	443	167
146	912	99
147	561	127
148	406	242
149	358	619
150	571	368
151	385	621
152	930	425
153	889	347
154	793	824
155	810	324
156	790	714
157	614	916
158	684	230
159	441	126
160	281	866
161	381	645
162	662	736
163	49	568
164	125	736
165	738	253
166	883	525
167	754	236
168	166	26
169	278	892
170	648	968
171	816	152
172	9	314
173	575	894
174	759	583
175	562	36
176	798	582
177	896	309
178	381	107
179	642	261
180	229	282
181	388	562
182	849	934
183	241	893
184	495	351
185	311	981
186	277	348
187	321	209
188	408	902
189	840	578
190	23	524
191	28	324
192	136	934
193	938	348
194	934	480
195	306	681
196	19	924
197	718	3
198	794	309
199	761	223
200	920	546
201	982	577
202	316	809
203	679	773
204	236	644
205	164	395
206	228	331
207	285	361
208	913	478
209	916	582
210	814	166
211	227	91
212	20	294
213	459	117
214	910	447
215	729	417
216	131	839
217	784	973
218	404	972
219	261	387
220	827	352
221	279	844
222	709	141
223	46	986
224	567	886
225	573	993
226	387	437
227	423	140
228	169	17
229	147	506
230	33	342
231	668	999
232	380	559
233	615	29
234	993	506
235	633	184
236	943	404
237	182	258
238	169	73
239	779	197
240	835	774
241	95	520
242	42	286
243	547	210
244	996	998
245	52	575
246	963	749
247	681	175
248	706	691
249	647	900
250	754	598
251	980	571
252	903	24
253	427	485
254	221	946
255	86	98
256	136	517
257	503	994
258	401	398
259	875	956
260	563	537
261	111	421
262	241	825
263	834	214
264	730	515
265	901	358
266	798	615
267	24	26
268	669	1000
269	359	725
270	173	750
271	176	970
272	286	194
273	509	567
274	860	354
275	695	899
276	445	506
277	439	942
278	39	842
279	444	34
280	430	86
281	920	489
282	1000	450
283	166	169
284	823	328
285	265	368
286	854	519
287	918	726
288	930	655
289	885	311
290	172	649
291	29	800
292	852	638
293	685	315
294	559	445
295	176	258
296	240	301
297	96	416
298	314	481
299	829	879
300	360	445
301	550	548
302	109	852
303	671	18
304	14	529
305	41	31
306	70	742
307	248	619
308	787	721
309	299	876
310	951	274
311	257	52
312	938	316
313	754	678
314	489	941
315	415	862
316	654	25
317	899	863
318	487	772
319	534	88
320	909	873
321	346	901
322	234	583
323	442	764
324	241	311
325	879	379
326	139	99
327	309	21
328	264	401
329	91	225
330	793	375
331	562	139
332	151	566
333	913	143
334	421	547
335	408	195
336	995	967
337	388	295
338	716	92
339	277	994
340	671	579
341	234	518
342	562	239
343	984	796
344	560	205
345	771	578
346	504	709
347	81	496
348	125	333
349	529	849
350	914	117
351	470	938
352	991	46
353	487	306
354	17	651
355	120	868
356	88	831
357	133	82
358	156	680
359	559	953
360	448	91
361	17	655
362	469	319
363	768	184
364	512	382
365	689	935
366	208	825
367	870	270
368	802	764
369	381	995
370	279	523
371	166	551
372	466	133
373	975	287
374	100	815
375	647	419
376	279	10
377	669	942
378	302	180
379	439	777
380	388	567
381	912	959
382	670	302
383	459	348
384	917	934
385	134	34
386	906	291
387	171	602
388	609	192
389	87	798
390	920	991
391	826	982
392	198	470
393	956	977
394	106	180
395	542	802
396	418	544
397	735	532
398	54	70
399	711	93
400	41	673
401	915	619
402	902	422
403	850	512
404	660	492
405	182	415
406	690	413
407	933	182
408	395	619
409	679	0
410	430	198
411	326	563
412	815	190
413	735	714
414	789	953
415	865	152
416	927	970
417	305	470
418	575	295
419	804	406
420	849	185
421	553	347
422	261	783
423	495	589
424	660	925
425	506	394
426	438	288
427	874	982
428	56	571
429	16	679
430	419	666
431	842	870
432	10	224
433	69	558
434	477	960
435	862	180
436	66	69
437	906	277
438	301	139
439	539	559
440	871	572
441	832	742
442	331	590
443	724	595
444	513	755
445	192	583
446	708	406
447	176	989
448	254	935
449	541	928
450	51	493
451	897	104
452	240	766
453	668	104
454	554	795
455	190	671
456	755	74
457	262	150
458	34	273
459	80	465
460	197	537
461	387	830
462	541	485
463	769	987
464	874	715
465	541	158
466	282	46
467	623	564
468	371	160
469	672	879
470	267	36
471	574	480
472	947	666
473	316	673
474	355	736
475	403	764
476	313	487
477	397	708
478	539	910
479	312	60
480	335	686
481	32	0
482	405	681
483	760	905
484	359	675
485	106	508
486	361	99
487	496	543
488	80	586
489	987	108
490	212	646
491	448	934
492	154	739
493	986	886
494	692	656
495	646	957
496	578	815
497	374	178
498	967	819
499	753	763
500	178	44
501	634	58
502	488	944
503	761	99
504	960	424
505	228	415
506	322	79
507	398	228
508	986	948
509	264	823
510	238	263
511	617	542
512	820	407
513	82	815
514	294	935
515	620	287
516	240	95
517	54	960
518	527	597
519	447	317
520	922	635
521	46	808
522	960	603
523	943	259
524	747	399
525	161	882
526	883	298
527	274	133
528	283	988
529	884	753
530	831	647
531	302	612
532	352	831
533	739	425
534	915	141
535	301	953
536	861	943
537	197	134
538	291	995
539	297	681
540	833	0
541	538	638
542	80	61
543	934	306
544	270	170
545	395	820
546	571	843
547	289	211
548	540	765
549	932	535
550	966	227
551	515	458
552	407	250
553	424	215
554	67	713
555	291	575
556	666	3
557	393	169
558	173	362
559	691	604
560	707	526
561	399	258
562	752	250
563	139	777
564	942	336
565	771	392
566	178	198
567	191	983
568	164	849
569	686	323
570	781	576
571	948	791
572	934	912
573	627	97
574	621	518
575	410	855
576	924	40
577	2	749
578	96	130
579	146	95
580	468	547
581	279	276
582	651	832
583	424	189
584	574	216
585	414	691
586	608	354
587	808	805
588	656	872
589	95	159
590	954	763
591	959	636
592	390	67
593	27	303
594	24	391
595	988	60
596	622	689
597	688	47
598	558	125
599	617	761
600	555	276
601	801	706
602	41	914
603	255	639
604	859	961
605	102	806
606	374	613
607	419	147
608	870	728
609	919	412
610	355	616
611	31	824
612	366	947
613	771	6
614	391	668
615	199	10
616	431	50
617	46	690
618	646	582
619	120	558
620	413	504
621	720	397
622	304	374
623	928	646
624	652	751
625	689	562
626	679	848
627	451	527
628	764	391
629	140	756
630	226	397
631	128	628
632	742	352
633	461	790
634	568	833
635	722	289
636	745	750
637	213	14
638	777	754
639	656	283
640	582	630
641	560	725
642	391	728
643	69	297
644	994	968
645	117	751
646	954	372
647	116	895
648	281	206
649	240	327
650	917	49
651	448	495
652	56	736
653	1	341
654	584	635
655	934	307
656	122	750
657	717	898
658	112	212
659	868	502
660	749	726
661	955	508
662	954	333
663	318	232
664	881	486
665	832	826
666	288	724
667	310	271
668	267	45
669	798	724
670	801	973
671	405	341
672	973	878
673	833	463
674	338	504
675	807	904
676	658	908
677	476	310
678	478	117
679	73	6
680	896	574
681	807	110
682	167	53
683	540	238
684	950	466
685	580	5
686	179	716
687	104	988
688	37	539
689	321	381
690	144	595
691	421	337
692	19	916
693	940	81
694	466	634
695	548	157
696	624	635
697	174	239
698	523	15
699	717	989
700	21	386
701	232	454
702	7	570
703	349	100
704	358	962
705	547	941
706	12	291
707	854	926
708	747	716
709	985	257
710	181	628
711	692	264
712	463	689
713	127	789
714	470	408
715	314	37
716	581	721
717	300	815
718	477	126
719	528	507
720	198	829
721	439	231
722	371	356
723	803	812
724	910	390
725	487	595
726	615	712
727	64	363
728	154	378
729	867	991
730	406	184
731	595	999
732	514	513
733	449	351
734	903	214
735	78	930
736	760	658
737	706	269
738	662	75
739	379	625
740	378	279
741	456	377
742	842	809
743	264	692
744	973	989
745	289	776
746	20	962
747	467	88
748	473	39
749	465	917
750	601	706
751	292	614
752	748	135
753	392	956
754	531	727
755	958	697
756	54	396
757	994	438
758	802	146
759	660	884
760	129	239
761	54	993
762	456	490
763	838	713
764	324	688
765	678	694
766	171	306
767	583	606
768	466	268
769	258	941
770	696	303
771	53	89
772	161	6
773	627	562
774	28	402
775	720	539
776	994	118
777	517	242
778	838	482
779	263	585
780	745	253
781	800	349
782	175	965
783	337	302
784	694	776
785	380	893
786	472	436
787	451	685
788	528	212
789	651	332
790	432	379
791	694	521
792	730	22
793	457	210
794	750	226
795	801	649
796	321	570
797	80	409
798	907	410
799	789	216
800	855	963
801	506	331
802	838	371
803	310	974
804	674	819
805	686	164
806	332	533
807	117	776
808	876	520
809	860	397
810	351	26
811	460	294
812	451	747
813	855	200
814	568	917
815	879	309
816	243	987
817	518	604
818	505	149
819	750	434
820	502	323
821	470	543
822	54	325
823	140	977
824	306	785
825	484	242
826	54	556
827	178	179
828	403	408
829	128	270
830	577	69
831	817	407
832	967	562
833	31	739
834	73	723
835	629	888
836	900	133
837	598	824
838	693	547
839	436	252
840	280	267
841	908	947
842	58	444
843	396	165
844	304	161
845	217	98
846	284	191
847	90	319
848	658	593
849	873	238
850	726	413
851	944	855
852	156	38
853	552	229
854	193	330
855	914	221
856	199	742
857	31	672
858	79	113
859	498	783
860	999	673
861	459	111
862	825	86
863	930	231
864	372	599
865	334	543
866	620	189
867	127	507
868	135	545
869	427	504
870	322	850
871	915	969
872	86	91
873	280	349
874	182	219
875	714	753
876	503	736
877	235	712
878	851	659
879	371	724
880	405	16
881	51	392
882	326	388
883	588	670
884	835	701
885	379	46
886	840	764
887	637	882
888	20	48
889	939	380
890	228	489
891	817	486
892	293	235
893	498	486
894	380	769
895	143	36
896	983	629
897	697	328
898	660	859
899	538	603
900	47	289
901	826	202
902	531	942
903	703	153
904	163	696
905	464	978
906	372	56
907	327	432
908	641	301
909	837	572
910	188	483
911	595	762
912	858	558
913	976	916
914	307	688
915	384	267
916	301	795
917	895	827
918	867	956
919	406	540
920	520	367
921	59	471
922	266	337
923	404	249
924	66	562
925	84	610
926	847	849
927	779	73
928	187	81
929	648	966
930	767	603
931	128	408
932	635	54
933	924	669
934	240	694
935	775	917
936	365	446
937	397	283
938	692	214
939	196	68
940	896	467
941	72	623
942	902	781
943	680	348
944	430	850
945	359	827
946	862	152
947	197	2
948	597	652
949	381	532
950	39	94
951	150	148
952	282	934
953	213	187
954	673	849
955	958	826
956	162	259
957	108	262
958	794	769
959	127	554
960	483	812
961	42	587
962	30	935
963	384	711
964	391	23
965	812	327
966	943	546
967	98	224
968	805	168
969	688	254
970	550	800
971	640	605
972	190	478
973	818	122
974	217	445
975	372	274
976	536	905
977	650	847
978	852	255
979	979	516
980	524	446
981	194	46
982	635	311
983	726	646
984	985	413
985	778	306
986	537	815
987	389	103
988	861	973
989	381	820
990	222	24
991	580	355
992	135	325
993	65	440
994	655	844
995	844	339
996	825	711
997	740	942
998	308	532
999	706	455
1000	95	954
1001	75	305
DEMAND_SECTION
1	0
2	9
3	1
4	4
5	9
6	7
7	8
8	6
9	7
10	1
11	3
12	9
13	1
14	1
15	4
16	7
17	7
18	8
19	3
20	7
21	1
22	6
23	5
24	3
25	1
26	8
27	6
28	9
29	3
30	4
31	4
32	7
33	9
34	9
35	8
36	9
37	3
38	3
39	9
40	2
41	4
42	5
43	7
44	2
45	6
46	1
47	8
48	1
49	6
50	5
51	1
52	5
53	3
54	5
55	7
56	6
57	3
58	5
59	1
60	8
61	8
62	9
63	5
64	2
65	3
66	1
67	6
68	5
69	8
70	7
71	7
72	4
73	4
74	5
75	3
76	1
77	6
78	8
79	8
80	5
81	2
82	5
83	4
84	6
85	1
86	9
87	8
88	6
89	7
90	4
91	1
92	2
93	8
94	7
95	9
96	1
97	1
98	8
99	9
100	7
101	3
102	3
103	4
104	7
105	3
106	2
107	8
108	9
109	2
110	6
111	6
112	6
113	5
114	2
115	6
116	8
117	3
118	5
119	3
120	7
121	9
122	5
123	9
124	6
125	5
126	5
127	3
128	5
129	2
130	7
131	5
132	2
133	4
134	9
135	9
136	2
137	9
138	5
139	2
140	9
141	7
142	5
143	9
144	8
145	7
146	5
147	5
148	4
149	4
150	5
151	3
152	8
153	2
154	2
155	6
156	6
157	5
158	5
159	4
160	5
161	7
162	3
163	6
164	1
165	9
166	8
167	8
168	8
169	6
170	9
171	4
172	8
173	9
174	8
175	1
176	8
177	9
178	7
179	2
180	8
181	4
182	8
183	2
184	4
185	6
186	9
187	2
188	6
189	2
190	4
191	6
192	5
193	6
194	1
195	9
196	5
197	9
198	4
199	3
200	7
201	4
202	4
203	1
204	2
205	9
206	2
207	7
208	3
209	2
210	8
211	7
212	5
213	5
214	6
215	3
216	9
217	6
218	5
219	4
220	1
221	8
222	4
223	6
224	5
225	1
226	8
227	5
228	1
229	4
230	5
231	1
232	4
233	4
234	4
235	2
236	1
237	8
238	4
239	2
240	1
241	3
242	7
243	1
244	8
245	6
246	5
247	6
248	6
249	2
250	6
251	1
252	4
253	1
254	9
255	8
256	5
257	7
258	9
259	3
260	7
261	3
262	1
263	6
264	3
265	3
266	5
267	7
268	9
269	1
270	9
271	8
272	1
273	8
274	3
275	6
276	8
277	6
278	7
279	7
280	8
281	5
282	5
283	1
284	8
285	2
286	8
287	8
288	2
289	6
290	5
291	8
292	6
293	8
294	6
295	7
296	8
297	1
298	9
299	9
300	3
301	4
302	5
303	3
304	1
305	8
306	4
307	3
308	4
309	6
310	8
311	2
312	3
313	7
314	5
315	4
316	8
317	5
318	3
319	1
320	5
321	3
322	9
323	3
324	4
325	3
326	4
327	7
328	8
329	2
330	4
331	1
332	3
333	7
334	2
335	4
336	6
337	7
338	1
339	6
340	4
341	5
342	5
343	7
344	7
345	8
346	4
347	1
348	7
349	6
350	5
351	1
352	5
353	2
354	4
355	9
356	1
357	7
358	2
359	4
360	2
361	4
362	2
363	9
364	1
365	9
366	8
367	2
368	7
369	5
370	3
371	2
372	1
373	6
374	7
375	4
376	3
377	8
378	8
379	1
380	8
381	7
382	6
383	2
384	3
385	4
386	5
387	8
388	6
389	2
390	5
391	2
392	1
393	6
394	5
395	2
396	5
397	4
398	5
399	6
400	8
401	5
402	3
403	5
404	6
405	8
406	9
407	3
408	6
409	8
410	8
411	4
412	1
413	7
414	3
415	5
416	4
417	2
418	7
419	4
420	6
421	1
422	3
423	7
424	8
425	5
426	5
427	1
428	4
429	1
430	5
431	6
432	3
433	8
434	3
435	1
436	4
437	8
438	9
439	6
440	3
441	1
442	8
443	4
444	6
445	8
446	4
447	7
448	5
449	5
450	5
451	8
452	3
453	5
454	5
455	4
456	4
457	3
458	4
459	8
460	3
461	2
462	1
463	9
464	2
465	7
466	4
467	7
468	3
469	8
470	2
471	3
472	6
473	6
474	5
475	4
476	7
477	3
478	5
479	5
480	5
481	9
482	4
483	4
484	7
485	2
486	5
487	3
488	4
489	7
490	4
491	5
492	2
493	2
494	1
495	9
496	4
497	9
498	7
499	5
500	2
501	7
502	8
503	7
504	7
505	1
506	5
507	5
508	6
509	5
510	3
511	1
512	8
513	4
514	8
515	9
516	8
517	1
518	9
519	7
520	8
521	1
522	4
523	2
524	8
525	1
526	6
527	6
528	5
529	8
530	3
531	3
532	9
533	2
534	7
535	2
536	9
537	9
538	9
539	2
540	6
541	1
542	8
543	5
544	2
545	3
546	3
547	7
548	8
549	8
550	9
551	4
552	8
553	7
554	5
555	8
556	2
557	8
558	6
559	3
560	5
561	7
562	3
563	3
564	2
565	7
566	5
567	7
568	6
569	9
570	4
571	8
572	5
573	8
574	4
575	7
576	1
577	1
578	6
579	2
580	6
581	6
582	7
583	9
584	8
585	7
586	8
587	2
588	3
589	9
590	4
591	9
592	7
593	2
594	6
595	7
596	3
597	9
598	4
599	6
600	7
601	8
602	2
603	6
604	8
605	1
606	8
607	6
608	1
609	1
610	5
611	5
612	4
613	5
614	1
615	1
616	3
617	1
618	3
619	8
620	5
621	1
622	3
623	3
624	8
625	1
626	4
627	7
628	6
629	5
630	4
631	4
632	2
633	1
634	5
635	2
636	9
637	2
638	9
639	4
640	9
641	7
642	3
643	8
644	6
645	7
646	4
647	7
648	8
649	5
650	2
651	3
652	1
653	6
654	5
655	9
656	4
657	5
658	9
659	3
660	7
661	5
662	4
663	3
664	8
665	3
666	4
667	8
668	4
669	7
670	4
671	1
672	3
673	3
674	3
675	6
676	6
677	2
678	2
679	9
680	4
681	5
682	9
683	2
684	8
685	5
686	3
687	4
688	4
689	2
690	9
691	9
692	8
693	1
694	7
695	6
696	4
697	2
698	6
699	9
700	1
701	5
702	4
703	2
704	4
705	7
706	7
707	7
708	8
709	5
710	8
711	1
712	8
713	5
714	9
715	4
716	8
717	6
718	9
719	1
720	7
721	8
722	4
723	4
724	6
725	8
726	1
727	7
728	5
729	1
730	4
731	8
732	8
733	7
734	9
735	2
736	3
737	2
738	5
739	2
740	3
741	1
742	1
743	8
744	1
745	6
746	1
747	6
748	7
749	7
750	6
751	5
752	8
753	8
754	1
755	1
756	9
757	2
758	4
759	5
760	2
761	4
762	8
763	3
764	4
765	1
766	7
767	6
768	9
769	5
770	4
771	6
772	6
773	7
774	2
775	4
776	4
777	9
778	6
779	2
780	6
781	9
782	8
783	4
784	6
785	3
786	7
787	8
788	6
789	4
790	1
791	2
792	6
793	5
794	9
795	1
796	8
797	1
798	6
799	5
800	4
801	1
802	1
803	1
804	7
805	5
806	4
807	2
808	3
809	4
810	5
811	4
812	9
813	5
814	3
815	2
816	7
817	4
818	8
819	3
820	4
821	4
822	6
823	2
824	5
825	7
826	5
827	5
828	2
829	8
830	9
831	9
832	6
833	9
834	9
835	3
836	3
837	9
838	3
839	3
840	3
841	6
842	6
843	8
844	7
845	3
846	7
847	3
848	3
849	3
850	1
851	8
852	9
853	3
854	3
855	3
856	3
857	1
858	3
859	7
860	5
861	9
862	3
863	2
864	4
865	8
866	6
867	9
868	6
869	5
870	1
871	9
872	9
873	7
874	3
875	3
876	2
877	7
878	2
879	8
880	6
881	4
882	9
883	6
884	4
885	7
886	4
887	9
888	9
889	7
890	7
891	4
892	2
893	4
894	5
895	8
896	4
897	7
898	8
899	3
900	1
901	2
902	9
903	5
904	8
905	8
906	5
907	9
908	3
909	2
910	6
911	8
912	7
913	6
914	3
915	3
916	8
917	3
918	9
919	5
920	3
921	6
922	7
923	5
924	4
925	4
926	9
927	6
928	7
929	9
930	1
931	2
932	9
933	7
934	7
935	5
936	7
937	2
938	4
939	8
940	7
941	4
942	3
943	4
944	2
945	7
946	9
947	5
948	1
949	8
950	2
951	6
952	3
953	5
954	1
955	9
956	7
957	4
958	9
959	8
960	1
961	8
962	7
963	6
964	8
965	4
966	7
967	9
968	8
969	2
970	7
971	3
972	1
973	1
974	8
975	7
976	4
977	7
978	3
979	1
980	3
981	8
982	8
983	4
984	7
985	1
986	1
987	5
988	1
989	9
990	1
991	1
992	1
993	2
994	5
995	1
996	9
997	6
998	9
999	2
1000	8
1001	8
TIME_WINDOW_SECTION
1	0	3000
2	869	1267
3	1117	2534
4	1658	2209
5	1442	2119
6	1195	1629
7	251	1653
8	978	2832
9	260	1967
10	946	1848
11	1230	1590
12	0	1057
13	907	1648
14	312	1505
15	1865	2139
16	1292	3000
17	937	1825
18	682	1188
19	589	946
20	1625	3000
21	391	2089
22	1305	2474
23	1534	2691
24	1099	2339
25	1860	2291
26	597	2489
27	695	1612
28	0	1604
29	809	2230
30	0	649
31	418	1746
32	968	1270
33	938	1836
34	1130	2307
35	322	944
36	681	1046
37	302	811
38	276	1107
39	417	1430
40	506	1893
41	977	1233
42	16	1824
43	1589	2061
44	615	2480
45	0	1722
46	900	1283
47	372	1060
48	389	2131
49	757	1156
50	0	1388
51	1055	2939
52	90	1743
53	1217	2001
54	1179	1826
55	1568	2342
56	446	814
57	1773	2607
58	349	646
59	1203	1979
60	1031	1351
61	786	2094
62	1940	3000
63	270	1000
64	1320	3000
65	1234	2608
66	104	1004
67	501	1441
68	0	1227
69	1427	3000
70	87	1032
71	2071	3000
72	1210	1802
73	0	1305
74	773	1460
75	1002	2422
76	1318	2505
77	295	2291
78	1289	2963
79	1702	3000
80	919	2257
81	610	1039
82	967	2626
83	849	1343
84	148	1180
85	53	1306
86	1982	2436
87	1753	3000
88	442	1344
89	356	1650
90	497	2021
91	234	1913
92	2011	2856
93	0	1005
94	476	1815
95	465	1627
96	769	2268
97	1053	1465
98	728	1311
99	793	1859
100	0	1469
101	890	1215
102	853	1768
103	893	1153
104	727	2128
105	1778	2117
106	2169	2991
107	527	1226
108	501	742
109	1294	2381
110	484	2344
111	856	2675
112	1487	2432
113	1857	2409
114	0	1548
115	1054	2655
116	1564	1873
117	293	2237
118	868	1885
119	918	2688
120	0	1200
121	1671	2015
122	1776	2325
123	1551	2951
124	614	2033
125	0	1782
126	442	2295
127	563	1323
128	0	1262
129	878	1304
130	1150	1968
131	49	2002
132	996	2437
133	213	1584
134	936	2179
135	840	1604
136	775	2508
137	668	1803
138	713	1021
139	1791	2153
140	1515	2133
141	272	1117
142	0	1412
143	770	1897
144	600	1616
145	372	1426
146	1310	2089
147	623	1349
148	1774	2314
149	22	1050
150	1313	2408
151	0	901
152	1363	1634
153	798	1881
154	1256	2796
155	1187	2635
156	293	1043
157	88	1940
158	347	1100
159	1272	2369
160	686	2638
161	380	2096
162	364	1934
163	0	1079
164	71	1883
165	1364	2131
166	744	1280
167	1279	3000
168	1458	2368
169	862	1145
170	1045	2314
171	646	1231
172	261	1581
173	46	2022
174	0	1462
175	103	1581
176	1675	2596
177	457	1957
178	1202	1778
179	1495	2074
180	1441	1929
181	0	1614
182	1319	2365
183	250	2126
184	0	1113
185	1190	1404
186	0	883
187	2294	2715
188	1032	3000
189	867	1288
190	650	1601
191	305	1872
192	990	2409
193	442	877
194	327	1229
195	1874	2196
196	1063	1552
197	911	2404
198	1479	2880
199	672	2119
200	288	1866
201	545	2515
202	173	1144
203	438	839
204	1215	1713
205	104	1065
206	533	1324
207	138	935
208	1316	2935
209	1122	1915
210	533	1731
211	1548	2655
212	819	1388
213	1377	1773
214	1369	2942
215	0	1226
216	1425	2390
217	410	2398
218	513	1947
219	2037	2466
220	1341	1991
221	0	1748
222	1749	2243
223	1602	2225
224	396	1989
225	561	1671
226	247	1959
227	802	1466
228	1807	3000
229	298	877
230	1262	2399
231	982	2617
232	1606	3000
233	0	1029
234	1457	2462
235	1379	3000
236	54	2047
237	1720	3000
238	205	1747
239	1212	2395
240	1406	1804
241	95	958
242	0	1511
243	1638	3000
244	147	2035
245	1572	3000
246	419	1457
247	1700	2264
248	1791	2656
249	855	2143
250	730	2634
251	502	1338
252	862	1853
253	1248	2901
254	1145	2773
255	1683	2688
256	1393	1782
257	856	1447
258	1672	3000
259	135	2116
260	1752	2660
261	0	1364
262	1187	1828
263	867	1554
264	1342	3000
265	488	1883
266	4	1626
267	1280	2344
268	661	2227
269	876	1554
270	178	1173
271	1478	1838
272	1283	2918
273	14	690
274	1188	2063
275	408	2240
276	1625	2401
277	548	1291
278	761	1405
279	0	1117
280	1365	2195
281	1402	2672
282	1316	2027
283	859	2782
284	1578	2346
285	1436	2936
286	832	1504
287	1158	2032
288	724	1696
289	487	2382
290	554	1203
291	1173	1385
292	481	1246
293	451	1861
294	0	1222
295	241	481
296	907	2642
297	1575	2818
298	620	1407
299	963	1520
300	388	983
301	1342	2287
302	443	941
303	1739	2038
304	1566	1836
305	540	1027
306	912	2757
307	701	937
308	1322	2116
309	798	1875
310	1131	3000
311	1360	3000
312	0	1723
313	1696	2119
314	1144	1817
315	284	2195
316	1617	2222
317	552	1250
318	214	1141
319	839	1124
320	110	1745
321	1229	2973
322	1781	2651
323	1149	2349
324	313	1819
325	1127	2561
326	194	714
327	720	1245
328	1660	2750
329	459	1145
330	420	2008
331	2019	2220
332	1834	2135
333	471	1738
334	727	1168
335	778	2566
336	1450	1741
337	98	1862
338	1585	2721
339	800	1775
340	951	2293
341	1178	2183
342	543	2281
343	281	1468
344	102	1807
345	0	1113
346	52	1787
347	1446	1962
348	0	608
349	697	2609
350	888	1469
351	534	1532
352	1303	2217
353	624	2256
354	0	1566
355	1497	2836
356	1751	2223
357	773	2096
358	1175	1389
359	0	1526
360	1687	2241
361	580	1455
362	449	1956
363	1378	1622
364	1302	1830
365	1196	1438
366	637	1548
367	1006	1993
368	875	1310
369	1543	1848
370	574	1716
371	0	1310
372	0	726
373	1530	1973
374	417	906
375	871	1698
376	158	906
377	1155	2871
378	1146	1451
379	693	2517
380	235	877
381	969	1625
382	1463	2353
383	432	1179
384	407	2285
385	33	822
386	763	1365
387	492	1676
388	1272	2850
389	1674	2285
390	1209	2070
391	573	2039
392	1319	3000
393	322	2187
394	1501	2229
395	114	1585
396	261	1142
397	363	581
398	377	1986
399	179	808
400	1309	2907
401	574	1458
402	712	1199
403	982	1940
404	1291	2816
405	168	1410
406	749	2568
407	1472	2444
408	174	815
409	392	1529
410	295	518
411	1515	2597
412	1260	1825
413	382	1315
414	1017	1705
415	340	1618
416	1473	1852
417	606	2485
418	0	1859
419	1015	2104
420	462	1693
421	851	1449
422	266	1155
423	894	1543
424	1184	2047
425	1578	3000
426	267	1188
427	867	1234
428	1530	2588
429	1016	2177
430	0	1102
431	683	1530
432	987	1314
433	1931	2356
434	1081	3000
435	1717	2647
436	1878	2423
437	805	2380
438	308	1416
439	0	1152
440	558	2492
441	487	1055
442	205	2003
443	1110	2785
444	1993	2501
445	1754	2317
446	1062	2128
447	887	2486
448	1044	2692
449	499	1925
450	1367	1930
451	1633	2309
452	1100	2722
453	449	1082
454	693	1865
455	1552	2283
456	0	1436
457	1025	1319
458	0	1396
459	2321	2573
460	0	1354
461	1818	2537
462	737	1939
463	801	1127
464	1411	2456
465	164	1568
466	107	865
467	0	1568
468	1287	2402
469	650	2053
470	471	2086
471	1126	2818
472	1624	2219
473	37	1248
474	760	2422
475	646	1945
476	453	1262
477	1787	2722
478	959	2818
479	1975	2449
480	1516	2322
481	675	2553
482	103	1378
483	651	2115
484	1372	2737
485	1197	1866
486	635	1982
487	972	2070
488	543	1829
489	1433	2771
490	1256	1725
491	750	1631
492	2001	2420
493	557	1452
494	1754	2345
495	203	2168
496	1531	2436
497	0	1288
498	256	1919
499	304	2246
500	526	780
501	635	2552
502	0	1536
503	327	2223
504	716	1921
505	384	1992
506	162	412
507	106	1902
508	1000	1495
509	1882	2531
510	1381	2923
511	649	2110
512	994	2231
513	1904	2376
514	413	1071
515	208	2070
516	914	2793
517	843	2130
518	1441	2814
519	919	2003
520	1034	1792
521	0	1635
522	1097	2531
523	1197	2279
524	79	876
525	1275	2240
526	211	1460
527	593	2516
528	1108	2170
529	1248	1921
530	779	1829
531	1429	2915
532	1090	2877
533	1909	2419
534	221	1506
535	391	2212
536	625	2458
537	542	2457
538	1057	2737
539	844	1976
540	1381	2553
541	639	1159
542	1182	2413
543	647	2215
544	0	1223
545	719	2246
546	619	1934
547	1120	1473
548	654	1899
549	1007	2319
550	692	1649
551	2263	2763
552	0	1085
553	1055	2096
554	343	798
555	1851	2209
556	1513	2510
557	1954	2613
558	0	899
559	416	972
560	527	1387
561	364	688
562	1090	2204
563	810	1219
564	974	2008
565	986	2268
566	182	732
567	21	1674
568	1941	2223
569	1077	1484
570	1864	2113
571	951	1723
572	0	1929
573	965	2301
574	1067	1478
575	579	1994
576	1353	2190
577	99	1913
578	1051	1720
579	1547	2052
580	0	1474
581	1170	2485
582	1047	1939
583	150	840
584	950	2169
585	149	871
586	1065	1976
587	280	1122
588	832	2693
589	1772	3000
590	561	1613
591	1839	2213
592	1191	2706
593	495	1879
594	264	803
595	683	1911
596	73	1523
597	0	1032
598	1240	2550
599	503	1936
600	181	2166
601	1511	2777
602	94	1619
603	1020	2116
604	915	2724
605	1522	2440
606	1050	2941
607	0	1114
608	1140	1532
609	256	1406
610	1920	2727
611	474	1512
612	547	982
613	1212	2702
614	1336	2677
615	81	867
616	1971	2584
617	1569	2716
618	1040	2737
619	566	1791
620	2269	2539
621	0	1473
622	144	480
623	0	1640
624	1174	2432
625	797	2109
626	1142	1414
627	919	2846
628	267	659
629	1294	2544
630	1158	2544
631	780	1024
632	1020	2515
633	746	2118
634	1776	2195
635	1522	2644
636	999	1501
637	716	1337
638	1104	2205
639	2111	2439
640	1865	2295
641	69	1213
642	251	2101
643	43	915
644	538	2351
645	129	1239
646	696	1555
647	513	2075
648	1600	1890
649	1839	3000
650	1501	2516
651	924	1545
652	1408	2471
653	1474	2870
654	563	2078
655	1	1632
656	634	2286
657	859	2137
658	2200	2587
659	1534	2825
660	1433	2771
661	1427	2739
662	1797	2023
663	2115	2927
664	878	2295
665	338	1567
666	599	881
667	1404	1818
668	110	1792
669	107	1814
670	1592	2158
671	303	1181
672	1693	2155
673	1179	2519
674	634	2454
675	456	1737
676	1398	2327
677	130	2093
678	491	2431
679	1444	1783
680	1001	2311
681	607	2269
682	1531	3000
683	1780	2668
684	0	1445
685	1180	2256
686	1443	2098
687	1048	1721
688	347	716
689	846	2260
690	2334	2540
691	0	966
692	718	1558
693	1769	2063
694	499	1155
695	1357	1730
696	362	1027
697	492	1919
698	224	573
699	1161	2371
700	1718	3000
701	1002	1412
702	769	1866
703	935	1459
704	1134	2146
705	468	2320
706	0	1347
707	748	1409
708	478	2181
709	994	2139
710	605	1738
711	1802	2447
712	1688	2328
713	319	1783
714	1312	1958
715	2043	2990
716	1450	2068
717	922	1732
718	1006	2764
719	563	1712
720	131	1442
721	50	706
722	1341	3000
723	491	2466
724	1861	2096
725	1820	2438
726	1651	1869
727	1995	2463
728	39	999
729	616	1849
730	1546	2012
731	885	2643
732	1731	2827
733	95	1941
734	357	2065
735	612	1550
736	1078	2050
737	1204	2185
738	783	2618
739	0	1061
740	1065	1830
741	0	1062
742	1290	2627
743	1655	2751
744	1155	2453
745	2046	2352
746	950	1710
747	140	1873
748	0	829
749	374	1142
750	315	1007
751	195	1540
752	1935	2439
753	1081	1934
754	423	1450
755	1362	2455
756	1487	2830
757	158	1741
758	1307	1984
759	682	1752
760	470	2256
761	830	1798
762	759	1581
763	1470	2195
764	0	1562
765	1579	2631
766	0	1565
767	1664	1881
768	1290	2355
769	413	2398
770	1291	2556
771	31	740
772	926	1377
773	1205	2163
774	385	1069
775	1147	2191
776	643	1061
777	0	1372
778	950	1368
779	1212	2855
780	1137	2306
781	1035	2781
782	1684	2089
783	1247	2379
784	1034	2863
785	1059	1341
786	1557	2257
787	2179	2537
788	551	2157
789	769	1924
790	911	1942
791	958	2370
792	1017	2279
793	1920	3000
794	508	2213
795	443	2217
796	0	1201
797	1557	3000
798	1529	2849
799	920	1912
800	661	2328
801	696	2562
802	388	1313
803	1585	2194
804	1070	2605
805	584	1382
806	1557	2614
807	1692	1995
808	1339	1621
809	921	1783
810	189	758
811	0	635
812	1119	1645
813	919	1178
814	894	1829
815	380	925
816	261	1955
817	1378	2201
818	1561	3000
819	1108	2187
820	1548	3000
821	689	1540
822	1337	2041
823	1697	2215
824	1659	2935
825	743	2471
826	86	725
827	0	725
828	1711	2278
829	2413	2694
830	283	1860
831	1267	3000
832	391	1727
833	1414	2778
834	1705	2231
835	277	1217
836	329	1619
837	1311	2152
838	677	1760
839	2486	2718
840	0	1030
841	1307	2031
842	161	1821
843	893	1812
844	1219	2393
845	940	1204
846	281	745
847	654	1300
848	1449	1730
849	810	1415
850	1409	2549
851	143	1805
852	432	1547
853	1441	3000
854	1153	3000
855	0	1624
856	661	2143
857	1905	2418
858	873	1947
859	1298	2040
860	396	1914
861	0	1316
862	1231	3000
863	1443	1952
864	1786	2417
865	471	1525
866	743	1543
867	1225	3000
868	1131	1391
869	1494	1924
870	1346	2840
871	1444	1840
872	1504	3000
873	1626	1864
874	2071	3000
875	431	1730
876	912	1611
877	1100	2203
878	1188	2755
879	40	1602
880	143	2108
881	13	603
882	62	646
883	1015	2652
884	425	1324
885	535	1851
886	1263	2237
887	735	2450
888	128	1408
889	0	1619
890	1293	2937
891	76	1072
892	103	2082
893	519	1676
894	669	1282
895	458	2193
896	755	1271
897	1675	2391
898	1322	2817
899	1082	1445
900	516	2432
901	473	2057
902	931	1742
903	1524	2921
904	1575	2750
905	1395	2573
906	1699	1930
907	61	815
908	1727	2612
909	1580	2109
910	1343	3000
911	478	793
912	518	1853
913	1086	2020
914	325	1649
915	2152	2881
916	292	1929
917	1411	1736
918	848	2409
919	1392	2508
920	795	2748
921	347	869
922	1282	1790
923	0	1474
924	1466	3000
925	1636	2919
926	1557	2036
927	1706	2470
928	2203	2549
929	1373	1862
930	719	2294
931	1038	1865
932	0	1172
933	1630	2271
934	1604	3000
935	136	1962
936	1031	2859
937	1403	2028
938	447	1821
939	1436	2891
940	1513	2100
941	1447	2677
942	495	1432
943	1476	3000
944	871	1396
945	605	1707
946	491	1394
947	1006	1621
948	1437	1681
949	349	873
950	398	881
951	1300	3000
952	144	1517
953	1550	2458
954	1099	1867
955	629	2031
956	699	941
957	519	1380
958	1043	2654
959	1113	3000
960	647	1672
961	1360	2050
962	530	2524
963	1169	3000
964	691	1764
965	111	972
966	1333	2854
967	148	2137
968	0	1269
969	1350	2544
970	903	1268
971	1378	3000
972	858	1296
973	2125	2403
974	857	2750
975	82	917
976	722	2462
977	379	1378
978	0	1294
979	1311	2681
980	459	1989
981	1050	2437
982	1729	3000
983	122	1943
984	1884	2131
985	0	1510
986	896	2575
987	1834	3000
988	283	2176
989	741	2337
990	315	678
991	119	883
992	813	1696
993	0	1806
994	425	1534
995	602	976
996	949	1709
997	1051	1309
998	1245	2960
999	0	1360
1000	273	1333
1001	789	2659
DEPOT_SECTION
1
-1
EOF
