NAME : n501-0003
COMMENT : "Generated by pyvrp_manuel (OVRPBL)"
TYPE : OVRPBL
DIMENSION : 501
EDGE_WEIGHT_TYPE : EUC_2D
CAPACITY : 100
VEHICLES : 500
OPEN_ROUTE : YES
DISTANCE : 3000
NODE_COORD_SECTION
1	21	409
2	119	270
3	7	159
4	156	574
5	476	146
6	349	985
7	272	108
8	872	792
9	226	13
10	77	338
11	480	710
12	61	362
13	201	274
14	526	515
15	649	204
16	308	37
17	976	152
18	383	667
19	249	896
20	995	221
21	655	947
22	100	218
23	408	837
24	912	236
25	448	600
26	914	170
27	920	781
28	796	657
29	262	915
30	660	609
31	944	667
32	635	451
33	404	833
34	833	296
35	94	135
36	556	104
37	534	191
38	821	396
39	993	669
40	178	582
41	459	167
42	949	567
43	907	182
44	943	57
45	558	177
46	975	154
47	723	787
48	54	565
49	799	184
50	596	712
51	53	108
52	764	46
53	152	374
54	684	252
55	493	317
56	253	239
57	873	695
58	354	120
59	242	924
60	509	927
61	945	215
62	684	296
63	171	514
64	33	982
65	486	314
66	437	95
67	321	30
68	964	283
69	601	930
70	400	380
71	977	923
72	642	440
73	603	107
74	235	972
75	448	964
76	326	761
77	505	287
78	489	851
79	698	176
80	76	185
81	871	266
82	621	572
83	907	380
84	704	866
85	552	474
86	884	570
87	315	256
88	736	165
89	488	387
90	142	974
91	964	826
92	138	232
93	286	945
94	342	864
95	909	868
96	714	557
97	802	866
98	42	930
99	535	234
100	500	161
101	55	987
102	862	293
103	786	172
104	486	940
105	886	959
106	527	223
107	74	235
108	981	732
109	342	94
110	31	461
111	140	809
112	905	654
113	12	177
114	509	243
115	910	816
116	577	920
117	106	708
118	855	392
119	67	143
120	692	683
121	215	495
122	669	673
123	673	262
124	501	727
125	201	623
126	959	935
127	235	195
128	345	730
129	372	163
130	323	263
131	991	482
132	891	86
133	822	588
134	815	674
135	876	502
136	136	344
137	184	465
138	278	87
139	791	398
140	198	734
141	528	815
142	71	917
143	264	486
144	806	465
145	403	72
146	926	497
147	369	887
148	980	432
149	22	789
150	240	353
151	260	756
152	352	24
153	763	818
154	882	413
155	383	425
156	179	170
157	545	439
158	446	34
159	388	984
160	595	754
161	372	148
162	239	266
163	315	878
164	702	858
165	514	967
166	51	812
167	156	230
168	232	684
169	944	959
170	348	930
171	842	621
172	820	127
173	949	774
174	98	710
175	793	737
176	682	47
177	705	219
178	316	488
179	227	61
180	548	950
181	675	888
182	929	273
183	494	308
184	231	43
185	551	290
186	231	829
187	460	139
188	911	367
189	558	193
190	137	603
191	523	618
192	273	69
193	525	562
194	447	991
195	505	190
196	385	153
197	955	598
198	816	195
199	247	745
200	641	633
201	809	928
202	91	363
203	533	944
204	571	119
205	963	131
206	130	962
207	950	313
208	973	751
209	874	886
210	627	537
211	658	992
212	142	749
213	240	227
214	635	755
215	701	302
216	406	944
217	271	316
218	409	207
219	383	235
220	446	532
221	631	42
222	766	56
223	695	520
224	680	728
225	889	130
226	731	292
227	910	860
228	647	455
229	251	63
230	319	237
231	312	135
232	124	540
233	162	397
234	394	135
235	509	225
236	120	174
237	769	908
238	218	203
239	168	845
240	275	282
241	532	246
242	539	535
243	901	168
244	442	626
245	302	322
246	533	206
247	396	622
248	45	639
249	917	703
250	281	764
251	228	500
252	364	65
253	282	218
254	383	758
255	128	756
256	355	92
257	821	383
258	274	507
259	430	586
260	307	1000
261	301	960
262	301	735
263	963	619
264	774	729
265	698	273
266	201	87
267	904	519
268	171	835
269	25	612
270	825	839
271	815	181
272	712	357
273	364	554
274	755	226
275	852	722
276	540	543
277	211	143
278	870	537
279	539	672
280	99	401
281	877	955
282	336	784
283	330	488
284	258	420
285	933	403
286	788	574
287	884	405
288	143	555
289	42	391
290	467	202
291	218	954
292	273	29
293	356	533
294	348	343
295	526	750
296	76	476
297	769	351
298	989	60
299	588	742
300	204	986
301	707	288
302	232	402
303	162	101
304	388	319
305	542	21
306	554	111
307	502	177
308	988	342
309	993	300
310	115	546
311	625	457
312	890	879
313	441	925
314	770	992
315	72	635
316	572	408
317	455	778
318	267	291
319	840	832
320	930	105
321	124	179
322	377	946
323	69	725
324	218	341
325	368	348
326	883	801
327	96	849
328	607	498
329	256	366
330	812	912
331	730	466
332	93	888
333	45	373
334	278	137
335	583	714
336	552	591
337	601	928
338	418	371
339	977	30
340	230	447
341	863	539
342	640	847
343	244	334
344	491	914
345	743	937
346	998	914
347	420	556
348	990	204
349	417	418
350	886	320
351	369	244
352	860	224
353	331	151
354	361	196
355	244	778
356	952	222
357	228	907
358	368	265
359	120	648
360	666	274
361	539	996
362	468	111
363	825	668
364	435	919
365	433	591
366	245	546
367	133	475
368	972	6
369	461	765
370	182	622
371	696	626
372	141	435
373	495	804
374	376	704
375	439	725
376	38	52
377	512	462
378	677	65
379	579	385
380	529	453
381	911	190
382	850	263
383	521	860
384	275	277
385	233	961
386	149	263
387	634	414
388	75	695
389	444	488
390	757	212
391	819	915
392	687	20
393	457	378
394	708	256
395	284	711
396	996	922
397	459	921
398	257	236
399	970	341
400	822	522
401	467	601
402	869	821
403	294	254
404	221	316
405	293	780
406	966	795
407	225	386
408	571	300
409	107	596
410	733	957
411	756	28
412	263	506
413	704	945
414	793	700
415	487	893
416	20	536
417	785	442
418	777	644
419	226	962
420	766	325
421	962	274
422	103	788
423	701	682
424	828	33
425	788	734
426	703	6
427	724	183
428	256	592
429	988	164
430	316	809
431	865	494
432	900	293
433	408	119
434	700	279
435	34	626
436	384	725
437	142	88
438	454	629
439	541	385
440	471	88
441	795	12
442	158	725
443	401	7
444	751	239
445	951	896
446	714	688
447	963	302
448	387	706
449	428	909
450	750	120
451	155	879
452	226	776
453	989	707
454	887	23
455	816	395
456	168	532
457	733	32
458	258	124
459	18	520
460	24	490
461	500	191
462	684	140
463	11	80
464	455	809
465	300	972
466	978	87
467	614	82
468	576	717
469	75	275
470	191	220
471	662	422
472	936	283
473	954	759
474	872	641
475	422	350
476	441	789
477	722	374
478	452	347
479	475	20
480	484	630
481	171	527
482	353	133
483	841	374
484	630	217
485	1	768
486	995	345
487	55	107
488	228	442
489	611	689
490	441	904
491	840	529
492	658	940
493	383	469
494	634	646
495	250	157
496	307	481
497	891	799
498	553	439
499	440	976
500	263	704
501	645	51
DEMAND_SECTION
1	0
2	2
3	1
4	3
5	9
6	9
7	3
8	3
9	6
10	8
11	5
12	4
13	5
14	4
15	3
16	3
17	6
18	1
19	6
20	3
21	4
22	1
23	7
24	6
25	2
26	4
27	9
28	1
29	1
30	1
31	3
32	1
33	5
34	8
35	6
36	4
37	6
38	6
39	8
40	9
41	9
42	2
43	7
44	5
45	9
46	3
47	1
48	9
49	6
50	7
51	2
52	1
53	9
54	2
55	4
56	5
57	7
58	2
59	7
60	5
61	4
62	8
63	4
64	8
65	5
66	6
67	7
68	4
69	3
70	9
71	7
72	2
73	5
74	4
75	3
76	9
77	2
78	2
79	4
80	2
81	6
82	1
83	5
84	1
85	3
86	8
87	2
88	5
89	8
90	8
91	5
92	2
93	2
94	5
95	2
96	1
97	7
98	3
99	5
100	7
101	2
102	3
103	2
104	6
105	2
106	4
107	5
108	8
109	5
110	4
111	9
112	4
113	1
114	1
115	7
116	1
117	6
118	5
119	9
120	6
121	7
122	3
123	4
124	8
125	7
126	4
127	1
128	3
129	3
130	7
131	7
132	5
133	3
134	1
135	9
136	2
137	1
138	6
139	3
140	8
141	9
142	3
143	8
144	1
145	4
146	7
147	1
148	5
149	6
150	6
151	8
152	1
153	1
154	4
155	3
156	5
157	8
158	6
159	9
160	1
161	3
162	5
163	2
164	6
165	2
166	8
167	5
168	3
169	2
170	1
171	3
172	5
173	5
174	5
175	8
176	8
177	4
178	2
179	1
180	4
181	6
182	6
183	4
184	8
185	3
186	5
187	8
188	4
189	9
190	1
191	1
192	1
193	6
194	1
195	6
196	4
197	6
198	6
199	7
200	1
201	6
202	6
203	4
204	8
205	4
206	1
207	4
208	5
209	3
210	3
211	9
212	5
213	7
214	7
215	7
216	1
217	3
218	5
219	3
220	6
221	3
222	6
223	4
224	8
225	4
226	9
227	1
228	8
229	6
230	1
231	7
232	5
233	1
234	9
235	5
236	5
237	9
238	1
239	8
240	5
241	6
242	3
243	7
244	5
245	9
246	4
247	2
248	6
249	6
250	1
251	1
252	4
253	4
254	9
255	7
256	8
257	3
258	7
259	4
260	3
261	6
262	7
263	4
264	4
265	6
266	4
267	1
268	4
269	1
270	3
271	6
272	2
273	4
274	5
275	6
276	1
277	6
278	4
279	5
280	3
281	2
282	9
283	8
284	7
285	9
286	1
287	5
288	8
289	7
290	9
291	4
292	6
293	3
294	1
295	3
296	6
297	4
298	4
299	9
300	1
301	5
302	8
303	1
304	8
305	3
306	3
307	3
308	2
309	2
310	6
311	9
312	6
313	4
314	5
315	6
316	1
317	7
318	6
319	2
320	1
321	4
322	7
323	6
324	5
325	2
326	7
327	7
328	2
329	6
330	2
331	5
332	2
333	1
334	8
335	4
336	4
337	8
338	9
339	2
340	9
341	6
342	6
343	8
344	9
345	7
346	2
347	8
348	6
349	3
350	7
351	6
352	3
353	4
354	7
355	2
356	3
357	8
358	3
359	9
360	7
361	5
362	9
363	9
364	8
365	6
366	5
367	9
368	2
369	3
370	5
371	2
372	3
373	4
374	3
375	3
376	7
377	3
378	5
379	5
380	6
381	5
382	1
383	2
384	8
385	5
386	4
387	4
388	8
389	6
390	2
391	7
392	4
393	9
394	8
395	4
396	3
397	9
398	3
399	7
400	1
401	7
402	1
403	5
404	5
405	5
406	9
407	5
408	8
409	4
410	8
411	7
412	9
413	8
414	7
415	6
416	8
417	2
418	5
419	3
420	1
421	6
422	4
423	5
424	8
425	6
426	6
427	2
428	4
429	3
430	4
431	6
432	3
433	9
434	3
435	4
436	6
437	9
438	6
439	1
440	6
441	7
442	6
443	2
444	2
445	2
446	1
447	2
448	3
449	9
450	4
451	4
452	9
453	5
454	6
455	8
456	5
457	9
458	2
459	8
460	4
461	1
462	3
463	3
464	6
465	5
466	6
467	7
468	3
469	3
470	8
471	2
472	5
473	4
474	7
475	5
476	8
477	4
478	9
479	8
480	5
481	3
482	8
483	8
484	1
485	1
486	2
487	5
488	4
489	3
490	4
491	8
492	1
493	6
494	3
495	1
496	1
497	5
498	6
499	8
500	1
501	3
BACKHAUL_SECTION
11	12	19	28	36	45	46	47	48	57	59	68	69	75	78	88	97	100	104	109	111	115	119	122	124	129	135	137	139	142	143	144	148	149	160	161	162	169	176	188	191	200	215	222	223	226	228	234	241	244	245	254	258	259	262	264	266	270	274	277	279	284	291	308	309	314	325	329	332	349	353	357	362	371	376	388	391	404	410	413	414	419	428	432	436	441	447	450	454	461	462	463	468	469	474	478	485	489	490	495	-1
DEPOT_SECTION
1
-1
EOF
