NAME : n501-0030
COMMENT : "Generated by pyvrp_manuel (OVRPBL)"
TYPE : OVRPBL
DIMENSION : 501
EDGE_WEIGHT_TYPE : EUC_2D
CAPACITY : 100
VEHICLES : 500
OPEN_ROUTE : YES
DISTANCE : 3000
NODE_COORD_SECTION
1	111	523
2	431	70
3	63	264
4	47	910
5	898	660
6	633	708
7	97	366
8	512	124
9	629	393
10	251	605
11	577	850
12	526	583
13	55	722
14	823	774
15	672	95
16	865	751
17	737	152
18	687	997
19	656	831
20	959	332
21	531	61
22	352	227
23	232	612
24	444	817
25	658	689
26	165	516
27	297	907
28	791	514
29	228	917
30	862	744
31	627	187
32	969	491
33	15	569
34	618	500
35	903	258
36	844	345
37	649	488
38	299	410
39	314	659
40	601	389
41	809	65
42	249	884
43	911	721
44	6	485
45	952	411
46	204	923
47	710	453
48	868	23
49	251	620
50	782	822
51	342	404
52	854	100
53	257	758
54	486	630
55	76	175
56	834	785
57	349	552
58	658	302
59	261	248
60	93	442
61	7	331
62	898	715
63	307	265
64	143	148
65	507	307
66	771	892
67	836	250
68	465	986
69	303	673
70	303	196
71	391	20
72	858	23
73	597	41
74	675	764
75	852	410
76	64	580
77	659	54
78	648	316
79	492	507
80	176	869
81	959	786
82	747	202
83	379	609
84	648	57
85	74	876
86	496	307
87	350	196
88	450	458
89	893	748
90	361	845
91	923	982
92	112	441
93	485	617
94	459	470
95	205	387
96	268	933
97	821	49
98	408	816
99	895	367
100	14	202
101	611	396
102	392	467
103	25	261
104	532	839
105	249	325
106	126	481
107	473	434
108	700	235
109	797	662
110	987	749
111	441	451
112	777	60
113	338	598
114	579	338
115	673	428
116	861	824
117	444	690
118	466	527
119	893	157
120	964	450
121	251	530
122	874	264
123	445	122
124	660	920
125	680	198
126	144	554
127	218	62
128	910	688
129	978	186
130	138	347
131	531	932
132	18	118
133	457	14
134	845	759
135	232	481
136	82	978
137	496	275
138	353	647
139	499	674
140	319	126
141	72	86
142	485	982
143	141	471
144	982	236
145	563	519
146	631	889
147	2	156
148	346	114
149	608	242
150	729	610
151	13	295
152	36	624
153	941	871
154	238	860
155	260	223
156	719	233
157	10	934
158	916	202
159	223	837
160	173	432
161	570	950
162	188	306
163	229	151
164	124	176
165	129	843
166	445	125
167	405	182
168	584	399
169	215	398
170	456	681
171	140	543
172	425	898
173	78	913
174	501	55
175	36	896
176	241	113
177	383	996
178	360	746
179	409	580
180	661	22
181	72	744
182	754	615
183	468	488
184	939	307
185	648	533
186	937	310
187	14	319
188	702	190
189	303	371
190	658	921
191	432	295
192	839	755
193	20	441
194	908	821
195	501	171
196	609	682
197	792	775
198	309	951
199	362	696
200	247	224
201	734	813
202	566	744
203	679	214
204	218	376
205	864	115
206	232	632
207	149	78
208	274	119
209	413	950
210	747	722
211	923	13
212	676	759
213	342	15
214	142	694
215	407	144
216	426	166
217	489	573
218	225	205
219	582	724
220	442	2
221	57	98
222	172	117
223	21	752
224	91	840
225	251	329
226	349	156
227	413	650
228	847	693
229	726	587
230	47	707
231	913	26
232	574	840
233	836	585
234	170	122
235	459	898
236	466	246
237	413	794
238	880	71
239	776	239
240	147	414
241	65	644
242	539	160
243	632	380
244	451	720
245	197	113
246	343	160
247	64	416
248	361	269
249	472	677
250	190	687
251	845	196
252	194	401
253	145	197
254	549	146
255	109	931
256	873	321
257	763	930
258	802	614
259	280	746
260	479	701
261	293	639
262	178	541
263	762	820
264	864	558
265	997	478
266	633	197
267	329	591
268	392	197
269	195	504
270	365	359
271	364	198
272	12	618
273	893	75
274	460	839
275	528	900
276	569	126
277	986	479
278	559	863
279	370	343
280	21	383
281	376	61
282	775	53
283	907	61
284	80	471
285	157	270
286	123	442
287	338	198
288	765	448
289	535	702
290	329	468
291	884	23
292	868	947
293	172	304
294	55	87
295	826	535
296	730	269
297	975	225
298	921	913
299	970	424
300	194	129
301	838	4
302	604	209
303	269	141
304	356	309
305	660	34
306	871	604
307	269	392
308	772	376
309	470	466
310	933	230
311	25	777
312	985	559
313	141	17
314	662	549
315	649	627
316	539	283
317	720	961
318	873	266
319	750	935
320	346	830
321	401	671
322	139	661
323	139	280
324	656	162
325	426	268
326	730	865
327	899	392
328	811	92
329	921	363
330	956	710
331	670	706
332	109	463
333	147	497
334	406	240
335	375	758
336	54	860
337	419	918
338	274	623
339	473	956
340	162	165
341	894	61
342	912	568
343	889	82
344	539	734
345	32	610
346	388	250
347	104	451
348	77	30
349	442	744
350	433	634
351	248	112
352	705	284
353	663	291
354	835	272
355	30	550
356	430	731
357	93	232
358	633	457
359	277	190
360	85	62
361	781	918
362	318	834
363	339	509
364	744	353
365	149	336
366	49	52
367	242	349
368	627	31
369	698	477
370	926	980
371	622	110
372	127	39
373	815	906
374	787	790
375	794	181
376	661	993
377	852	95
378	795	62
379	307	19
380	856	818
381	342	355
382	833	595
383	759	543
384	260	701
385	308	411
386	287	461
387	192	178
388	772	955
389	630	433
390	696	552
391	192	140
392	217	291
393	178	127
394	809	538
395	528	534
396	610	724
397	920	563
398	975	411
399	704	671
400	795	951
401	945	498
402	133	548
403	68	702
404	271	840
405	777	724
406	496	829
407	207	284
408	711	706
409	961	532
410	832	221
411	655	522
412	168	484
413	786	426
414	567	902
415	360	674
416	105	340
417	607	1000
418	907	802
419	529	659
420	480	453
421	809	154
422	443	432
423	634	28
424	116	310
425	94	917
426	311	961
427	821	286
428	193	820
429	39	937
430	445	588
431	671	303
432	341	441
433	986	797
434	762	57
435	357	994
436	405	944
437	947	202
438	809	257
439	853	125
440	207	630
441	410	947
442	101	670
443	80	840
444	889	615
445	767	625
446	894	142
447	637	264
448	102	202
449	307	929
450	994	789
451	533	805
452	704	847
453	813	784
454	185	131
455	132	505
456	459	363
457	201	105
458	830	238
459	964	826
460	536	617
461	514	240
462	563	507
463	732	626
464	304	449
465	207	411
466	668	151
467	36	343
468	778	866
469	95	761
470	241	953
471	155	161
472	773	867
473	878	137
474	249	679
475	797	185
476	597	304
477	50	813
478	574	469
479	432	232
480	639	759
481	26	380
482	213	293
483	723	792
484	441	3
485	542	447
486	552	884
487	345	67
488	544	688
489	28	464
490	579	547
491	148	936
492	616	138
493	94	712
494	355	245
495	199	141
496	363	192
497	335	263
498	355	78
499	854	297
500	150	980
501	565	579
DEMAND_SECTION
1	0
2	8
3	9
4	7
5	2
6	9
7	2
8	9
9	7
10	7
11	6
12	1
13	5
14	9
15	9
16	2
17	5
18	5
19	9
20	9
21	2
22	5
23	3
24	7
25	9
26	5
27	5
28	7
29	3
30	2
31	5
32	8
33	9
34	8
35	5
36	2
37	2
38	8
39	3
40	8
41	9
42	6
43	3
44	8
45	1
46	8
47	1
48	5
49	2
50	7
51	7
52	3
53	5
54	9
55	3
56	2
57	7
58	5
59	5
60	3
61	2
62	4
63	3
64	7
65	1
66	2
67	3
68	4
69	8
70	2
71	8
72	1
73	7
74	8
75	7
76	3
77	9
78	8
79	5
80	2
81	9
82	9
83	6
84	6
85	2
86	6
87	6
88	2
89	3
90	8
91	7
92	7
93	7
94	1
95	6
96	9
97	9
98	9
99	3
100	5
101	1
102	7
103	2
104	4
105	3
106	3
107	6
108	3
109	2
110	8
111	2
112	5
113	9
114	7
115	2
116	7
117	7
118	5
119	1
120	5
121	1
122	9
123	2
124	9
125	2
126	6
127	7
128	9
129	2
130	3
131	4
132	4
133	1
134	1
135	7
136	5
137	7
138	6
139	2
140	1
141	5
142	1
143	4
144	7
145	9
146	6
147	5
148	9
149	1
150	6
151	1
152	5
153	9
154	1
155	6
156	4
157	3
158	5
159	2
160	8
161	5
162	1
163	5
164	4
165	6
166	6
167	4
168	8
169	4
170	7
171	3
172	3
173	1
174	4
175	1
176	2
177	5
178	6
179	4
180	5
181	2
182	1
183	1
184	4
185	4
186	5
187	4
188	8
189	1
190	7
191	9
192	7
193	3
194	4
195	7
196	3
197	3
198	6
199	6
200	9
201	2
202	3
203	7
204	9
205	3
206	9
207	3
208	3
209	6
210	8
211	1
212	8
213	2
214	9
215	8
216	8
217	6
218	4
219	4
220	2
221	3
222	9
223	4
224	3
225	1
226	8
227	4
228	6
229	2
230	6
231	5
232	9
233	6
234	3
235	4
236	8
237	6
238	1
239	8
240	9
241	2
242	8
243	6
244	2
245	6
246	2
247	6
248	2
249	5
250	5
251	3
252	2
253	9
254	9
255	9
256	5
257	5
258	3
259	9
260	7
261	8
262	9
263	3
264	3
265	3
266	2
267	7
268	3
269	9
270	2
271	7
272	3
273	3
274	1
275	2
276	3
277	2
278	8
279	9
280	1
281	6
282	5
283	3
284	5
285	2
286	5
287	4
288	1
289	8
290	4
291	6
292	8
293	4
294	1
295	4
296	8
297	3
298	4
299	1
300	3
301	8
302	8
303	5
304	7
305	5
306	6
307	5
308	5
309	6
310	9
311	3
312	2
313	2
314	6
315	6
316	9
317	7
318	8
319	4
320	4
321	1
322	8
323	2
324	9
325	5
326	8
327	1
328	8
329	3
330	4
331	1
332	6
333	9
334	5
335	8
336	3
337	2
338	7
339	8
340	7
341	3
342	7
343	2
344	4
345	5
346	9
347	2
348	1
349	7
350	3
351	9
352	8
353	6
354	4
355	5
356	2
357	5
358	8
359	3
360	1
361	3
362	5
363	2
364	6
365	1
366	8
367	6
368	3
369	7
370	9
371	9
372	9
373	4
374	9
375	3
376	3
377	3
378	8
379	8
380	3
381	2
382	2
383	5
384	4
385	3
386	7
387	8
388	4
389	8
390	4
391	6
392	2
393	1
394	2
395	1
396	4
397	8
398	9
399	5
400	2
401	4
402	2
403	6
404	1
405	3
406	8
407	6
408	1
409	8
410	4
411	7
412	7
413	2
414	6
415	3
416	9
417	7
418	8
419	3
420	8
421	5
422	6
423	6
424	9
425	8
426	7
427	8
428	1
429	8
430	9
431	4
432	3
433	1
434	9
435	7
436	9
437	7
438	8
439	3
440	4
441	8
442	7
443	7
444	3
445	2
446	3
447	8
448	2
449	4
450	8
451	7
452	7
453	8
454	9
455	3
456	7
457	2
458	1
459	9
460	5
461	3
462	5
463	6
464	4
465	6
466	2
467	9
468	4
469	5
470	6
471	5
472	4
473	9
474	4
475	8
476	1
477	6
478	7
479	9
480	9
481	2
482	6
483	7
484	7
485	6
486	7
487	2
488	7
489	7
490	5
491	8
492	6
493	3
494	9
495	1
496	6
497	3
498	7
499	9
500	7
501	6
BACKHAUL_SECTION
11	12	19	28	36	45	46	47	48	57	59	68	69	75	78	88	97	100	104	109	111	115	119	122	124	129	135	137	139	142	143	144	148	149	160	161	162	169	176	188	191	200	215	222	223	226	228	234	241	244	245	254	258	259	262	264	266	270	274	277	279	284	291	308	309	314	325	329	332	349	353	357	362	371	376	388	391	404	410	413	414	419	428	432	436	441	447	450	454	461	462	463	468	469	474	478	485	489	490	495	-1
DEPOT_SECTION
1
-1
EOF
