NAME : n501-0044
COMMENT : "Generated by pyvrp_manuel (OVRPBL)"
TYPE : OVRPBL
DIMENSION : 501
EDGE_WEIGHT_TYPE : EUC_2D
CAPACITY : 100
VEHICLES : 500
OPEN_ROUTE : YES
DISTANCE : 3000
NODE_COORD_SECTION
1	294	501
2	333	910
3	82	121
4	549	130
5	297	453
6	528	180
7	592	792
8	413	459
9	33	646
10	689	847
11	338	145
12	120	75
13	518	874
14	73	212
15	928	556
16	487	746
17	346	77
18	7	839
19	196	521
20	362	478
21	404	519
22	697	702
23	661	900
24	426	737
25	716	33
26	522	936
27	391	382
28	574	235
29	335	59
30	14	441
31	730	992
32	627	577
33	273	139
34	944	591
35	74	706
36	979	620
37	193	713
38	561	655
39	966	25
40	416	856
41	702	410
42	30	135
43	926	704
44	458	595
45	219	364
46	992	704
47	362	686
48	213	420
49	916	598
50	646	133
51	101	521
52	328	758
53	783	761
54	289	2
55	713	49
56	928	357
57	844	208
58	600	878
59	306	18
60	121	722
61	796	890
62	461	927
63	689	234
64	563	585
65	994	918
66	357	97
67	206	803
68	192	410
69	81	593
70	609	693
71	265	92
72	405	601
73	115	851
74	574	497
75	127	115
76	334	929
77	838	176
78	401	320
79	106	945
80	492	833
81	389	980
82	641	288
83	964	222
84	156	999
85	182	819
86	348	164
87	917	342
88	508	168
89	516	997
90	839	301
91	785	166
92	991	577
93	49	837
94	354	352
95	917	29
96	278	449
97	606	824
98	806	668
99	145	709
100	82	613
101	123	668
102	737	142
103	209	759
104	115	102
105	259	779
106	52	854
107	679	25
108	881	404
109	582	659
110	645	650
111	127	984
112	137	464
113	813	425
114	198	148
115	214	850
116	458	377
117	921	692
118	742	557
119	299	773
120	931	732
121	575	5
122	822	462
123	841	602
124	425	181
125	935	605
126	30	224
127	238	503
128	901	737
129	553	110
130	677	685
131	359	679
132	300	930
133	135	413
134	966	725
135	598	22
136	638	351
137	865	582
138	849	636
139	539	790
140	538	104
141	960	232
142	950	784
143	100	694
144	975	465
145	344	967
146	98	916
147	337	526
148	870	213
149	884	230
150	496	67
151	293	695
152	828	124
153	250	427
154	654	378
155	804	188
156	841	314
157	345	770
158	762	966
159	824	646
160	714	97
161	775	252
162	942	116
163	743	916
164	861	352
165	460	915
166	34	58
167	684	981
168	261	980
169	329	994
170	802	676
171	123	872
172	284	528
173	212	32
174	574	401
175	458	961
176	332	138
177	441	93
178	672	161
179	516	656
180	930	306
181	970	167
182	938	751
183	715	208
184	552	93
185	297	60
186	396	173
187	208	954
188	465	236
189	244	703
190	22	641
191	190	44
192	646	729
193	312	33
194	67	350
195	977	407
196	730	716
197	827	785
198	222	721
199	850	761
200	662	603
201	383	491
202	537	842
203	725	455
204	683	278
205	575	100
206	879	249
207	914	247
208	780	977
209	833	915
210	883	342
211	116	694
212	600	365
213	829	124
214	455	513
215	810	750
216	813	139
217	534	583
218	227	496
219	705	3
220	221	607
221	496	417
222	811	212
223	635	46
224	977	507
225	531	422
226	161	290
227	465	599
228	835	343
229	885	400
230	939	943
231	93	329
232	220	798
233	330	151
234	323	89
235	617	633
236	576	679
237	716	728
238	960	159
239	194	236
240	242	398
241	485	106
242	820	958
243	164	613
244	261	391
245	99	192
246	889	317
247	317	621
248	731	200
249	442	513
250	53	803
251	224	435
252	431	909
253	759	969
254	99	30
255	966	119
256	704	761
257	895	279
258	511	123
259	529	364
260	352	277
261	405	116
262	499	495
263	553	19
264	360	982
265	698	331
266	488	131
267	479	902
268	930	674
269	799	74
270	104	702
271	278	597
272	455	634
273	710	755
274	392	381
275	282	757
276	446	780
277	506	195
278	440	636
279	356	373
280	354	600
281	13	804
282	792	414
283	76	460
284	295	177
285	171	252
286	607	165
287	358	326
288	137	978
289	314	463
290	76	16
291	936	69
292	156	905
293	777	928
294	705	41
295	430	846
296	474	559
297	533	778
298	96	170
299	671	112
300	542	43
301	25	979
302	667	941
303	518	501
304	797	16
305	804	198
306	789	469
307	351	72
308	950	833
309	889	81
310	267	829
311	460	681
312	153	950
313	892	493
314	954	345
315	16	242
316	822	546
317	163	775
318	564	142
319	185	637
320	910	993
321	752	106
322	992	646
323	787	307
324	335	994
325	606	267
326	674	534
327	409	585
328	174	603
329	63	425
330	89	286
331	396	866
332	456	100
333	348	572
334	522	574
335	618	101
336	197	123
337	238	782
338	399	192
339	715	624
340	339	97
341	996	270
342	265	981
343	834	384
344	381	181
345	897	81
346	904	622
347	480	170
348	703	160
349	790	808
350	560	268
351	618	48
352	275	258
353	710	587
354	569	681
355	781	648
356	629	868
357	207	328
358	190	150
359	781	187
360	371	226
361	840	334
362	810	814
363	765	261
364	104	413
365	115	461
366	354	237
367	652	442
368	903	607
369	516	572
370	795	10
371	922	347
372	134	875
373	149	703
374	22	646
375	422	929
376	533	164
377	709	334
378	254	613
379	493	269
380	491	185
381	765	9
382	761	984
383	751	214
384	305	658
385	490	736
386	163	940
387	560	310
388	739	84
389	420	720
390	2	219
391	575	291
392	791	802
393	613	470
394	430	772
395	828	599
396	176	639
397	846	585
398	244	687
399	164	748
400	348	784
401	586	63
402	567	973
403	512	207
404	627	239
405	944	107
406	702	924
407	848	33
408	508	320
409	63	565
410	119	351
411	109	819
412	550	279
413	576	34
414	777	130
415	454	300
416	856	341
417	799	359
418	615	438
419	985	459
420	997	787
421	157	284
422	461	374
423	576	424
424	308	202
425	684	956
426	641	924
427	88	524
428	132	435
429	546	205
430	230	898
431	469	559
432	181	901
433	781	136
434	640	551
435	437	386
436	507	328
437	649	858
438	648	913
439	883	244
440	53	1000
441	968	400
442	660	956
443	231	601
444	434	200
445	144	11
446	902	575
447	639	565
448	708	475
449	84	843
450	739	820
451	927	473
452	958	13
453	669	927
454	473	69
455	959	289
456	536	466
457	779	75
458	820	700
459	556	994
460	174	320
461	714	662
462	887	525
463	757	817
464	97	751
465	575	483
466	354	649
467	428	477
468	614	308
469	570	950
470	627	779
471	99	315
472	623	485
473	358	278
474	343	391
475	258	625
476	853	571
477	349	609
478	93	298
479	878	544
480	469	939
481	386	99
482	294	915
483	758	456
484	806	723
485	922	822
486	570	210
487	686	183
488	360	59
489	521	26
490	730	358
491	920	191
492	452	934
493	876	880
494	966	68
495	967	826
496	582	670
497	112	552
498	226	723
499	549	688
500	735	536
501	126	104
DEMAND_SECTION
1	0
2	8
3	9
4	5
5	3
6	2
7	8
8	2
9	9
10	8
11	9
12	3
13	6
14	3
15	7
16	7
17	6
18	6
19	6
20	3
21	7
22	6
23	2
24	7
25	9
26	4
27	8
28	2
29	4
30	6
31	2
32	4
33	3
34	5
35	2
36	5
37	4
38	4
39	5
40	6
41	7
42	8
43	3
44	2
45	8
46	2
47	2
48	7
49	2
50	8
51	5
52	4
53	4
54	9
55	5
56	5
57	7
58	1
59	3
60	8
61	1
62	2
63	2
64	9
65	8
66	3
67	2
68	9
69	1
70	5
71	5
72	1
73	6
74	5
75	1
76	8
77	3
78	9
79	8
80	2
81	2
82	2
83	2
84	3
85	4
86	3
87	3
88	4
89	8
90	9
91	4
92	7
93	4
94	5
95	8
96	8
97	9
98	9
99	4
100	6
101	7
102	9
103	8
104	4
105	7
106	2
107	9
108	1
109	7
110	1
111	6
112	9
113	7
114	1
115	2
116	4
117	9
118	4
119	7
120	8
121	5
122	7
123	8
124	3
125	8
126	3
127	2
128	9
129	2
130	2
131	4
132	9
133	2
134	2
135	5
136	5
137	5
138	5
139	1
140	2
141	9
142	6
143	5
144	3
145	6
146	5
147	8
148	5
149	5
150	4
151	1
152	7
153	3
154	3
155	6
156	8
157	7
158	3
159	5
160	5
161	5
162	9
163	2
164	2
165	2
166	6
167	1
168	6
169	3
170	8
171	6
172	3
173	3
174	1
175	6
176	2
177	7
178	8
179	2
180	6
181	9
182	3
183	7
184	2
185	4
186	6
187	3
188	1
189	6
190	2
191	6
192	3
193	4
194	2
195	9
196	9
197	9
198	7
199	9
200	3
201	3
202	9
203	2
204	6
205	6
206	3
207	7
208	9
209	3
210	5
211	8
212	7
213	1
214	3
215	8
216	9
217	5
218	2
219	9
220	1
221	3
222	2
223	8
224	2
225	5
226	1
227	8
228	4
229	8
230	6
231	8
232	4
233	6
234	3
235	1
236	7
237	6
238	9
239	4
240	2
241	1
242	2
243	2
244	5
245	6
246	4
247	7
248	4
249	5
250	2
251	3
252	4
253	4
254	5
255	1
256	5
257	7
258	7
259	3
260	7
261	4
262	2
263	1
264	1
265	6
266	6
267	4
268	7
269	2
270	1
271	7
272	4
273	2
274	7
275	4
276	4
277	2
278	8
279	7
280	8
281	9
282	3
283	4
284	2
285	6
286	5
287	8
288	7
289	7
290	5
291	5
292	8
293	5
294	1
295	3
296	5
297	5
298	8
299	5
300	8
301	2
302	7
303	9
304	3
305	1
306	2
307	3
308	8
309	6
310	3
311	3
312	4
313	3
314	7
315	2
316	2
317	4
318	9
319	6
320	5
321	7
322	8
323	4
324	6
325	5
326	1
327	9
328	2
329	2
330	3
331	9
332	1
333	2
334	1
335	2
336	7
337	5
338	7
339	6
340	5
341	9
342	3
343	3
344	6
345	9
346	9
347	8
348	2
349	9
350	4
351	2
352	9
353	6
354	7
355	7
356	5
357	6
358	6
359	2
360	6
361	6
362	9
363	3
364	8
365	5
366	6
367	2
368	2
369	6
370	9
371	7
372	3
373	5
374	7
375	2
376	2
377	9
378	7
379	9
380	8
381	9
382	3
383	3
384	1
385	4
386	8
387	7
388	5
389	5
390	1
391	8
392	9
393	3
394	1
395	7
396	1
397	8
398	5
399	5
400	5
401	7
402	6
403	5
404	5
405	8
406	1
407	5
408	1
409	1
410	2
411	4
412	4
413	7
414	7
415	8
416	8
417	6
418	8
419	9
420	7
421	7
422	1
423	6
424	3
425	8
426	7
427	3
428	8
429	4
430	9
431	2
432	9
433	6
434	7
435	7
436	3
437	3
438	9
439	4
440	3
441	5
442	2
443	1
444	9
445	4
446	6
447	9
448	7
449	7
450	1
451	5
452	3
453	6
454	6
455	9
456	5
457	1
458	3
459	6
460	4
461	9
462	6
463	2
464	8
465	9
466	8
467	9
468	6
469	1
470	3
471	7
472	5
473	2
474	4
475	2
476	2
477	5
478	8
479	9
480	2
481	3
482	6
483	4
484	3
485	4
486	1
487	1
488	5
489	7
490	5
491	5
492	9
493	4
494	4
495	4
496	2
497	9
498	8
499	5
500	7
501	2
BACKHAUL_SECTION
11	12	19	28	36	45	46	47	48	57	59	68	69	75	78	88	97	100	104	109	111	115	119	122	124	129	135	137	139	142	143	144	148	149	160	161	162	169	176	188	191	200	215	222	223	226	228	234	241	244	245	254	258	259	262	264	266	270	274	277	279	284	291	308	309	314	325	329	332	349	353	357	362	371	376	388	391	404	410	413	414	419	428	432	436	441	447	450	454	461	462	463	468	469	474	478	485	489	490	495	-1
DEPOT_SECTION
1
-1
EOF
