NAME : n501-0008
COMMENT : "Generated by pyvrp_manuel (OVRPBL)"
TYPE : OVRPBL
DIMENSION : 501
EDGE_WEIGHT_TYPE : EUC_2D
CAPACITY : 100
VEHICLES : 500
OPEN_ROUTE : YES
DISTANCE : 3000
NODE_COORD_SECTION
1	377	706
2	345	886
3	320	456
4	400	497
5	605	613
6	699	912
7	439	704
8	829	750
9	456	442
10	162	592
11	165	877
12	590	448
13	27	189
14	357	577
15	88	413
16	693	221
17	293	283
18	59	246
19	173	678
20	582	436
21	371	130
22	249	57
23	815	669
24	114	583
25	670	870
26	758	139
27	959	366
28	175	738
29	369	68
30	602	36
31	843	430
32	861	660
33	838	604
34	212	96
35	859	349
36	54	291
37	238	175
38	859	641
39	820	82
40	550	387
41	205	914
42	473	890
43	346	460
44	405	687
45	303	527
46	915	905
47	758	288
48	417	815
49	221	264
50	549	878
51	288	114
52	752	74
53	77	569
54	872	81
55	755	929
56	685	820
57	633	106
58	594	296
59	968	699
60	520	45
61	955	585
62	647	608
63	100	962
64	68	387
65	668	483
66	462	1
67	721	491
68	304	589
69	841	520
70	240	673
71	163	439
72	177	609
73	373	866
74	800	189
75	505	77
76	25	162
77	353	275
78	721	109
79	899	956
80	323	9
81	814	167
82	694	378
83	77	52
84	38	59
85	273	668
86	419	997
87	989	64
88	402	399
89	364	146
90	531	665
91	43	317
92	864	636
93	344	647
94	113	46
95	944	811
96	845	410
97	904	764
98	150	193
99	398	708
100	912	56
101	848	296
102	810	872
103	639	298
104	835	710
105	248	122
106	734	861
107	868	718
108	786	449
109	627	174
110	415	264
111	832	447
112	26	402
113	245	908
114	422	349
115	163	827
116	112	902
117	568	17
118	847	984
119	462	380
120	317	415
121	944	374
122	328	206
123	763	489
124	213	91
125	616	186
126	134	635
127	805	258
128	625	802
129	512	548
130	391	243
131	87	630
132	40	396
133	407	941
134	734	801
135	15	718
136	870	381
137	192	29
138	381	38
139	266	640
140	414	826
141	673	757
142	562	88
143	517	286
144	30	697
145	535	247
146	216	761
147	653	299
148	135	685
149	996	88
150	510	753
151	606	20
152	186	164
153	955	460
154	343	852
155	292	749
156	86	749
157	651	452
158	535	390
159	530	991
160	958	364
161	25	359
162	311	363
163	769	619
164	234	567
165	804	617
166	310	273
167	766	135
168	682	868
169	934	692
170	501	846
171	944	259
172	183	766
173	368	392
174	549	286
175	943	493
176	322	919
177	88	932
178	696	350
179	198	209
180	594	221
181	454	418
182	623	628
183	290	937
184	216	94
185	400	733
186	232	526
187	25	935
188	980	827
189	59	348
190	782	477
191	578	74
192	477	447
193	966	740
194	370	80
195	792	117
196	165	670
197	72	260
198	884	548
199	436	289
200	235	852
201	785	627
202	1	752
203	706	510
204	633	385
205	710	755
206	158	577
207	543	951
208	548	339
209	997	356
210	63	863
211	220	4
212	835	349
213	943	755
214	522	525
215	211	957
216	677	900
217	700	785
218	506	186
219	351	712
220	955	584
221	2	566
222	743	511
223	374	648
224	213	810
225	407	24
226	737	528
227	185	292
228	76	299
229	276	460
230	332	451
231	305	897
232	692	458
233	483	963
234	354	215
235	583	408
236	926	953
237	219	793
238	879	821
239	873	206
240	440	448
241	589	594
242	990	398
243	325	170
244	786	267
245	732	768
246	373	515
247	151	883
248	638	717
249	599	279
250	92	505
251	811	324
252	957	341
253	539	455
254	660	185
255	761	766
256	958	347
257	65	801
258	385	960
259	463	667
260	203	910
261	916	749
262	619	995
263	461	395
264	154	189
265	126	359
266	513	778
267	897	27
268	647	960
269	191	495
270	288	847
271	180	809
272	897	945
273	874	673
274	678	473
275	517	779
276	822	444
277	694	661
278	389	277
279	530	140
280	581	12
281	512	933
282	79	18
283	700	997
284	929	61
285	913	498
286	792	413
287	138	182
288	7	557
289	20	964
290	833	130
291	564	425
292	678	620
293	950	4
294	515	846
295	15	356
296	33	545
297	580	737
298	670	651
299	53	621
300	729	995
301	397	442
302	336	2
303	803	502
304	295	17
305	884	781
306	292	771
307	981	697
308	189	663
309	903	83
310	552	782
311	602	957
312	860	271
313	871	335
314	129	285
315	535	450
316	211	185
317	528	290
318	586	360
319	275	935
320	998	383
321	605	204
322	201	731
323	496	659
324	521	633
325	166	809
326	851	685
327	805	257
328	927	639
329	540	992
330	267	203
331	697	114
332	645	701
333	82	188
334	447	428
335	133	526
336	224	967
337	119	859
338	757	680
339	276	425
340	726	796
341	255	7
342	695	446
343	534	43
344	66	62
345	234	858
346	734	862
347	578	790
348	613	722
349	598	593
350	930	340
351	260	248
352	9	341
353	971	203
354	244	243
355	666	165
356	554	557
357	659	832
358	342	485
359	560	768
360	19	909
361	437	596
362	458	659
363	629	549
364	252	458
365	292	980
366	146	547
367	747	151
368	341	894
369	964	509
370	438	531
371	34	145
372	961	949
373	7	318
374	477	387
375	565	696
376	336	337
377	611	653
378	567	974
379	360	327
380	81	130
381	677	808
382	220	35
383	530	413
384	420	596
385	547	861
386	90	564
387	565	752
388	390	933
389	130	828
390	680	645
391	33	136
392	769	112
393	925	390
394	290	32
395	877	614
396	34	592
397	140	957
398	147	812
399	278	242
400	640	783
401	206	480
402	725	649
403	220	604
404	549	856
405	793	759
406	244	468
407	753	161
408	304	285
409	161	655
410	318	549
411	92	73
412	126	849
413	92	900
414	746	708
415	3	740
416	446	479
417	798	301
418	254	908
419	182	754
420	438	783
421	238	428
422	109	265
423	4	217
424	390	103
425	462	877
426	823	161
427	677	532
428	836	252
429	412	20
430	832	815
431	983	972
432	740	267
433	137	249
434	106	565
435	967	947
436	430	843
437	307	84
438	95	686
439	390	355
440	692	5
441	306	684
442	45	202
443	667	583
444	917	542
445	932	35
446	770	860
447	23	540
448	938	745
449	898	947
450	518	616
451	581	199
452	154	68
453	466	89
454	448	86
455	443	732
456	4	842
457	433	437
458	700	821
459	350	65
460	416	313
461	486	119
462	67	550
463	848	978
464	799	665
465	174	295
466	858	374
467	169	652
468	206	220
469	834	156
470	596	260
471	103	411
472	977	349
473	880	86
474	770	393
475	23	907
476	672	714
477	347	233
478	452	852
479	937	389
480	369	993
481	782	360
482	75	828
483	95	819
484	580	219
485	734	484
486	199	583
487	624	585
488	366	126
489	856	117
490	215	320
491	756	971
492	178	130
493	461	555
494	260	590
495	806	799
496	745	692
497	913	22
498	877	927
499	218	163
500	703	820
501	637	698
DEMAND_SECTION
1	0
2	9
3	9
4	7
5	4
6	9
7	3
8	6
9	2
10	8
11	1
12	4
13	9
14	5
15	2
16	6
17	2
18	5
19	1
20	4
21	7
22	5
23	2
24	6
25	1
26	9
27	2
28	7
29	3
30	2
31	9
32	4
33	7
34	9
35	8
36	4
37	3
38	2
39	4
40	1
41	1
42	3
43	4
44	4
45	8
46	4
47	3
48	6
49	5
50	5
51	7
52	9
53	5
54	7
55	9
56	9
57	6
58	6
59	1
60	6
61	9
62	7
63	4
64	5
65	5
66	3
67	8
68	8
69	9
70	9
71	2
72	1
73	1
74	7
75	4
76	4
77	8
78	3
79	3
80	9
81	5
82	9
83	4
84	9
85	7
86	8
87	9
88	9
89	5
90	2
91	9
92	6
93	2
94	7
95	5
96	3
97	6
98	7
99	9
100	3
101	2
102	7
103	6
104	6
105	5
106	3
107	3
108	8
109	3
110	1
111	8
112	6
113	2
114	3
115	9
116	3
117	7
118	7
119	8
120	3
121	4
122	9
123	1
124	2
125	5
126	8
127	7
128	7
129	4
130	2
131	1
132	7
133	3
134	7
135	9
136	3
137	6
138	2
139	5
140	1
141	6
142	8
143	6
144	8
145	4
146	9
147	1
148	3
149	2
150	9
151	9
152	4
153	1
154	4
155	7
156	7
157	7
158	7
159	9
160	1
161	4
162	2
163	6
164	2
165	4
166	9
167	7
168	4
169	9
170	1
171	9
172	3
173	5
174	8
175	3
176	1
177	6
178	7
179	6
180	9
181	5
182	9
183	2
184	7
185	4
186	9
187	5
188	9
189	6
190	3
191	8
192	9
193	6
194	4
195	5
196	9
197	4
198	5
199	1
200	9
201	5
202	6
203	6
204	3
205	3
206	3
207	4
208	8
209	7
210	6
211	3
212	1
213	7
214	3
215	3
216	7
217	1
218	9
219	6
220	8
221	3
222	8
223	4
224	4
225	7
226	1
227	6
228	9
229	8
230	5
231	3
232	9
233	9
234	5
235	7
236	5
237	9
238	7
239	5
240	1
241	5
242	6
243	3
244	1
245	8
246	5
247	9
248	3
249	3
250	8
251	5
252	2
253	9
254	5
255	7
256	2
257	3
258	4
259	9
260	2
261	6
262	3
263	3
264	3
265	7
266	6
267	8
268	1
269	3
270	5
271	8
272	7
273	7
274	3
275	6
276	8
277	8
278	4
279	1
280	8
281	7
282	8
283	2
284	3
285	7
286	3
287	5
288	7
289	5
290	3
291	7
292	6
293	3
294	2
295	2
296	6
297	1
298	8
299	1
300	5
301	5
302	2
303	6
304	7
305	4
306	3
307	1
308	1
309	2
310	2
311	1
312	1
313	2
314	4
315	7
316	5
317	1
318	9
319	8
320	2
321	8
322	9
323	6
324	1
325	2
326	8
327	5
328	7
329	1
330	1
331	6
332	3
333	1
334	5
335	9
336	3
337	7
338	8
339	7
340	8
341	8
342	2
343	9
344	2
345	8
346	2
347	1
348	3
349	4
350	5
351	1
352	6
353	2
354	4
355	9
356	3
357	6
358	7
359	5
360	3
361	9
362	4
363	8
364	5
365	4
366	6
367	1
368	2
369	4
370	9
371	7
372	1
373	4
374	3
375	3
376	1
377	9
378	6
379	7
380	2
381	2
382	4
383	2
384	5
385	4
386	4
387	4
388	3
389	3
390	6
391	8
392	2
393	7
394	9
395	4
396	7
397	7
398	5
399	3
400	8
401	8
402	4
403	3
404	8
405	1
406	1
407	1
408	2
409	6
410	2
411	1
412	8
413	8
414	8
415	9
416	4
417	9
418	3
419	3
420	3
421	3
422	2
423	8
424	3
425	1
426	3
427	1
428	1
429	1
430	7
431	8
432	5
433	8
434	5
435	1
436	1
437	5
438	1
439	4
440	2
441	9
442	6
443	8
444	1
445	1
446	8
447	9
448	7
449	6
450	6
451	3
452	7
453	4
454	7
455	2
456	9
457	3
458	1
459	8
460	6
461	9
462	3
463	2
464	5
465	3
466	8
467	7
468	9
469	6
470	8
471	3
472	7
473	4
474	5
475	7
476	6
477	8
478	2
479	5
480	3
481	2
482	7
483	2
484	6
485	6
486	4
487	7
488	9
489	7
490	1
491	6
492	1
493	8
494	9
495	7
496	3
497	5
498	9
499	5
500	5
501	9
BACKHAUL_SECTION
11	12	19	28	36	45	46	47	48	57	59	68	69	75	78	88	97	100	104	109	111	115	119	122	124	129	135	137	139	142	143	144	148	149	160	161	162	169	176	188	191	200	215	222	223	226	228	234	241	244	245	254	258	259	262	264	266	270	274	277	279	284	291	308	309	314	325	329	332	349	353	357	362	371	376	388	391	404	410	413	414	419	428	432	436	441	447	450	454	461	462	463	468	469	474	478	485	489	490	495	-1
DEPOT_SECTION
1
-1
EOF
