NAME : n501-0017
COMMENT : "Generated by pyvrp_manuel (OVRPBL)"
TYPE : OVRPBL
DIMENSION : 501
EDGE_WEIGHT_TYPE : EUC_2D
CAPACITY : 100
VEHICLES : 500
OPEN_ROUTE : YES
DISTANCE : 3000
NODE_COORD_SECTION
1	635	490
2	97	358
3	157	146
4	872	954
5	923	783
6	323	423
7	951	381
8	817	607
9	845	932
10	888	651
11	604	316
12	646	562
13	616	8
14	11	230
15	389	891
16	201	732
17	81	186
18	137	995
19	804	740
20	739	55
21	122	584
22	67	453
23	890	485
24	97	447
25	662	888
26	84	367
27	303	781
28	464	313
29	58	25
30	631	199
31	570	54
32	465	171
33	28	449
34	752	518
35	785	766
36	596	323
37	292	809
38	758	469
39	104	795
40	961	833
41	763	383
42	748	257
43	979	655
44	9	12
45	512	328
46	533	209
47	943	995
48	819	622
49	809	773
50	141	867
51	21	667
52	836	459
53	943	176
54	431	858
55	457	223
56	672	979
57	647	676
58	345	687
59	948	271
60	71	851
61	47	980
62	440	900
63	758	376
64	646	310
65	268	198
66	439	249
67	265	761
68	60	447
69	28	900
70	991	209
71	674	566
72	323	923
73	291	864
74	328	505
75	370	738
76	960	788
77	451	783
78	121	791
79	649	776
80	406	758
81	921	272
82	842	799
83	917	92
84	565	784
85	382	589
86	77	21
87	86	598
88	203	820
89	931	901
90	993	281
91	343	265
92	471	368
93	955	673
94	677	962
95	511	562
96	255	281
97	836	110
98	222	886
99	638	256
100	937	436
101	220	513
102	663	503
103	432	520
104	106	374
105	647	609
106	355	846
107	804	849
108	267	872
109	620	656
110	70	41
111	274	31
112	368	926
113	528	782
114	27	127
115	462	943
116	376	411
117	667	719
118	360	874
119	479	690
120	621	235
121	620	972
122	527	248
123	608	554
124	228	472
125	693	185
126	767	980
127	408	430
128	278	683
129	59	798
130	928	329
131	668	881
132	302	544
133	524	640
134	435	439
135	920	249
136	997	487
137	103	354
138	145	642
139	281	214
140	686	92
141	117	726
142	861	297
143	353	44
144	673	694
145	418	619
146	356	921
147	713	851
148	912	318
149	713	977
150	538	752
151	397	68
152	980	505
153	395	122
154	893	946
155	899	490
156	88	584
157	672	874
158	617	341
159	871	768
160	986	270
161	641	653
162	902	711
163	320	270
164	383	464
165	257	595
166	241	724
167	459	34
168	794	201
169	554	521
170	255	136
171	346	938
172	392	686
173	329	230
174	481	560
175	422	329
176	942	338
177	877	936
178	840	714
179	408	393
180	453	849
181	88	196
182	250	309
183	816	23
184	98	126
185	127	863
186	134	404
187	376	149
188	472	745
189	16	121
190	912	612
191	874	290
192	950	600
193	444	404
194	550	216
195	366	899
196	682	982
197	693	254
198	131	575
199	253	938
200	198	270
201	765	757
202	650	594
203	824	159
204	952	54
205	491	989
206	956	312
207	599	57
208	653	751
209	753	870
210	676	586
211	642	22
212	236	325
213	261	747
214	913	83
215	456	850
216	476	784
217	903	573
218	403	236
219	761	935
220	45	712
221	693	254
222	306	553
223	917	71
224	545	388
225	506	63
226	576	619
227	229	472
228	691	686
229	916	648
230	807	691
231	86	658
232	287	743
233	549	775
234	953	677
235	493	460
236	96	117
237	969	478
238	279	667
239	134	82
240	402	600
241	265	811
242	897	368
243	910	24
244	726	722
245	728	478
246	130	798
247	903	310
248	541	58
249	260	452
250	78	43
251	308	833
252	469	591
253	764	168
254	101	834
255	556	210
256	763	413
257	27	325
258	253	663
259	557	561
260	348	106
261	446	640
262	605	566
263	213	453
264	843	545
265	168	36
266	311	286
267	295	618
268	795	561
269	876	789
270	308	94
271	566	359
272	305	274
273	548	60
274	279	572
275	752	162
276	749	928
277	668	654
278	136	141
279	406	208
280	1	707
281	5	837
282	226	540
283	892	459
284	13	896
285	504	319
286	697	702
287	405	507
288	154	984
289	941	745
290	162	190
291	943	418
292	591	754
293	707	995
294	411	492
295	767	975
296	499	379
297	541	681
298	386	557
299	561	513
300	746	139
301	902	958
302	744	884
303	53	450
304	257	220
305	630	444
306	874	451
307	537	67
308	902	186
309	365	874
310	993	463
311	489	505
312	585	936
313	473	461
314	237	677
315	9	340
316	786	97
317	803	658
318	496	626
319	771	696
320	961	705
321	339	233
322	695	693
323	254	598
324	969	205
325	328	82
326	981	949
327	430	150
328	136	971
329	163	743
330	697	550
331	640	815
332	551	73
333	698	56
334	750	9
335	112	372
336	317	158
337	55	721
338	791	992
339	163	205
340	345	784
341	221	8
342	706	417
343	781	388
344	313	536
345	740	772
346	342	294
347	561	464
348	393	727
349	7	824
350	534	574
351	825	6
352	215	228
353	938	635
354	447	196
355	909	35
356	881	194
357	608	927
358	180	352
359	354	904
360	65	196
361	25	633
362	765	938
363	851	398
364	147	146
365	402	767
366	638	932
367	209	591
368	254	651
369	528	250
370	168	334
371	781	577
372	552	43
373	8	506
374	392	689
375	632	313
376	746	622
377	835	140
378	607	72
379	186	609
380	411	674
381	221	328
382	956	199
383	176	408
384	413	674
385	658	781
386	883	42
387	326	892
388	488	18
389	470	94
390	285	556
391	838	164
392	692	436
393	602	202
394	229	80
395	945	655
396	238	301
397	523	481
398	92	643
399	53	853
400	406	997
401	441	784
402	939	696
403	23	436
404	378	117
405	519	823
406	522	545
407	526	293
408	366	661
409	976	403
410	401	763
411	490	8
412	515	362
413	589	967
414	63	574
415	784	263
416	632	497
417	211	431
418	130	968
419	443	431
420	840	999
421	435	748
422	82	429
423	526	751
424	154	104
425	640	427
426	452	535
427	207	941
428	543	677
429	785	10
430	479	188
431	963	668
432	161	12
433	855	167
434	304	70
435	55	941
436	417	575
437	66	117
438	236	101
439	485	223
440	245	438
441	780	31
442	65	538
443	98	841
444	408	801
445	818	410
446	226	391
447	827	350
448	261	785
449	995	247
450	448	231
451	717	646
452	65	411
453	899	694
454	471	308
455	206	702
456	71	382
457	185	680
458	542	494
459	722	975
460	212	569
461	82	687
462	535	715
463	855	587
464	128	246
465	384	653
466	36	895
467	849	501
468	466	189
469	634	754
470	667	68
471	182	425
472	860	349
473	209	582
474	766	618
475	390	41
476	660	434
477	53	668
478	756	781
479	281	463
480	180	390
481	614	496
482	797	183
483	642	312
484	469	941
485	35	768
486	482	146
487	942	56
488	731	409
489	934	503
490	521	529
491	828	101
492	872	168
493	553	480
494	841	900
495	206	662
496	112	423
497	376	189
498	135	451
499	237	276
500	546	757
501	322	217
DEMAND_SECTION
1	0
2	3
3	7
4	2
5	3
6	5
7	2
8	1
9	1
10	9
11	4
12	2
13	5
14	6
15	5
16	2
17	7
18	8
19	9
20	2
21	3
22	2
23	5
24	3
25	6
26	5
27	5
28	2
29	2
30	4
31	1
32	8
33	6
34	6
35	7
36	5
37	1
38	1
39	9
40	4
41	6
42	7
43	3
44	2
45	1
46	2
47	6
48	6
49	4
50	1
51	4
52	2
53	5
54	6
55	6
56	8
57	4
58	7
59	8
60	1
61	2
62	6
63	7
64	2
65	5
66	9
67	4
68	3
69	6
70	2
71	1
72	8
73	8
74	1
75	2
76	7
77	1
78	1
79	9
80	6
81	9
82	5
83	8
84	3
85	1
86	2
87	2
88	8
89	4
90	5
91	9
92	2
93	1
94	9
95	6
96	7
97	8
98	4
99	5
100	5
101	4
102	4
103	2
104	6
105	7
106	2
107	1
108	5
109	2
110	6
111	2
112	7
113	5
114	3
115	9
116	8
117	7
118	4
119	2
120	4
121	2
122	7
123	3
124	3
125	1
126	3
127	1
128	8
129	9
130	6
131	2
132	7
133	1
134	1
135	6
136	7
137	1
138	9
139	8
140	1
141	5
142	6
143	2
144	2
145	9
146	6
147	5
148	6
149	7
150	6
151	6
152	9
153	1
154	3
155	7
156	5
157	2
158	1
159	9
160	7
161	7
162	5
163	9
164	5
165	9
166	1
167	6
168	6
169	8
170	5
171	2
172	7
173	6
174	9
175	9
176	5
177	3
178	2
179	2
180	8
181	1
182	6
183	2
184	6
185	8
186	7
187	3
188	6
189	3
190	7
191	1
192	8
193	5
194	8
195	1
196	4
197	8
198	4
199	2
200	2
201	2
202	3
203	3
204	6
205	9
206	3
207	4
208	5
209	4
210	8
211	4
212	6
213	4
214	6
215	6
216	7
217	1
218	1
219	7
220	7
221	7
222	3
223	2
224	6
225	7
226	5
227	1
228	6
229	6
230	1
231	8
232	7
233	7
234	6
235	7
236	8
237	2
238	9
239	3
240	2
241	4
242	5
243	6
244	7
245	2
246	1
247	8
248	8
249	5
250	6
251	2
252	7
253	5
254	7
255	2
256	2
257	1
258	5
259	7
260	2
261	6
262	5
263	8
264	7
265	3
266	9
267	8
268	9
269	5
270	6
271	2
272	2
273	6
274	8
275	4
276	1
277	3
278	1
279	9
280	1
281	4
282	4
283	4
284	3
285	5
286	6
287	3
288	2
289	4
290	3
291	2
292	5
293	4
294	5
295	6
296	7
297	6
298	3
299	8
300	4
301	5
302	3
303	2
304	5
305	7
306	5
307	2
308	9
309	5
310	7
311	8
312	3
313	9
314	7
315	8
316	4
317	8
318	9
319	9
320	7
321	4
322	4
323	7
324	1
325	2
326	5
327	3
328	9
329	9
330	5
331	8
332	4
333	7
334	7
335	1
336	9
337	8
338	7
339	8
340	9
341	4
342	7
343	4
344	8
345	4
346	8
347	2
348	1
349	2
350	9
351	3
352	8
353	1
354	3
355	8
356	6
357	9
358	2
359	8
360	9
361	2
362	9
363	5
364	7
365	1
366	9
367	9
368	7
369	7
370	4
371	2
372	7
373	1
374	8
375	8
376	8
377	2
378	4
379	4
380	9
381	3
382	7
383	8
384	9
385	5
386	5
387	7
388	9
389	5
390	5
391	3
392	7
393	7
394	6
395	2
396	3
397	5
398	8
399	6
400	6
401	5
402	8
403	3
404	7
405	8
406	9
407	6
408	6
409	5
410	5
411	8
412	6
413	6
414	1
415	6
416	6
417	9
418	1
419	2
420	1
421	6
422	1
423	9
424	4
425	6
426	5
427	1
428	7
429	2
430	3
431	9
432	4
433	4
434	1
435	4
436	4
437	2
438	8
439	1
440	5
441	2
442	1
443	7
444	9
445	9
446	9
447	6
448	9
449	6
450	7
451	3
452	8
453	3
454	1
455	6
456	9
457	4
458	6
459	8
460	8
461	7
462	6
463	4
464	9
465	4
466	4
467	4
468	8
469	3
470	3
471	8
472	7
473	8
474	5
475	7
476	8
477	7
478	3
479	8
480	2
481	6
482	2
483	6
484	3
485	2
486	8
487	5
488	7
489	8
490	6
491	5
492	4
493	9
494	8
495	8
496	2
497	3
498	6
499	2
500	9
501	8
BACKHAUL_SECTION
11	12	19	28	36	45	46	47	48	57	59	68	69	75	78	88	97	100	104	109	111	115	119	122	124	129	135	137	139	142	143	144	148	149	160	161	162	169	176	188	191	200	215	222	223	226	228	234	241	244	245	254	258	259	262	264	266	270	274	277	279	284	291	308	309	314	325	329	332	349	353	357	362	371	376	388	391	404	410	413	414	419	428	432	436	441	447	450	454	461	462	463	468	469	474	478	485	489	490	495	-1
DEPOT_SECTION
1
-1
EOF
