NAME : n501-0038
COMMENT : "Generated by pyvrp_manuel (OVRPBL)"
TYPE : OVRPBL
DIMENSION : 501
EDGE_WEIGHT_TYPE : EUC_2D
CAPACITY : 100
VEHICLES : 500
OPEN_ROUTE : YES
DISTANCE : 3000
NODE_COORD_SECTION
1	896	974
2	917	666
3	705	135
4	563	802
5	483	62
6	615	789
7	60	419
8	556	658
9	833	213
10	73	454
11	951	315
12	391	649
13	66	614
14	970	964
15	756	704
16	460	519
17	89	2
18	467	20
19	595	567
20	48	286
21	393	821
22	777	414
23	625	316
24	538	336
25	77	341
26	474	675
27	234	8
28	971	826
29	579	685
30	783	515
31	982	198
32	567	627
33	886	673
34	617	834
35	111	494
36	988	347
37	703	433
38	503	582
39	718	41
40	127	700
41	554	551
42	458	869
43	893	42
44	503	991
45	27	302
46	852	545
47	893	226
48	3	354
49	921	983
50	166	825
51	781	923
52	27	677
53	888	56
54	395	251
55	636	665
56	433	304
57	725	497
58	80	197
59	881	535
60	835	913
61	969	902
62	484	432
63	193	444
64	824	403
65	248	208
66	559	812
67	691	728
68	33	12
69	894	422
70	162	99
71	479	16
72	197	933
73	197	567
74	536	190
75	699	873
76	909	991
77	876	673
78	917	464
79	311	99
80	788	457
81	996	432
82	222	18
83	389	62
84	806	718
85	413	648
86	105	254
87	266	843
88	875	168
89	836	899
90	759	879
91	349	28
92	666	994
93	140	884
94	418	421
95	320	606
96	672	713
97	288	224
98	105	682
99	437	878
100	467	679
101	501	437
102	337	553
103	443	49
104	317	865
105	170	856
106	366	583
107	30	315
108	939	973
109	83	377
110	265	858
111	880	563
112	128	172
113	50	446
114	241	665
115	707	991
116	706	108
117	332	548
118	617	263
119	206	884
120	676	739
121	601	24
122	626	33
123	819	353
124	560	696
125	856	329
126	448	779
127	630	562
128	953	839
129	647	689
130	608	492
131	2	862
132	86	575
133	133	150
134	401	29
135	699	745
136	524	721
137	404	193
138	515	858
139	875	474
140	862	478
141	405	308
142	407	578
143	585	929
144	786	246
145	537	891
146	662	561
147	929	953
148	354	530
149	838	102
150	379	610
151	517	981
152	650	178
153	978	277
154	677	221
155	677	215
156	187	54
157	880	254
158	512	866
159	824	112
160	329	808
161	884	602
162	655	408
163	497	704
164	19	186
165	932	0
166	248	567
167	670	352
168	178	630
169	44	895
170	265	179
171	366	246
172	103	572
173	583	539
174	550	721
175	521	20
176	43	525
177	787	443
178	664	781
179	499	648
180	463	280
181	931	458
182	163	875
183	640	54
184	633	304
185	136	415
186	545	901
187	665	338
188	972	831
189	16	561
190	498	101
191	724	237
192	344	264
193	854	653
194	734	997
195	104	870
196	692	34
197	390	956
198	836	384
199	964	737
200	266	429
201	592	469
202	382	90
203	850	12
204	844	780
205	681	178
206	69	316
207	915	289
208	857	135
209	899	88
210	629	652
211	336	196
212	672	623
213	625	70
214	74	527
215	512	916
216	958	813
217	652	260
218	29	354
219	477	837
220	804	948
221	23	955
222	956	674
223	386	331
224	591	592
225	651	327
226	912	539
227	966	999
228	803	413
229	893	642
230	872	878
231	333	48
232	300	614
233	145	539
234	190	76
235	324	41
236	550	656
237	670	969
238	321	184
239	222	906
240	8	580
241	287	902
242	892	463
243	134	186
244	981	631
245	593	808
246	962	156
247	884	947
248	443	365
249	824	714
250	689	34
251	418	612
252	759	84
253	70	88
254	560	246
255	611	413
256	62	414
257	104	55
258	675	572
259	271	195
260	640	582
261	877	788
262	557	878
263	685	139
264	624	479
265	444	925
266	313	60
267	805	728
268	132	874
269	541	990
270	418	745
271	299	963
272	723	348
273	77	504
274	10	650
275	809	235
276	276	631
277	725	960
278	982	10
279	674	857
280	872	738
281	32	89
282	75	730
283	681	650
284	701	982
285	981	469
286	397	774
287	397	416
288	674	763
289	877	284
290	527	322
291	433	697
292	412	517
293	821	865
294	387	72
295	777	401
296	24	259
297	659	990
298	70	242
299	247	778
300	426	686
301	318	334
302	507	878
303	49	939
304	890	84
305	470	217
306	40	702
307	325	137
308	196	367
309	587	335
310	681	854
311	923	21
312	769	575
313	551	829
314	703	23
315	172	358
316	151	25
317	687	172
318	163	641
319	894	600
320	961	596
321	366	935
322	162	344
323	519	1
324	744	383
325	196	913
326	968	112
327	519	850
328	562	849
329	362	531
330	314	517
331	49	830
332	291	358
333	730	14
334	739	1
335	540	530
336	491	611
337	81	282
338	115	980
339	435	645
340	915	596
341	78	905
342	868	159
343	258	431
344	516	351
345	824	237
346	402	798
347	155	536
348	206	886
349	745	138
350	412	530
351	809	917
352	430	7
353	302	646
354	891	879
355	524	192
356	989	870
357	816	98
358	317	743
359	455	540
360	125	582
361	713	784
362	132	130
363	757	439
364	25	149
365	356	844
366	362	984
367	53	657
368	568	994
369	62	55
370	25	321
371	597	484
372	874	583
373	228	246
374	513	644
375	836	570
376	558	685
377	683	508
378	54	836
379	484	232
380	542	412
381	701	101
382	860	917
383	546	403
384	381	954
385	63	244
386	533	621
387	171	568
388	858	548
389	874	875
390	729	313
391	619	328
392	174	954
393	179	947
394	912	359
395	167	909
396	666	311
397	544	839
398	812	423
399	320	257
400	912	258
401	659	593
402	411	897
403	931	781
404	413	7
405	675	237
406	293	463
407	738	29
408	607	259
409	800	645
410	484	700
411	978	385
412	505	954
413	737	317
414	179	310
415	740	809
416	975	356
417	179	261
418	549	969
419	498	52
420	444	907
421	774	814
422	558	490
423	350	145
424	814	609
425	260	705
426	956	108
427	273	344
428	267	192
429	133	163
430	20	894
431	72	835
432	415	364
433	968	836
434	668	493
435	160	69
436	921	605
437	264	646
438	756	619
439	696	349
440	30	976
441	715	942
442	172	731
443	118	920
444	748	751
445	244	217
446	977	870
447	638	251
448	784	548
449	179	631
450	9	356
451	464	487
452	476	669
453	523	719
454	654	11
455	245	561
456	740	668
457	195	309
458	152	405
459	908	951
460	134	719
461	156	534
462	442	643
463	872	977
464	327	270
465	361	324
466	486	584
467	593	478
468	620	977
469	193	515
470	353	145
471	552	772
472	864	950
473	284	985
474	55	275
475	992	134
476	983	658
477	910	840
478	852	569
479	866	614
480	598	278
481	869	604
482	483	585
483	102	656
484	708	211
485	595	836
486	463	573
487	837	171
488	384	469
489	802	245
490	3	510
491	519	126
492	563	412
493	502	436
494	789	392
495	620	57
496	798	428
497	528	464
498	162	657
499	681	839
500	412	860
501	612	731
DEMAND_SECTION
1	0
2	8
3	4
4	6
5	7
6	3
7	4
8	3
9	5
10	5
11	4
12	7
13	4
14	9
15	1
16	4
17	1
18	3
19	5
20	8
21	5
22	8
23	1
24	7
25	8
26	8
27	6
28	1
29	6
30	2
31	1
32	8
33	2
34	7
35	9
36	1
37	2
38	4
39	9
40	9
41	2
42	1
43	3
44	1
45	8
46	7
47	2
48	2
49	4
50	1
51	2
52	4
53	3
54	2
55	8
56	3
57	7
58	7
59	1
60	7
61	4
62	3
63	5
64	3
65	8
66	8
67	1
68	8
69	5
70	7
71	4
72	8
73	1
74	5
75	9
76	7
77	9
78	8
79	1
80	2
81	2
82	5
83	3
84	6
85	5
86	5
87	5
88	6
89	7
90	2
91	7
92	1
93	7
94	5
95	9
96	3
97	7
98	9
99	7
100	5
101	9
102	9
103	1
104	7
105	7
106	5
107	6
108	1
109	2
110	3
111	1
112	6
113	4
114	3
115	6
116	3
117	7
118	7
119	1
120	6
121	8
122	8
123	1
124	3
125	4
126	5
127	4
128	3
129	6
130	3
131	6
132	3
133	6
134	8
135	7
136	6
137	2
138	6
139	1
140	5
141	6
142	3
143	8
144	4
145	3
146	1
147	5
148	9
149	5
150	2
151	3
152	1
153	8
154	1
155	1
156	2
157	8
158	7
159	1
160	2
161	4
162	4
163	8
164	7
165	9
166	2
167	5
168	6
169	6
170	2
171	3
172	8
173	7
174	4
175	4
176	7
177	8
178	1
179	7
180	9
181	2
182	8
183	6
184	9
185	3
186	2
187	8
188	7
189	6
190	6
191	4
192	9
193	5
194	1
195	8
196	5
197	3
198	5
199	6
200	2
201	2
202	4
203	9
204	4
205	2
206	6
207	1
208	9
209	7
210	7
211	5
212	2
213	3
214	1
215	8
216	7
217	5
218	5
219	6
220	3
221	3
222	9
223	3
224	7
225	5
226	4
227	6
228	1
229	8
230	5
231	2
232	5
233	5
234	3
235	9
236	5
237	5
238	2
239	6
240	5
241	6
242	2
243	4
244	7
245	7
246	8
247	1
248	7
249	3
250	9
251	7
252	8
253	8
254	7
255	3
256	7
257	6
258	5
259	7
260	6
261	5
262	4
263	5
264	6
265	7
266	6
267	4
268	9
269	2
270	4
271	3
272	9
273	7
274	3
275	6
276	9
277	4
278	3
279	9
280	6
281	3
282	9
283	2
284	2
285	9
286	5
287	5
288	1
289	8
290	4
291	9
292	7
293	3
294	5
295	3
296	9
297	1
298	2
299	4
300	4
301	9
302	6
303	3
304	4
305	1
306	5
307	2
308	3
309	5
310	2
311	7
312	6
313	7
314	7
315	1
316	2
317	4
318	2
319	2
320	9
321	6
322	9
323	3
324	7
325	9
326	7
327	5
328	5
329	2
330	9
331	5
332	2
333	8
334	2
335	2
336	7
337	2
338	5
339	6
340	1
341	5
342	3
343	7
344	9
345	3
346	7
347	4
348	8
349	1
350	8
351	9
352	4
353	1
354	8
355	3
356	3
357	7
358	2
359	6
360	6
361	7
362	4
363	5
364	9
365	8
366	4
367	4
368	9
369	3
370	8
371	9
372	1
373	1
374	9
375	2
376	3
377	8
378	5
379	3
380	3
381	3
382	2
383	2
384	1
385	6
386	6
387	2
388	3
389	4
390	9
391	9
392	9
393	2
394	4
395	7
396	7
397	7
398	1
399	3
400	1
401	2
402	7
403	4
404	7
405	9
406	5
407	4
408	4
409	5
410	4
411	3
412	4
413	4
414	1
415	2
416	1
417	1
418	6
419	1
420	6
421	2
422	3
423	8
424	2
425	7
426	9
427	6
428	8
429	8
430	5
431	8
432	6
433	4
434	5
435	1
436	8
437	2
438	1
439	6
440	8
441	4
442	5
443	5
444	4
445	2
446	7
447	1
448	1
449	3
450	2
451	2
452	9
453	8
454	8
455	6
456	9
457	1
458	9
459	2
460	1
461	9
462	3
463	8
464	3
465	1
466	6
467	7
468	3
469	1
470	6
471	8
472	6
473	8
474	3
475	6
476	2
477	3
478	9
479	3
480	1
481	6
482	1
483	7
484	2
485	7
486	1
487	9
488	6
489	8
490	8
491	2
492	2
493	9
494	3
495	5
496	1
497	3
498	7
499	2
500	7
501	9
BACKHAUL_SECTION
11	12	19	28	36	45	46	47	48	57	59	68	69	75	78	88	97	100	104	109	111	115	119	122	124	129	135	137	139	142	143	144	148	149	160	161	162	169	176	188	191	200	215	222	223	226	228	234	241	244	245	254	258	259	262	264	266	270	274	277	279	284	291	308	309	314	325	329	332	349	353	357	362	371	376	388	391	404	410	413	414	419	428	432	436	441	447	450	454	461	462	463	468	469	474	478	485	489	490	495	-1
DEPOT_SECTION
1
-1
EOF
