NAME : n501-0035
COMMENT : "Generated by pyvrp_manuel (OVRPBL)"
TYPE : OVRPBL
DIMENSION : 501
EDGE_WEIGHT_TYPE : EUC_2D
CAPACITY : 100
VEHICLES : 500
OPEN_ROUTE : YES
DISTANCE : 3000
NODE_COORD_SECTION
1	633	328
2	774	867
3	749	751
4	942	341
5	389	746
6	640	774
7	851	115
8	699	70
9	236	532
10	358	373
11	578	710
12	366	326
13	118	961
14	418	300
15	653	682
16	544	713
17	548	978
18	216	556
19	524	712
20	933	724
21	395	895
22	896	389
23	77	687
24	656	496
25	10	711
26	81	573
27	636	50
28	889	173
29	313	488
30	370	129
31	573	793
32	403	593
33	704	986
34	419	103
35	943	118
36	551	93
37	945	21
38	972	909
39	730	747
40	374	213
41	340	709
42	702	709
43	924	226
44	87	215
45	530	37
46	755	447
47	93	726
48	206	770
49	359	710
50	956	651
51	816	3
52	793	325
53	818	681
54	684	913
55	883	124
56	901	968
57	408	575
58	256	635
59	187	81
60	936	136
61	329	506
62	91	911
63	891	689
64	535	745
65	114	193
66	387	111
67	607	349
68	701	825
69	236	732
70	337	943
71	485	174
72	550	585
73	722	182
74	739	967
75	790	111
76	941	700
77	216	455
78	574	458
79	623	497
80	580	495
81	737	258
82	211	529
83	128	537
84	604	368
85	854	64
86	53	996
87	30	742
88	766	399
89	484	346
90	470	448
91	56	186
92	282	219
93	671	848
94	232	372
95	953	304
96	155	250
97	357	417
98	920	381
99	767	325
100	684	272
101	552	774
102	145	969
103	805	732
104	269	349
105	388	89
106	912	57
107	843	611
108	258	856
109	752	542
110	739	257
111	206	711
112	130	31
113	302	448
114	552	360
115	894	219
116	882	420
117	687	187
118	803	70
119	908	382
120	356	487
121	482	706
122	317	360
123	400	727
124	686	474
125	39	9
126	537	657
127	600	69
128	286	666
129	427	335
130	170	936
131	710	484
132	62	108
133	190	762
134	451	395
135	916	579
136	909	188
137	169	987
138	854	107
139	614	483
140	609	305
141	677	516
142	69	635
143	299	808
144	967	984
145	322	520
146	861	406
147	851	965
148	331	393
149	387	143
150	462	644
151	99	321
152	475	4
153	32	975
154	907	685
155	337	949
156	312	824
157	310	224
158	772	635
159	554	68
160	918	423
161	178	222
162	938	883
163	741	862
164	797	636
165	127	774
166	825	819
167	247	884
168	369	106
169	337	422
170	658	960
171	882	246
172	550	167
173	600	165
174	944	547
175	345	899
176	156	605
177	992	304
178	645	946
179	418	141
180	732	741
181	62	113
182	810	38
183	473	979
184	594	488
185	971	227
186	95	410
187	15	75
188	579	585
189	482	930
190	573	470
191	570	933
192	714	301
193	107	822
194	595	673
195	568	209
196	384	906
197	992	5
198	525	545
199	243	641
200	402	785
201	550	722
202	526	717
203	314	867
204	76	845
205	653	758
206	589	939
207	510	804
208	63	909
209	122	451
210	950	357
211	222	164
212	217	77
213	13	384
214	613	251
215	971	332
216	983	201
217	561	640
218	226	519
219	473	663
220	130	436
221	502	415
222	713	855
223	702	194
224	15	199
225	969	767
226	742	611
227	842	438
228	63	946
229	312	424
230	496	864
231	806	936
232	845	481
233	375	600
234	958	256
235	547	875
236	245	462
237	376	986
238	538	823
239	565	607
240	126	151
241	370	555
242	592	487
243	628	565
244	489	796
245	861	569
246	482	686
247	510	28
248	97	20
249	705	669
250	54	286
251	871	549
252	842	937
253	608	138
254	426	485
255	444	202
256	474	975
257	673	238
258	952	742
259	434	791
260	654	743
261	843	443
262	384	746
263	137	130
264	785	168
265	896	310
266	367	606
267	646	912
268	55	914
269	765	974
270	127	970
271	8	726
272	478	37
273	155	393
274	677	942
275	475	959
276	200	406
277	282	929
278	400	417
279	836	787
280	568	152
281	485	390
282	594	261
283	330	684
284	961	728
285	412	530
286	2	548
287	622	679
288	634	141
289	220	976
290	993	697
291	262	467
292	640	949
293	188	622
294	655	686
295	895	457
296	646	104
297	890	86
298	5	338
299	773	669
300	940	984
301	379	951
302	139	296
303	119	511
304	337	307
305	636	312
306	813	730
307	508	159
308	57	886
309	206	594
310	995	259
311	571	509
312	689	282
313	364	752
314	41	471
315	531	133
316	458	950
317	324	128
318	605	917
319	57	665
320	348	420
321	995	615
322	565	535
323	856	848
324	884	660
325	146	889
326	866	422
327	193	613
328	957	697
329	944	831
330	328	899
331	322	951
332	933	419
333	935	838
334	880	958
335	669	599
336	304	602
337	49	731
338	28	197
339	281	557
340	945	851
341	778	556
342	100	565
343	345	234
344	387	794
345	760	631
346	675	801
347	175	6
348	574	690
349	203	661
350	745	427
351	232	688
352	539	848
353	763	725
354	394	635
355	741	966
356	574	992
357	118	791
358	843	178
359	887	174
360	955	189
361	731	934
362	209	168
363	670	874
364	643	462
365	892	530
366	920	473
367	973	964
368	882	387
369	818	986
370	605	895
371	10	60
372	195	134
373	209	807
374	477	862
375	757	721
376	562	253
377	971	296
378	524	156
379	107	121
380	813	121
381	994	934
382	364	22
383	148	255
384	252	688
385	917	208
386	628	202
387	787	150
388	810	757
389	512	720
390	918	937
391	918	416
392	23	369
393	161	664
394	67	617
395	814	80
396	441	187
397	519	143
398	941	244
399	10	431
400	128	771
401	433	41
402	426	553
403	909	438
404	755	83
405	404	197
406	386	663
407	297	235
408	463	741
409	891	138
410	38	704
411	179	55
412	10	211
413	873	658
414	442	307
415	894	653
416	188	256
417	206	812
418	235	146
419	782	872
420	500	294
421	428	929
422	43	625
423	388	950
424	865	196
425	708	733
426	265	288
427	473	391
428	833	357
429	693	301
430	501	856
431	801	603
432	736	639
433	336	979
434	860	162
435	766	828
436	732	408
437	546	910
438	985	589
439	672	915
440	575	645
441	852	691
442	587	19
443	606	784
444	298	888
445	955	751
446	573	469
447	308	582
448	797	609
449	460	232
450	177	657
451	685	498
452	11	53
453	887	563
454	468	110
455	559	205
456	907	249
457	810	70
458	527	806
459	936	805
460	714	515
461	681	271
462	358	689
463	980	781
464	165	35
465	242	763
466	314	320
467	135	881
468	505	998
469	612	341
470	426	126
471	901	182
472	651	983
473	259	191
474	897	346
475	301	111
476	960	297
477	326	458
478	714	684
479	163	755
480	811	398
481	126	356
482	278	159
483	866	921
484	645	360
485	368	363
486	574	418
487	22	928
488	749	247
489	786	180
490	114	542
491	905	75
492	180	275
493	120	116
494	718	10
495	339	788
496	50	233
497	734	85
498	444	726
499	233	427
500	36	663
501	362	786
DEMAND_SECTION
1	0
2	6
3	4
4	6
5	9
6	8
7	1
8	7
9	1
10	3
11	1
12	9
13	5
14	1
15	3
16	5
17	7
18	9
19	8
20	2
21	4
22	9
23	7
24	3
25	9
26	1
27	7
28	7
29	6
30	1
31	3
32	9
33	2
34	1
35	1
36	3
37	1
38	8
39	4
40	1
41	1
42	9
43	2
44	8
45	5
46	5
47	8
48	1
49	2
50	7
51	4
52	9
53	8
54	3
55	5
56	7
57	5
58	1
59	4
60	3
61	1
62	3
63	2
64	6
65	8
66	8
67	3
68	7
69	8
70	3
71	9
72	8
73	7
74	9
75	9
76	5
77	6
78	1
79	2
80	5
81	2
82	2
83	6
84	7
85	3
86	1
87	6
88	3
89	8
90	7
91	3
92	4
93	3
94	2
95	2
96	2
97	5
98	7
99	5
100	7
101	4
102	7
103	4
104	9
105	3
106	9
107	1
108	6
109	3
110	4
111	9
112	9
113	4
114	8
115	5
116	1
117	4
118	3
119	5
120	8
121	7
122	3
123	4
124	7
125	2
126	9
127	6
128	3
129	9
130	1
131	1
132	8
133	4
134	7
135	2
136	3
137	4
138	8
139	9
140	1
141	6
142	8
143	1
144	7
145	4
146	1
147	6
148	3
149	2
150	5
151	8
152	3
153	9
154	8
155	9
156	7
157	5
158	3
159	1
160	5
161	1
162	8
163	6
164	7
165	6
166	4
167	8
168	2
169	2
170	8
171	5
172	8
173	9
174	6
175	3
176	8
177	6
178	5
179	3
180	3
181	4
182	2
183	9
184	6
185	7
186	3
187	4
188	6
189	1
190	4
191	4
192	2
193	6
194	4
195	5
196	8
197	5
198	6
199	2
200	7
201	2
202	6
203	5
204	8
205	5
206	3
207	6
208	9
209	8
210	8
211	6
212	4
213	7
214	9
215	9
216	7
217	3
218	6
219	4
220	7
221	6
222	7
223	9
224	1
225	6
226	9
227	4
228	5
229	9
230	3
231	1
232	7
233	8
234	6
235	9
236	2
237	5
238	2
239	6
240	5
241	7
242	1
243	4
244	7
245	1
246	8
247	7
248	7
249	5
250	5
251	8
252	8
253	3
254	3
255	9
256	1
257	2
258	8
259	5
260	2
261	9
262	3
263	3
264	2
265	1
266	1
267	1
268	8
269	2
270	6
271	2
272	9
273	4
274	5
275	8
276	9
277	7
278	7
279	3
280	5
281	2
282	8
283	4
284	9
285	5
286	4
287	7
288	4
289	6
290	4
291	7
292	8
293	8
294	9
295	5
296	2
297	1
298	8
299	2
300	1
301	7
302	1
303	4
304	4
305	4
306	3
307	6
308	3
309	9
310	9
311	4
312	8
313	8
314	4
315	7
316	3
317	5
318	6
319	2
320	1
321	4
322	7
323	6
324	3
325	3
326	3
327	3
328	1
329	6
330	1
331	9
332	3
333	3
334	7
335	2
336	5
337	2
338	3
339	2
340	7
341	7
342	4
343	5
344	6
345	4
346	6
347	5
348	1
349	1
350	1
351	8
352	4
353	8
354	6
355	2
356	7
357	9
358	5
359	1
360	8
361	2
362	4
363	3
364	7
365	7
366	3
367	3
368	9
369	8
370	2
371	8
372	1
373	4
374	3
375	7
376	8
377	6
378	5
379	3
380	3
381	4
382	1
383	2
384	9
385	5
386	4
387	2
388	9
389	6
390	2
391	3
392	1
393	6
394	1
395	8
396	9
397	1
398	3
399	7
400	3
401	8
402	9
403	7
404	3
405	7
406	3
407	3
408	1
409	3
410	7
411	1
412	2
413	5
414	9
415	9
416	1
417	8
418	9
419	6
420	5
421	3
422	6
423	8
424	5
425	3
426	9
427	9
428	1
429	7
430	1
431	9
432	5
433	4
434	8
435	4
436	6
437	2
438	2
439	3
440	8
441	6
442	4
443	9
444	3
445	6
446	7
447	1
448	8
449	5
450	2
451	9
452	1
453	2
454	9
455	5
456	9
457	2
458	7
459	5
460	7
461	9
462	9
463	4
464	7
465	6
466	7
467	9
468	7
469	9
470	4
471	9
472	4
473	1
474	4
475	8
476	3
477	7
478	7
479	9
480	6
481	6
482	4
483	2
484	6
485	4
486	2
487	2
488	5
489	9
490	3
491	9
492	5
493	2
494	9
495	9
496	7
497	2
498	9
499	5
500	5
501	8
BACKHAUL_SECTION
11	12	19	28	36	45	46	47	48	57	59	68	69	75	78	88	97	100	104	109	111	115	119	122	124	129	135	137	139	142	143	144	148	149	160	161	162	169	176	188	191	200	215	222	223	226	228	234	241	244	245	254	258	259	262	264	266	270	274	277	279	284	291	308	309	314	325	329	332	349	353	357	362	371	376	388	391	404	410	413	414	419	428	432	436	441	447	450	454	461	462	463	468	469	474	478	485	489	490	495	-1
DEPOT_SECTION
1
-1
EOF
