NAME : n1001-0026
COMMENT : "Generated by pyvrp_manuel (OVRPL)"
TYPE : OVRPL
DIMENSION : 1001
EDGE_WEIGHT_TYPE : EUC_2D
CAPACITY : 150
VEHICLES : 1000
OPEN_ROUTE : YES
DISTANCE : 3000
NODE_COORD_SECTION
1	984	230
2	902	293
3	114	162
4	184	56
5	865	891
6	186	24
7	799	186
8	200	186
9	593	606
10	306	129
11	890	715
12	467	476
13	699	71
14	553	390
15	500	348
16	96	86
17	591	807
18	644	130
19	934	27
20	360	27
21	965	361
22	527	8
23	865	35
24	215	11
25	644	610
26	220	420
27	926	778
28	929	856
29	901	702
30	663	95
31	517	710
32	236	409
33	894	112
34	83	373
35	725	277
36	617	744
37	501	94
38	235	166
39	968	755
40	808	676
41	406	371
42	251	595
43	442	724
44	255	706
45	259	952
46	173	15
47	370	650
48	452	778
49	800	997
50	876	854
51	601	337
52	160	59
53	255	57
54	148	274
55	197	221
56	26	209
57	303	883
58	849	412
59	358	949
60	872	40
61	652	106
62	981	55
63	552	180
64	250	101
65	329	924
66	894	151
67	392	2
68	62	726
69	399	68
70	735	20
71	485	954
72	512	73
73	268	1
74	344	286
75	453	538
76	430	969
77	702	280
78	28	849
79	384	792
80	743	562
81	256	40
82	914	107
83	20	775
84	339	612
85	121	686
86	86	563
87	908	122
88	991	369
89	51	792
90	622	189
91	438	215
92	524	654
93	230	350
94	258	551
95	126	354
96	284	173
97	406	175
98	899	551
99	528	316
100	824	637
101	171	82
102	746	678
103	553	611
104	51	511
105	727	255
106	992	349
107	55	165
108	127	529
109	208	234
110	605	218
111	477	767
112	705	426
113	344	965
114	560	136
115	233	109
116	970	489
117	49	905
118	889	261
119	269	170
120	71	869
121	398	218
122	472	377
123	697	351
124	432	606
125	521	378
126	159	111
127	406	824
128	650	949
129	800	416
130	752	970
131	396	108
132	878	93
133	455	605
134	478	877
135	170	23
136	389	153
137	635	664
138	559	10
139	897	296
140	838	140
141	199	381
142	530	368
143	494	484
144	945	141
145	561	836
146	738	673
147	448	422
148	211	845
149	876	248
150	767	414
151	318	735
152	68	908
153	927	84
154	745	522
155	229	972
156	381	425
157	572	475
158	959	232
159	545	720
160	820	198
161	454	549
162	631	930
163	568	125
164	913	143
165	907	57
166	770	45
167	774	665
168	155	342
169	820	862
170	161	966
171	187	506
172	143	367
173	792	948
174	672	355
175	11	417
176	794	342
177	317	912
178	82	152
179	471	615
180	615	318
181	303	564
182	692	940
183	638	289
184	526	857
185	734	1
186	202	277
187	241	338
188	796	374
189	410	986
190	413	359
191	785	139
192	46	708
193	198	31
194	158	502
195	976	531
196	896	707
197	595	179
198	535	198
199	380	560
200	964	141
201	200	868
202	48	781
203	395	350
204	568	597
205	91	127
206	425	240
207	535	376
208	910	249
209	962	900
210	886	512
211	853	324
212	642	611
213	753	761
214	499	856
215	498	261
216	72	517
217	752	416
218	595	484
219	284	755
220	588	285
221	638	556
222	888	427
223	78	630
224	634	572
225	346	958
226	413	20
227	797	386
228	273	658
229	289	527
230	916	791
231	305	210
232	593	572
233	667	344
234	561	145
235	32	373
236	807	799
237	57	852
238	358	598
239	526	830
240	768	374
241	195	74
242	40	955
243	22	763
244	272	10
245	352	919
246	769	425
247	824	408
248	436	897
249	545	75
250	3	847
251	639	973
252	880	369
253	399	725
254	963	699
255	57	609
256	327	715
257	280	713
258	53	616
259	503	663
260	190	29
261	290	743
262	190	972
263	986	632
264	968	581
265	583	70
266	37	560
267	681	166
268	93	460
269	631	684
270	650	128
271	609	867
272	456	403
273	463	791
274	680	377
275	19	142
276	294	364
277	444	669
278	284	617
279	428	186
280	905	217
281	142	50
282	451	507
283	447	750
284	799	500
285	417	897
286	659	886
287	205	114
288	176	734
289	842	483
290	829	947
291	557	116
292	313	24
293	36	9
294	394	61
295	62	603
296	102	536
297	180	653
298	841	384
299	110	137
300	16	873
301	403	747
302	166	342
303	525	94
304	381	400
305	300	524
306	149	289
307	402	824
308	355	402
309	163	950
310	707	241
311	604	725
312	623	114
313	132	669
314	738	559
315	125	189
316	449	666
317	909	462
318	113	880
319	747	773
320	270	697
321	197	260
322	524	892
323	386	891
324	124	380
325	54	875
326	73	593
327	335	2
328	203	795
329	941	560
330	684	896
331	391	708
332	714	400
333	434	722
334	769	102
335	432	838
336	753	432
337	963	361
338	623	264
339	261	590
340	574	239
341	945	500
342	565	953
343	670	996
344	790	953
345	305	167
346	684	130
347	266	253
348	781	541
349	42	363
350	517	850
351	179	72
352	652	686
353	961	405
354	835	790
355	959	704
356	360	221
357	59	472
358	558	795
359	988	792
360	578	262
361	163	650
362	81	63
363	13	134
364	385	573
365	891	873
366	100	768
367	543	291
368	320	698
369	592	11
370	256	231
371	947	490
372	531	904
373	209	874
374	825	906
375	768	124
376	738	855
377	127	430
378	587	348
379	779	779
380	872	411
381	361	594
382	161	628
383	677	435
384	826	309
385	685	481
386	283	37
387	459	61
388	771	855
389	908	290
390	781	615
391	730	860
392	324	734
393	391	612
394	928	511
395	65	655
396	49	342
397	265	431
398	705	685
399	377	967
400	477	715
401	958	104
402	845	248
403	292	560
404	646	819
405	889	536
406	262	742
407	321	146
408	458	423
409	821	55
410	771	375
411	104	962
412	209	803
413	780	398
414	543	80
415	176	45
416	385	136
417	732	412
418	62	820
419	685	842
420	771	243
421	441	581
422	623	697
423	894	668
424	963	831
425	423	706
426	234	78
427	186	706
428	774	756
429	803	200
430	954	552
431	852	499
432	83	578
433	956	777
434	649	388
435	909	308
436	184	980
437	256	986
438	655	684
439	136	221
440	122	892
441	988	867
442	151	599
443	170	444
444	950	504
445	997	978
446	177	175
447	63	661
448	430	162
449	675	559
450	663	340
451	171	75
452	433	770
453	995	636
454	938	861
455	239	590
456	331	144
457	211	353
458	892	303
459	825	431
460	728	352
461	165	365
462	752	708
463	532	569
464	278	254
465	715	120
466	205	522
467	249	391
468	417	96
469	841	47
470	703	141
471	36	654
472	76	969
473	138	698
474	319	985
475	263	357
476	131	610
477	501	438
478	493	531
479	805	324
480	952	896
481	982	446
482	892	77
483	124	310
484	927	696
485	648	769
486	126	501
487	346	3
488	933	831
489	429	944
490	851	468
491	535	399
492	441	339
493	31	819
494	410	372
495	728	448
496	963	50
497	568	16
498	611	796
499	998	914
500	855	235
501	145	862
502	821	317
503	398	625
504	967	244
505	267	29
506	275	562
507	108	185
508	599	373
509	742	40
510	430	409
511	570	895
512	329	422
513	833	995
514	173	650
515	43	864
516	433	403
517	521	579
518	889	649
519	187	102
520	811	848
521	988	41
522	290	691
523	332	208
524	113	56
525	836	281
526	259	425
527	4	885
528	955	516
529	33	621
530	988	907
531	172	30
532	381	954
533	78	629
534	704	802
535	486	192
536	242	462
537	182	92
538	618	253
539	915	929
540	28	342
541	296	754
542	3	233
543	71	258
544	246	732
545	812	143
546	463	588
547	737	509
548	873	473
549	609	659
550	451	683
551	902	298
552	513	272
553	663	933
554	338	332
555	835	568
556	105	354
557	106	268
558	170	121
559	605	841
560	730	185
561	28	802
562	703	370
563	490	431
564	7	870
565	84	505
566	505	715
567	726	495
568	307	921
569	444	527
570	90	754
571	706	352
572	761	870
573	638	209
574	326	653
575	545	997
576	234	703
577	957	653
578	638	127
579	193	935
580	552	156
581	148	621
582	208	686
583	992	724
584	529	257
585	596	385
586	128	670
587	402	25
588	834	837
589	739	680
590	200	780
591	47	532
592	710	529
593	930	530
594	970	260
595	167	829
596	419	163
597	689	980
598	58	166
599	428	803
600	7	266
601	426	310
602	365	661
603	647	897
604	945	684
605	283	585
606	209	148
607	219	232
608	729	207
609	668	253
610	347	751
611	497	329
612	786	776
613	960	121
614	616	187
615	27	838
616	203	123
617	817	439
618	954	20
619	485	879
620	626	247
621	915	783
622	738	52
623	355	404
624	377	629
625	367	194
626	321	957
627	499	435
628	143	168
629	444	514
630	215	262
631	234	464
632	798	358
633	458	903
634	278	649
635	620	71
636	613	561
637	67	394
638	365	17
639	412	657
640	51	977
641	76	107
642	996	149
643	607	463
644	456	613
645	606	304
646	284	298
647	398	124
648	579	394
649	879	849
650	700	427
651	33	12
652	533	589
653	857	985
654	950	828
655	168	366
656	703	736
657	723	461
658	986	607
659	956	475
660	612	259
661	831	556
662	128	986
663	862	59
664	550	419
665	53	911
666	744	26
667	13	65
668	935	195
669	336	1000
670	154	46
671	464	226
672	672	843
673	15	306
674	833	259
675	764	934
676	579	201
677	397	742
678	479	938
679	765	534
680	435	451
681	754	607
682	962	469
683	148	899
684	592	674
685	880	342
686	977	592
687	474	100
688	894	290
689	674	209
690	915	518
691	550	707
692	752	994
693	954	607
694	640	451
695	56	741
696	290	773
697	530	190
698	812	163
699	557	209
700	364	622
701	647	11
702	662	79
703	893	695
704	551	654
705	491	928
706	71	209
707	318	525
708	760	553
709	470	953
710	289	576
711	779	801
712	860	906
713	79	29
714	120	596
715	802	95
716	969	254
717	188	945
718	608	693
719	316	522
720	67	326
721	508	163
722	139	558
723	355	575
724	844	328
725	226	593
726	392	567
727	735	222
728	974	572
729	772	183
730	651	577
731	660	9
732	966	771
733	932	775
734	398	549
735	116	321
736	671	637
737	591	375
738	158	788
739	897	761
740	678	168
741	633	799
742	45	534
743	828	853
744	669	795
745	651	781
746	1000	656
747	553	395
748	445	980
749	748	609
750	388	247
751	761	885
752	52	955
753	501	697
754	950	253
755	495	98
756	48	958
757	323	622
758	19	462
759	477	303
760	527	597
761	525	596
762	206	234
763	168	532
764	179	276
765	726	581
766	15	545
767	480	787
768	231	635
769	472	79
770	458	633
771	761	544
772	457	290
773	261	653
774	195	729
775	145	760
776	220	358
777	822	860
778	89	497
779	245	493
780	403	887
781	125	983
782	152	635
783	463	54
784	793	20
785	238	196
786	575	153
787	756	507
788	644	851
789	81	866
790	736	969
791	482	210
792	851	986
793	459	360
794	938	875
795	617	962
796	693	809
797	826	758
798	539	994
799	552	687
800	160	302
801	996	520
802	761	248
803	134	987
804	773	6
805	641	669
806	926	525
807	251	494
808	487	369
809	34	591
810	802	664
811	460	465
812	103	573
813	269	367
814	146	14
815	457	1000
816	319	315
817	654	235
818	570	59
819	633	338
820	239	304
821	471	474
822	558	53
823	68	715
824	175	841
825	503	525
826	305	31
827	211	229
828	492	443
829	565	945
830	407	434
831	695	696
832	708	671
833	468	32
834	130	30
835	768	405
836	830	220
837	70	688
838	821	479
839	539	725
840	271	261
841	837	262
842	845	697
843	991	618
844	555	870
845	324	93
846	626	36
847	160	848
848	833	367
849	27	52
850	613	936
851	356	976
852	505	977
853	427	71
854	917	458
855	493	578
856	325	342
857	82	916
858	107	451
859	138	235
860	778	602
861	590	196
862	285	466
863	314	131
864	13	362
865	761	878
866	984	190
867	139	804
868	119	867
869	111	813
870	468	131
871	146	736
872	446	566
873	832	235
874	553	850
875	745	264
876	73	327
877	223	795
878	379	855
879	567	433
880	750	23
881	863	666
882	575	750
883	422	622
884	330	92
885	754	63
886	336	131
887	189	816
888	69	247
889	60	198
890	920	416
891	386	381
892	890	345
893	690	319
894	271	628
895	141	811
896	979	270
897	979	46
898	83	940
899	731	137
900	425	541
901	621	151
902	63	450
903	864	30
904	66	186
905	923	364
906	586	340
907	409	581
908	209	960
909	318	664
910	581	641
911	341	872
912	406	946
913	618	565
914	17	378
915	286	863
916	370	365
917	272	568
918	122	223
919	678	285
920	244	477
921	544	613
922	422	84
923	301	49
924	611	170
925	369	255
926	33	361
927	508	681
928	684	688
929	501	720
930	242	616
931	422	822
932	423	460
933	582	342
934	621	683
935	630	292
936	299	986
937	294	553
938	379	844
939	150	209
940	76	304
941	315	810
942	246	529
943	157	505
944	424	400
945	671	379
946	812	962
947	517	630
948	307	195
949	939	494
950	457	493
951	182	287
952	578	47
953	880	710
954	70	963
955	138	404
956	401	681
957	360	361
958	863	336
959	157	842
960	326	117
961	281	693
962	775	36
963	8	900
964	623	513
965	179	952
966	565	170
967	114	967
968	974	725
969	466	141
970	620	153
971	240	165
972	833	45
973	507	394
974	281	631
975	36	830
976	169	108
977	589	716
978	563	530
979	820	74
980	359	732
981	645	835
982	88	381
983	972	284
984	767	350
985	186	120
986	545	972
987	588	817
988	198	249
989	194	963
990	480	56
991	466	491
992	594	204
993	171	530
994	147	177
995	653	402
996	596	96
997	498	965
998	395	613
999	444	676
1000	523	382
1001	285	947
DEMAND_SECTION
1	0
2	5
3	3
4	5
5	2
6	2
7	2
8	6
9	8
10	9
11	3
12	1
13	5
14	5
15	3
16	1
17	6
18	9
19	7
20	3
21	3
22	1
23	9
24	5
25	5
26	9
27	7
28	1
29	9
30	5
31	2
32	1
33	3
34	5
35	4
36	6
37	9
38	7
39	1
40	5
41	4
42	6
43	3
44	7
45	4
46	8
47	6
48	7
49	1
50	9
51	1
52	2
53	6
54	6
55	3
56	5
57	3
58	6
59	7
60	1
61	3
62	6
63	9
64	9
65	7
66	1
67	7
68	1
69	4
70	2
71	1
72	4
73	4
74	6
75	7
76	8
77	2
78	4
79	9
80	2
81	2
82	5
83	2
84	3
85	2
86	6
87	8
88	6
89	1
90	6
91	8
92	8
93	3
94	3
95	8
96	7
97	9
98	7
99	1
100	4
101	7
102	6
103	3
104	3
105	8
106	3
107	2
108	3
109	5
110	5
111	2
112	1
113	7
114	8
115	6
116	1
117	9
118	5
119	7
120	2
121	7
122	7
123	8
124	1
125	4
126	9
127	7
128	1
129	2
130	6
131	6
132	8
133	6
134	7
135	4
136	3
137	6
138	8
139	4
140	2
141	9
142	2
143	1
144	1
145	4
146	5
147	9
148	4
149	5
150	1
151	5
152	2
153	7
154	7
155	1
156	2
157	5
158	9
159	1
160	1
161	8
162	4
163	1
164	6
165	4
166	2
167	7
168	5
169	6
170	7
171	4
172	4
173	4
174	6
175	7
176	5
177	7
178	2
179	5
180	7
181	8
182	5
183	6
184	2
185	1
186	7
187	8
188	6
189	2
190	1
191	9
192	3
193	6
194	6
195	4
196	7
197	6
198	8
199	9
200	6
201	5
202	4
203	2
204	7
205	3
206	9
207	6
208	3
209	2
210	8
211	7
212	6
213	4
214	5
215	4
216	1
217	3
218	4
219	6
220	1
221	5
222	7
223	4
224	7
225	1
226	4
227	7
228	9
229	3
230	1
231	4
232	7
233	5
234	1
235	4
236	7
237	3
238	7
239	1
240	7
241	1
242	7
243	1
244	6
245	5
246	7
247	9
248	7
249	2
250	5
251	1
252	2
253	9
254	6
255	2
256	3
257	8
258	6
259	6
260	9
261	8
262	1
263	7
264	5
265	3
266	3
267	7
268	7
269	1
270	3
271	9
272	9
273	2
274	9
275	7
276	4
277	2
278	5
279	2
280	5
281	5
282	1
283	2
284	1
285	7
286	2
287	2
288	3
289	6
290	2
291	9
292	4
293	1
294	2
295	2
296	6
297	5
298	6
299	5
300	3
301	9
302	6
303	3
304	6
305	8
306	3
307	3
308	3
309	5
310	7
311	8
312	8
313	2
314	7
315	8
316	3
317	3
318	8
319	7
320	1
321	5
322	3
323	9
324	8
325	9
326	4
327	6
328	2
329	2
330	4
331	9
332	9
333	2
334	9
335	8
336	6
337	6
338	1
339	8
340	3
341	5
342	6
343	9
344	5
345	5
346	6
347	9
348	5
349	2
350	9
351	4
352	1
353	4
354	9
355	9
356	7
357	4
358	2
359	8
360	2
361	1
362	2
363	6
364	2
365	8
366	9
367	9
368	4
369	5
370	5
371	1
372	7
373	2
374	1
375	9
376	4
377	5
378	6
379	3
380	5
381	8
382	6
383	2
384	4
385	1
386	2
387	1
388	7
389	5
390	5
391	6
392	2
393	5
394	3
395	3
396	4
397	6
398	8
399	5
400	3
401	1
402	3
403	7
404	4
405	2
406	1
407	1
408	9
409	6
410	6
411	1
412	5
413	8
414	7
415	9
416	9
417	3
418	6
419	7
420	3
421	6
422	6
423	4
424	2
425	9
426	9
427	7
428	8
429	4
430	3
431	2
432	7
433	7
434	2
435	1
436	6
437	8
438	9
439	4
440	1
441	7
442	7
443	2
444	1
445	6
446	2
447	2
448	9
449	8
450	2
451	4
452	9
453	1
454	9
455	3
456	3
457	4
458	4
459	5
460	1
461	8
462	2
463	6
464	6
465	1
466	5
467	5
468	3
469	2
470	9
471	6
472	2
473	9
474	6
475	7
476	2
477	8
478	5
479	4
480	3
481	8
482	7
483	5
484	7
485	2
486	9
487	2
488	9
489	4
490	1
491	8
492	5
493	1
494	3
495	5
496	6
497	9
498	3
499	6
500	2
501	6
502	5
503	9
504	4
505	4
506	9
507	7
508	4
509	6
510	9
511	5
512	8
513	9
514	2
515	5
516	1
517	6
518	1
519	6
520	4
521	1
522	2
523	6
524	6
525	4
526	8
527	7
528	1
529	2
530	8
531	7
532	4
533	4
534	2
535	8
536	7
537	6
538	7
539	7
540	7
541	6
542	8
543	2
544	2
545	5
546	2
547	5
548	1
549	6
550	5
551	2
552	8
553	8
554	6
555	8
556	1
557	9
558	2
559	4
560	9
561	3
562	6
563	2
564	4
565	1
566	9
567	3
568	9
569	1
570	5
571	4
572	3
573	7
574	9
575	7
576	5
577	8
578	8
579	4
580	5
581	4
582	3
583	6
584	3
585	8
586	5
587	8
588	8
589	5
590	3
591	1
592	1
593	9
594	1
595	9
596	1
597	5
598	8
599	4
600	8
601	6
602	1
603	3
604	6
605	2
606	1
607	3
608	2
609	8
610	2
611	4
612	7
613	4
614	6
615	3
616	2
617	5
618	8
619	6
620	4
621	8
622	3
623	6
624	7
625	5
626	4
627	7
628	7
629	1
630	2
631	9
632	2
633	7
634	6
635	1
636	1
637	3
638	2
639	4
640	5
641	9
642	2
643	3
644	6
645	9
646	5
647	8
648	5
649	8
650	1
651	7
652	8
653	7
654	7
655	4
656	2
657	4
658	5
659	4
660	3
661	8
662	6
663	6
664	9
665	5
666	3
667	1
668	2
669	3
670	7
671	9
672	3
673	3
674	2
675	6
676	6
677	2
678	4
679	6
680	9
681	3
682	1
683	4
684	1
685	1
686	3
687	7
688	3
689	4
690	8
691	3
692	9
693	1
694	6
695	5
696	5
697	7
698	9
699	3
700	6
701	5
702	1
703	7
704	9
705	9
706	7
707	4
708	4
709	6
710	2
711	4
712	3
713	9
714	4
715	2
716	5
717	2
718	8
719	5
720	2
721	4
722	2
723	8
724	8
725	6
726	4
727	5
728	2
729	3
730	5
731	7
732	8
733	6
734	3
735	3
736	9
737	1
738	8
739	4
740	7
741	8
742	4
743	5
744	2
745	2
746	2
747	3
748	4
749	7
750	1
751	8
752	2
753	5
754	6
755	7
756	2
757	7
758	5
759	6
760	1
761	2
762	6
763	1
764	5
765	2
766	5
767	3
768	1
769	4
770	2
771	8
772	7
773	7
774	8
775	6
776	6
777	8
778	2
779	2
780	6
781	7
782	4
783	2
784	1
785	1
786	3
787	1
788	4
789	5
790	3
791	5
792	9
793	4
794	9
795	6
796	6
797	9
798	2
799	1
800	7
801	2
802	9
803	8
804	2
805	4
806	3
807	5
808	7
809	2
810	2
811	6
812	4
813	5
814	1
815	9
816	2
817	9
818	7
819	9
820	6
821	1
822	6
823	7
824	2
825	3
826	8
827	3
828	1
829	1
830	6
831	5
832	4
833	1
834	5
835	7
836	4
837	8
838	4
839	7
840	9
841	8
842	6
843	7
844	9
845	4
846	4
847	2
848	2
849	4
850	3
851	8
852	4
853	1
854	1
855	3
856	5
857	6
858	7
859	2
860	8
861	9
862	1
863	3
864	9
865	8
866	8
867	1
868	6
869	8
870	2
871	7
872	4
873	4
874	1
875	5
876	6
877	2
878	1
879	8
880	3
881	1
882	3
883	9
884	4
885	3
886	5
887	1
888	1
889	3
890	6
891	8
892	5
893	7
894	1
895	3
896	2
897	3
898	4
899	2
900	9
901	1
902	8
903	1
904	5
905	6
906	1
907	6
908	7
909	4
910	4
911	3
912	5
913	6
914	6
915	3
916	9
917	7
918	9
919	1
920	7
921	2
922	8
923	5
924	8
925	1
926	6
927	6
928	7
929	4
930	1
931	7
932	9
933	5
934	5
935	1
936	2
937	8
938	1
939	8
940	4
941	6
942	8
943	5
944	6
945	4
946	3
947	4
948	7
949	4
950	6
951	9
952	6
953	4
954	7
955	4
956	7
957	2
958	7
959	3
960	5
961	3
962	2
963	1
964	7
965	9
966	7
967	6
968	3
969	8
970	9
971	8
972	4
973	6
974	9
975	3
976	1
977	1
978	4
979	2
980	7
981	5
982	9
983	2
984	6
985	2
986	4
987	4
988	4
989	6
990	5
991	7
992	3
993	1
994	7
995	9
996	7
997	3
998	4
999	5
1000	9
1001	2
DEPOT_SECTION
1
-1
EOF
