NAME : n1001-0017
COMMENT : "Generated by pyvrp_manuel (OVRPL)"
TYPE : OVRPL
DIMENSION : 1001
EDGE_WEIGHT_TYPE : EUC_2D
CAPACITY : 150
VEHICLES : 1000
OPEN_ROUTE : YES
DISTANCE : 3000
NODE_COORD_SECTION
1	630	266
2	374	235
3	958	962
4	593	543
5	451	937
6	24	108
7	729	689
8	994	143
9	59	159
10	844	85
11	198	698
12	265	635
13	358	645
14	274	235
15	817	524
16	899	566
17	291	201
18	455	982
19	169	230
20	157	991
21	577	320
22	713	202
23	443	522
24	842	322
25	959	718
26	492	704
27	935	546
28	536	884
29	196	513
30	391	895
31	595	982
32	195	64
33	132	995
34	998	232
35	794	189
36	759	379
37	853	769
38	906	289
39	383	977
40	724	938
41	206	996
42	472	523
43	487	297
44	433	735
45	642	376
46	179	541
47	446	796
48	759	498
49	910	359
50	88	390
51	579	16
52	38	865
53	636	622
54	533	347
55	955	973
56	5	433
57	720	481
58	579	176
59	579	233
60	683	74
61	321	914
62	67	91
63	638	537
64	797	55
65	216	326
66	577	344
67	4	595
68	165	88
69	366	265
70	21	178
71	762	839
72	137	714
73	648	746
74	681	371
75	653	187
76	174	529
77	475	536
78	239	391
79	622	715
80	327	378
81	453	364
82	944	275
83	868	488
84	886	772
85	956	691
86	508	158
87	520	131
88	696	634
89	277	379
90	842	703
91	369	513
92	545	164
93	388	301
94	753	187
95	226	308
96	131	516
97	383	739
98	553	160
99	940	38
100	470	719
101	355	416
102	360	921
103	844	655
104	28	631
105	170	559
106	167	726
107	85	848
108	146	534
109	863	686
110	746	195
111	167	402
112	811	172
113	283	36
114	538	757
115	155	373
116	69	74
117	296	835
118	341	90
119	898	478
120	585	626
121	933	892
122	981	246
123	943	775
124	90	317
125	354	970
126	326	937
127	667	285
128	169	927
129	432	312
130	497	930
131	241	46
132	315	189
133	195	599
134	449	912
135	725	436
136	252	289
137	402	495
138	473	663
139	951	238
140	512	463
141	894	144
142	417	175
143	444	93
144	50	520
145	440	504
146	676	708
147	279	833
148	526	764
149	704	122
150	922	400
151	558	389
152	887	960
153	894	724
154	93	639
155	88	411
156	13	877
157	235	710
158	318	74
159	383	330
160	682	623
161	663	564
162	701	738
163	691	439
164	944	369
165	466	646
166	743	275
167	129	937
168	593	327
169	366	137
170	892	364
171	94	314
172	395	839
173	477	170
174	524	708
175	821	593
176	929	192
177	273	139
178	39	108
179	18	932
180	414	195
181	402	384
182	184	234
183	3	816
184	812	658
185	681	167
186	705	723
187	977	609
188	471	678
189	181	391
190	852	991
191	479	264
192	865	604
193	18	879
194	200	875
195	631	552
196	542	446
197	194	235
198	169	105
199	59	35
200	999	178
201	976	853
202	583	284
203	876	155
204	609	974
205	982	805
206	356	866
207	877	570
208	949	386
209	774	536
210	700	787
211	840	674
212	463	612
213	166	393
214	170	889
215	665	371
216	531	320
217	360	997
218	408	155
219	743	968
220	486	965
221	803	672
222	9	816
223	497	269
224	860	986
225	807	898
226	237	1
227	112	27
228	82	40
229	117	346
230	413	341
231	209	921
232	63	670
233	631	53
234	859	20
235	123	326
236	904	137
237	525	817
238	320	376
239	352	881
240	802	979
241	9	597
242	115	651
243	412	583
244	641	133
245	151	487
246	656	86
247	215	782
248	651	840
249	303	781
250	577	875
251	615	967
252	894	412
253	498	716
254	837	451
255	70	436
256	120	54
257	86	804
258	715	757
259	728	663
260	403	398
261	271	533
262	445	848
263	150	51
264	309	752
265	138	480
266	345	864
267	256	296
268	600	573
269	526	441
270	307	516
271	131	645
272	202	874
273	474	232
274	744	37
275	386	382
276	764	980
277	711	564
278	610	830
279	891	450
280	210	378
281	112	873
282	747	737
283	182	985
284	208	263
285	9	606
286	412	443
287	502	155
288	144	124
289	124	142
290	704	395
291	326	483
292	966	530
293	11	179
294	211	82
295	183	563
296	483	320
297	103	268
298	51	60
299	533	690
300	268	628
301	352	647
302	242	601
303	357	584
304	432	51
305	565	29
306	326	972
307	950	632
308	17	431
309	324	384
310	818	401
311	954	507
312	984	477
313	166	530
314	568	988
315	53	357
316	600	834
317	650	825
318	5	973
319	208	277
320	966	698
321	576	753
322	944	818
323	143	120
324	928	68
325	564	416
326	52	278
327	912	57
328	629	997
329	914	134
330	552	351
331	709	297
332	799	650
333	847	940
334	419	915
335	657	276
336	142	586
337	384	241
338	21	908
339	643	288
340	885	827
341	369	246
342	98	567
343	814	869
344	213	73
345	231	308
346	925	919
347	915	209
348	328	906
349	483	734
350	693	768
351	984	817
352	493	918
353	287	445
354	167	7
355	95	900
356	185	468
357	470	936
358	307	852
359	52	608
360	288	516
361	399	904
362	351	725
363	813	387
364	734	835
365	827	225
366	599	286
367	941	357
368	64	478
369	438	435
370	156	882
371	294	661
372	569	197
373	709	630
374	482	78
375	896	858
376	982	213
377	656	53
378	326	721
379	368	398
380	56	915
381	719	967
382	256	836
383	462	733
384	715	74
385	484	376
386	366	922
387	867	621
388	112	397
389	936	611
390	112	27
391	321	269
392	639	74
393	650	949
394	918	322
395	670	556
396	951	779
397	759	453
398	84	935
399	32	721
400	409	388
401	448	327
402	37	516
403	636	744
404	332	423
405	926	841
406	744	107
407	427	691
408	75	780
409	601	74
410	561	471
411	698	693
412	28	866
413	653	995
414	184	876
415	179	251
416	368	939
417	468	214
418	604	515
419	979	482
420	217	589
421	713	735
422	502	54
423	929	112
424	941	19
425	989	74
426	883	541
427	623	770
428	334	905
429	307	855
430	225	118
431	475	156
432	899	439
433	122	753
434	986	993
435	2	421
436	387	70
437	943	841
438	297	794
439	419	284
440	597	11
441	808	40
442	198	41
443	110	974
444	456	660
445	65	122
446	241	85
447	766	269
448	366	892
449	692	80
450	254	947
451	823	249
452	234	663
453	194	812
454	353	356
455	118	115
456	882	397
457	165	641
458	609	852
459	409	111
460	27	777
461	440	395
462	71	435
463	784	642
464	37	268
465	231	979
466	743	513
467	556	782
468	135	553
469	486	52
470	946	828
471	738	474
472	90	196
473	210	92
474	528	219
475	994	829
476	18	905
477	105	680
478	158	861
479	508	662
480	331	184
481	161	706
482	869	518
483	129	657
484	912	374
485	41	249
486	792	93
487	187	778
488	791	732
489	338	690
490	494	45
491	280	11
492	955	247
493	320	322
494	280	741
495	83	990
496	331	615
497	545	895
498	133	554
499	189	111
500	297	379
501	500	108
502	790	285
503	245	294
504	988	528
505	695	679
506	138	768
507	816	83
508	943	871
509	938	406
510	445	448
511	86	701
512	356	332
513	673	781
514	51	640
515	323	352
516	798	320
517	224	483
518	600	721
519	100	824
520	682	11
521	641	998
522	457	305
523	717	328
524	800	399
525	456	812
526	886	81
527	816	135
528	844	589
529	461	53
530	292	184
531	11	854
532	901	672
533	912	912
534	900	788
535	998	33
536	219	857
537	174	911
538	95	725
539	254	154
540	840	233
541	229	297
542	498	256
543	170	868
544	695	489
545	366	941
546	244	60
547	992	759
548	475	254
549	747	889
550	185	379
551	386	621
552	703	674
553	666	550
554	853	951
555	933	887
556	381	7
557	798	892
558	316	300
559	679	516
560	278	774
561	733	520
562	472	637
563	409	180
564	303	736
565	249	352
566	860	122
567	672	806
568	938	204
569	41	122
570	150	198
571	662	344
572	397	704
573	868	976
574	280	611
575	37	870
576	494	441
577	724	822
578	924	207
579	9	613
580	778	923
581	263	567
582	476	525
583	788	675
584	737	13
585	312	594
586	213	149
587	276	938
588	331	108
589	721	895
590	840	571
591	379	119
592	335	856
593	873	390
594	392	787
595	170	387
596	42	15
597	303	231
598	611	478
599	676	163
600	545	742
601	369	930
602	131	892
603	223	413
604	734	31
605	497	708
606	135	288
607	651	77
608	288	856
609	884	122
610	228	347
611	963	824
612	857	876
613	312	795
614	154	16
615	334	961
616	649	654
617	142	303
618	590	855
619	354	879
620	219	373
621	62	975
622	410	447
623	791	571
624	458	210
625	637	853
626	542	683
627	508	474
628	399	173
629	55	979
630	277	149
631	551	161
632	827	710
633	523	965
634	415	103
635	359	428
636	779	347
637	713	543
638	37	221
639	340	642
640	616	389
641	357	762
642	707	474
643	419	37
644	611	212
645	875	896
646	234	124
647	848	821
648	396	916
649	111	636
650	884	758
651	911	20
652	194	966
653	966	707
654	87	829
655	994	776
656	359	46
657	290	816
658	635	981
659	429	993
660	471	224
661	597	378
662	225	794
663	506	658
664	973	594
665	977	386
666	798	822
667	894	281
668	220	123
669	495	498
670	315	835
671	193	521
672	240	265
673	899	652
674	215	395
675	649	628
676	328	190
677	854	958
678	761	86
679	284	979
680	643	391
681	373	730
682	951	680
683	118	232
684	365	126
685	135	705
686	209	348
687	457	690
688	245	815
689	464	115
690	279	878
691	306	173
692	411	701
693	795	877
694	319	360
695	653	559
696	957	986
697	702	234
698	235	389
699	294	460
700	8	860
701	845	880
702	299	919
703	149	33
704	133	939
705	413	253
706	453	892
707	894	98
708	367	318
709	276	110
710	882	785
711	620	78
712	401	590
713	688	257
714	234	783
715	559	469
716	661	114
717	878	199
718	299	536
719	72	614
720	657	706
721	831	67
722	420	965
723	631	20
724	343	217
725	981	397
726	940	835
727	840	455
728	824	563
729	212	959
730	625	891
731	579	181
732	717	248
733	605	795
734	253	188
735	607	135
736	254	476
737	567	348
738	641	459
739	181	982
740	838	110
741	304	858
742	959	810
743	855	227
744	152	257
745	737	565
746	670	241
747	954	48
748	117	164
749	535	140
750	101	151
751	274	493
752	980	641
753	382	632
754	636	554
755	306	365
756	810	67
757	513	313
758	824	167
759	356	514
760	588	278
761	586	536
762	150	228
763	908	885
764	292	834
765	896	927
766	387	309
767	268	223
768	394	446
769	992	215
770	63	217
771	621	558
772	523	94
773	436	741
774	842	29
775	170	336
776	704	444
777	583	174
778	823	200
779	2	257
780	843	749
781	702	409
782	992	737
783	456	652
784	926	547
785	665	587
786	137	32
787	819	502
788	506	992
789	708	302
790	574	269
791	921	645
792	124	83
793	153	309
794	724	776
795	391	904
796	501	595
797	51	607
798	757	278
799	982	12
800	548	423
801	748	467
802	173	122
803	139	863
804	154	247
805	851	379
806	217	655
807	285	899
808	630	94
809	913	723
810	880	239
811	522	199
812	19	690
813	537	739
814	931	284
815	703	123
816	621	726
817	281	155
818	904	810
819	308	970
820	800	916
821	672	645
822	316	989
823	494	192
824	979	114
825	881	386
826	708	951
827	251	980
828	849	946
829	808	959
830	697	210
831	709	399
832	159	610
833	787	66
834	31	203
835	926	145
836	230	792
837	183	509
838	959	598
839	417	511
840	357	768
841	720	509
842	798	834
843	210	802
844	122	193
845	15	741
846	797	152
847	299	326
848	626	158
849	924	57
850	195	163
851	424	278
852	813	738
853	232	91
854	104	496
855	181	365
856	752	81
857	594	146
858	162	327
859	155	31
860	612	702
861	164	902
862	922	313
863	141	884
864	613	322
865	414	973
866	210	393
867	462	897
868	582	697
869	735	415
870	518	236
871	721	473
872	162	281
873	587	35
874	170	643
875	52	363
876	206	211
877	680	315
878	477	150
879	79	631
880	750	584
881	890	969
882	354	818
883	602	73
884	665	966
885	447	536
886	620	190
887	331	936
888	340	818
889	167	740
890	384	591
891	810	365
892	183	436
893	366	615
894	424	98
895	820	296
896	493	112
897	183	330
898	373	452
899	372	401
900	89	323
901	798	745
902	195	584
903	881	305
904	214	375
905	652	759
906	791	139
907	26	141
908	341	983
909	744	151
910	241	203
911	765	148
912	958	94
913	242	942
914	416	994
915	11	400
916	143	396
917	284	641
918	524	711
919	844	246
920	475	18
921	503	992
922	937	547
923	420	665
924	539	794
925	698	550
926	355	194
927	405	24
928	675	32
929	837	474
930	411	804
931	995	145
932	12	304
933	302	417
934	137	289
935	97	625
936	142	727
937	694	561
938	183	24
939	639	619
940	234	864
941	83	880
942	11	115
943	558	150
944	637	426
945	10	71
946	350	414
947	621	401
948	908	173
949	62	223
950	439	930
951	922	184
952	685	83
953	866	510
954	384	642
955	310	877
956	967	527
957	522	909
958	77	20
959	89	999
960	997	41
961	557	344
962	3	907
963	950	735
964	602	992
965	821	33
966	57	9
967	837	816
968	392	445
969	219	511
970	704	436
971	249	362
972	200	409
973	151	376
974	271	664
975	709	750
976	492	142
977	406	3
978	768	717
979	145	705
980	817	998
981	88	521
982	38	363
983	254	886
984	46	871
985	428	881
986	437	401
987	904	548
988	504	305
989	318	923
990	56	132
991	182	254
992	698	773
993	581	593
994	532	661
995	304	820
996	705	761
997	832	576
998	922	212
999	63	978
1000	663	532
1001	220	27
DEMAND_SECTION
1	0
2	6
3	8
4	9
5	1
6	2
7	2
8	4
9	7
10	3
11	1
12	2
13	1
14	8
15	4
16	1
17	7
18	1
19	8
20	4
21	7
22	5
23	7
24	7
25	9
26	5
27	7
28	7
29	9
30	2
31	9
32	2
33	5
34	8
35	5
36	7
37	5
38	9
39	4
40	6
41	7
42	7
43	5
44	2
45	7
46	8
47	5
48	5
49	7
50	5
51	8
52	4
53	3
54	9
55	2
56	4
57	2
58	9
59	9
60	9
61	6
62	1
63	1
64	1
65	2
66	5
67	9
68	2
69	4
70	3
71	9
72	1
73	4
74	2
75	2
76	2
77	3
78	1
79	5
80	2
81	3
82	4
83	3
84	4
85	8
86	3
87	7
88	6
89	4
90	2
91	2
92	4
93	9
94	2
95	4
96	7
97	5
98	5
99	1
100	1
101	7
102	1
103	6
104	2
105	6
106	1
107	5
108	2
109	6
110	4
111	4
112	6
113	9
114	3
115	6
116	4
117	1
118	6
119	7
120	5
121	5
122	4
123	9
124	9
125	5
126	6
127	4
128	4
129	9
130	5
131	4
132	5
133	2
134	4
135	3
136	5
137	9
138	1
139	2
140	8
141	7
142	7
143	7
144	5
145	9
146	1
147	4
148	8
149	7
150	4
151	7
152	3
153	9
154	6
155	1
156	6
157	5
158	3
159	4
160	2
161	7
162	5
163	3
164	4
165	7
166	6
167	8
168	4
169	8
170	5
171	4
172	7
173	8
174	6
175	5
176	9
177	8
178	1
179	9
180	3
181	5
182	5
183	9
184	2
185	3
186	1
187	8
188	3
189	9
190	5
191	3
192	1
193	6
194	9
195	2
196	1
197	9
198	2
199	2
200	9
201	6
202	5
203	4
204	7
205	7
206	9
207	5
208	7
209	2
210	7
211	9
212	8
213	9
214	3
215	2
216	8
217	3
218	7
219	3
220	3
221	2
222	6
223	6
224	3
225	5
226	6
227	7
228	1
229	9
230	3
231	5
232	8
233	2
234	2
235	9
236	9
237	5
238	8
239	3
240	2
241	6
242	8
243	9
244	9
245	7
246	8
247	7
248	6
249	7
250	5
251	4
252	8
253	4
254	9
255	6
256	9
257	2
258	2
259	8
260	7
261	9
262	5
263	7
264	1
265	2
266	1
267	7
268	1
269	4
270	4
271	5
272	1
273	6
274	2
275	9
276	3
277	1
278	9
279	1
280	8
281	4
282	8
283	9
284	9
285	6
286	7
287	3
288	6
289	4
290	4
291	2
292	8
293	4
294	3
295	6
296	1
297	3
298	9
299	5
300	5
301	9
302	1
303	3
304	6
305	4
306	4
307	7
308	1
309	2
310	6
311	3
312	6
313	3
314	8
315	8
316	7
317	7
318	4
319	6
320	7
321	1
322	2
323	5
324	3
325	9
326	7
327	1
328	3
329	7
330	5
331	9
332	8
333	5
334	5
335	7
336	9
337	5
338	2
339	8
340	2
341	1
342	1
343	9
344	9
345	4
346	2
347	1
348	4
349	3
350	4
351	4
352	1
353	5
354	9
355	9
356	1
357	3
358	5
359	1
360	1
361	9
362	1
363	9
364	1
365	6
366	5
367	8
368	3
369	8
370	2
371	1
372	2
373	1
374	8
375	7
376	3
377	8
378	4
379	7
380	9
381	8
382	5
383	2
384	2
385	8
386	2
387	1
388	6
389	2
390	2
391	1
392	9
393	4
394	5
395	6
396	8
397	7
398	4
399	8
400	7
401	7
402	6
403	3
404	3
405	4
406	1
407	9
408	5
409	2
410	1
411	4
412	8
413	2
414	5
415	7
416	8
417	9
418	7
419	2
420	8
421	2
422	1
423	6
424	4
425	7
426	3
427	4
428	8
429	9
430	2
431	2
432	1
433	4
434	4
435	6
436	1
437	6
438	3
439	9
440	9
441	8
442	5
443	6
444	5
445	8
446	3
447	3
448	3
449	2
450	2
451	5
452	7
453	6
454	5
455	3
456	6
457	1
458	8
459	2
460	8
461	4
462	6
463	9
464	9
465	8
466	4
467	5
468	9
469	7
470	1
471	7
472	5
473	8
474	7
475	6
476	2
477	5
478	7
479	4
480	1
481	8
482	9
483	3
484	2
485	5
486	5
487	1
488	4
489	8
490	8
491	2
492	3
493	5
494	8
495	5
496	8
497	1
498	6
499	6
500	6
501	2
502	3
503	7
504	8
505	2
506	4
507	9
508	2
509	2
510	5
511	9
512	4
513	2
514	2
515	6
516	4
517	2
518	1
519	2
520	6
521	3
522	6
523	7
524	9
525	9
526	8
527	9
528	6
529	4
530	7
531	3
532	8
533	5
534	5
535	6
536	1
537	5
538	3
539	7
540	1
541	1
542	3
543	6
544	6
545	3
546	4
547	4
548	5
549	7
550	1
551	2
552	9
553	9
554	5
555	8
556	3
557	3
558	7
559	8
560	2
561	3
562	5
563	9
564	7
565	4
566	2
567	6
568	3
569	5
570	2
571	3
572	5
573	3
574	7
575	3
576	7
577	7
578	2
579	6
580	4
581	4
582	7
583	4
584	6
585	3
586	5
587	3
588	1
589	1
590	7
591	2
592	1
593	8
594	6
595	7
596	7
597	5
598	8
599	8
600	5
601	6
602	7
603	3
604	2
605	9
606	4
607	1
608	3
609	3
610	8
611	9
612	7
613	8
614	5
615	4
616	6
617	8
618	2
619	4
620	3
621	9
622	8
623	4
624	5
625	6
626	2
627	2
628	9
629	6
630	9
631	1
632	4
633	4
634	2
635	9
636	1
637	4
638	2
639	5
640	8
641	4
642	9
643	1
644	9
645	9
646	3
647	7
648	7
649	3
650	4
651	2
652	1
653	9
654	8
655	4
656	7
657	9
658	5
659	6
660	9
661	2
662	7
663	6
664	6
665	9
666	1
667	7
668	9
669	4
670	7
671	5
672	6
673	3
674	7
675	5
676	7
677	5
678	3
679	8
680	7
681	4
682	2
683	2
684	2
685	7
686	1
687	4
688	6
689	5
690	8
691	5
692	7
693	9
694	6
695	7
696	2
697	2
698	1
699	6
700	2
701	9
702	1
703	8
704	7
705	8
706	9
707	3
708	7
709	3
710	8
711	2
712	4
713	1
714	4
715	3
716	4
717	7
718	1
719	5
720	2
721	6
722	3
723	6
724	9
725	5
726	6
727	7
728	9
729	6
730	4
731	1
732	4
733	5
734	4
735	3
736	4
737	4
738	5
739	1
740	8
741	5
742	6
743	2
744	4
745	4
746	8
747	1
748	9
749	3
750	9
751	2
752	8
753	6
754	7
755	7
756	6
757	5
758	9
759	7
760	9
761	1
762	3
763	5
764	2
765	2
766	7
767	3
768	5
769	6
770	8
771	9
772	7
773	9
774	1
775	8
776	4
777	4
778	1
779	4
780	2
781	2
782	4
783	2
784	8
785	3
786	7
787	8
788	3
789	3
790	4
791	7
792	8
793	9
794	9
795	1
796	2
797	5
798	4
799	7
800	6
801	5
802	2
803	8
804	2
805	7
806	6
807	4
808	4
809	8
810	9
811	2
812	1
813	5
814	8
815	9
816	5
817	8
818	5
819	7
820	1
821	5
822	2
823	6
824	2
825	7
826	9
827	3
828	4
829	6
830	1
831	5
832	1
833	7
834	4
835	5
836	5
837	1
838	9
839	1
840	7
841	3
842	9
843	3
844	1
845	8
846	9
847	8
848	4
849	4
850	6
851	8
852	1
853	3
854	2
855	1
856	8
857	2
858	3
859	6
860	3
861	8
862	9
863	2
864	8
865	9
866	4
867	6
868	3
869	7
870	7
871	8
872	4
873	1
874	4
875	6
876	7
877	2
878	5
879	8
880	6
881	4
882	9
883	9
884	5
885	8
886	7
887	3
888	9
889	1
890	8
891	8
892	8
893	8
894	4
895	4
896	3
897	7
898	7
899	9
900	9
901	9
902	7
903	2
904	3
905	5
906	8
907	5
908	2
909	8
910	2
911	7
912	5
913	2
914	1
915	4
916	7
917	2
918	2
919	6
920	5
921	1
922	4
923	2
924	7
925	9
926	1
927	8
928	3
929	8
930	5
931	6
932	2
933	1
934	4
935	9
936	5
937	6
938	7
939	1
940	9
941	1
942	6
943	6
944	2
945	1
946	6
947	8
948	2
949	2
950	9
951	9
952	2
953	7
954	4
955	5
956	5
957	6
958	9
959	3
960	2
961	7
962	6
963	6
964	7
965	1
966	4
967	7
968	5
969	6
970	2
971	1
972	2
973	9
974	3
975	4
976	4
977	2
978	5
979	9
980	7
981	8
982	3
983	1
984	1
985	1
986	1
987	7
988	2
989	3
990	3
991	7
992	4
993	1
994	4
995	1
996	2
997	2
998	8
999	2
1000	4
1001	6
DEPOT_SECTION
1
-1
EOF
