NAME : n1001-0008
COMMENT : "Generated by pyvrp_manuel (OVRPL)"
TYPE : OVRPL
DIMENSION : 1001
EDGE_WEIGHT_TYPE : EUC_2D
CAPACITY : 150
VEHICLES : 1000
OPEN_ROUTE : YES
DISTANCE : 3000
NODE_COORD_SECTION
1	627	491
2	48	427
3	764	889
4	451	508
5	283	501
6	676	713
7	821	6
8	71	954
9	173	295
10	934	306
11	851	823
12	788	67
13	497	637
14	725	968
15	804	284
16	472	735
17	741	601
18	198	84
19	334	509
20	695	975
21	98	275
22	883	285
23	710	626
24	300	345
25	33	573
26	833	182
27	117	31
28	401	190
29	558	59
30	237	909
31	567	145
32	2	190
33	628	951
34	193	7
35	262	748
36	54	857
37	752	157
38	753	86
39	578	31
40	712	711
41	8	832
42	418	888
43	928	566
44	342	96
45	890	505
46	142	246
47	241	836
48	38	199
49	948	289
50	421	329
51	133	564
52	293	995
53	376	354
54	394	363
55	815	487
56	203	415
57	624	685
58	914	246
59	273	976
60	951	165
61	994	629
62	962	150
63	240	455
64	209	923
65	340	648
66	132	451
67	793	642
68	357	170
69	378	305
70	360	10
71	305	464
72	574	442
73	625	781
74	864	345
75	994	582
76	187	211
77	367	15
78	502	813
79	165	167
80	693	77
81	519	56
82	379	706
83	165	884
84	235	943
85	114	784
86	155	265
87	70	309
88	302	729
89	180	421
90	810	878
91	299	902
92	425	631
93	992	444
94	104	388
95	347	665
96	137	139
97	119	841
98	40	576
99	213	914
100	347	949
101	833	749
102	262	326
103	770	991
104	95	160
105	435	202
106	900	244
107	845	394
108	52	112
109	359	830
110	735	718
111	882	405
112	949	373
113	6	140
114	78	315
115	813	602
116	417	775
117	379	783
118	21	483
119	446	381
120	169	737
121	114	732
122	300	809
123	756	578
124	653	795
125	424	624
126	611	837
127	379	76
128	559	383
129	430	67
130	305	95
131	173	82
132	161	886
133	770	288
134	293	155
135	956	856
136	685	118
137	511	892
138	306	332
139	670	713
140	335	471
141	469	470
142	404	676
143	825	413
144	536	26
145	858	966
146	34	148
147	51	382
148	511	57
149	631	375
150	224	795
151	941	310
152	730	101
153	556	297
154	869	667
155	495	595
156	807	534
157	587	391
158	341	434
159	30	296
160	604	289
161	378	182
162	665	158
163	987	941
164	72	336
165	119	279
166	666	16
167	898	958
168	276	639
169	223	45
170	795	831
171	636	385
172	541	463
173	280	94
174	748	559
175	487	435
176	274	212
177	261	431
178	658	167
179	151	451
180	800	997
181	916	920
182	840	100
183	708	737
184	907	310
185	994	592
186	702	260
187	170	452
188	314	365
189	957	331
190	202	481
191	184	759
192	471	703
193	778	873
194	687	597
195	248	997
196	815	989
197	826	143
198	258	136
199	512	644
200	281	751
201	838	549
202	768	669
203	264	372
204	624	21
205	793	301
206	685	735
207	998	88
208	171	558
209	711	770
210	830	184
211	98	703
212	87	24
213	470	72
214	105	368
215	726	616
216	540	15
217	290	290
218	527	451
219	927	434
220	97	986
221	834	275
222	692	186
223	455	443
224	26	78
225	539	82
226	574	915
227	71	30
228	595	305
229	383	89
230	373	169
231	915	19
232	221	114
233	966	59
234	6	282
235	357	276
236	194	40
237	898	397
238	731	961
239	16	975
240	38	259
241	372	278
242	115	508
243	721	603
244	631	91
245	462	494
246	266	518
247	79	463
248	191	612
249	240	826
250	719	329
251	209	217
252	521	907
253	854	142
254	333	985
255	245	912
256	400	73
257	264	391
258	820	43
259	947	307
260	962	991
261	913	692
262	767	301
263	138	209
264	776	708
265	657	727
266	311	946
267	151	552
268	402	408
269	148	961
270	635	700
271	39	400
272	7	143
273	382	89
274	925	947
275	713	300
276	246	556
277	472	396
278	405	631
279	618	535
280	846	268
281	197	636
282	845	49
283	947	436
284	207	510
285	336	475
286	524	844
287	313	112
288	957	912
289	367	560
290	419	62
291	135	431
292	907	428
293	5	358
294	650	669
295	436	781
296	959	690
297	602	590
298	298	779
299	891	269
300	439	111
301	45	71
302	213	822
303	469	639
304	837	432
305	622	274
306	523	371
307	949	680
308	338	684
309	73	458
310	874	95
311	506	979
312	695	214
313	732	558
314	526	370
315	346	293
316	443	623
317	864	767
318	45	280
319	906	245
320	91	676
321	445	607
322	508	749
323	508	254
324	221	391
325	858	423
326	330	736
327	68	106
328	902	558
329	697	401
330	897	235
331	843	840
332	127	506
333	611	332
334	19	469
335	711	762
336	553	969
337	284	72
338	334	322
339	873	401
340	65	862
341	850	165
342	779	966
343	391	45
344	982	456
345	486	813
346	540	587
347	830	26
348	703	95
349	468	824
350	97	364
351	841	848
352	422	243
353	250	815
354	397	492
355	292	641
356	233	414
357	59	262
358	752	234
359	333	523
360	45	240
361	95	165
362	817	768
363	59	795
364	345	490
365	76	151
366	382	767
367	841	138
368	168	483
369	121	464
370	766	231
371	20	950
372	557	324
373	655	18
374	756	691
375	1000	466
376	446	978
377	698	256
378	572	886
379	919	414
380	906	480
381	696	92
382	56	370
383	658	384
384	904	194
385	658	853
386	430	13
387	784	785
388	34	576
389	931	999
390	421	222
391	512	220
392	406	558
393	109	95
394	824	371
395	985	139
396	846	581
397	433	199
398	511	575
399	181	2
400	450	382
401	718	589
402	560	191
403	713	177
404	826	387
405	662	781
406	665	937
407	858	829
408	832	603
409	620	431
410	878	443
411	613	661
412	576	441
413	761	887
414	204	567
415	851	983
416	887	44
417	610	629
418	54	367
419	524	244
420	286	610
421	722	137
422	765	520
423	167	792
424	88	952
425	97	123
426	1	665
427	336	12
428	223	13
429	489	94
430	573	403
431	517	213
432	251	683
433	153	716
434	354	765
435	940	616
436	825	638
437	834	533
438	805	119
439	269	536
440	301	187
441	173	940
442	589	699
443	462	951
444	770	237
445	273	196
446	5	44
447	728	594
448	359	775
449	422	778
450	75	684
451	16	615
452	612	746
453	595	35
454	757	372
455	314	866
456	21	760
457	564	457
458	552	886
459	191	228
460	480	988
461	603	364
462	860	408
463	592	950
464	830	404
465	488	540
466	92	373
467	660	528
468	856	271
469	475	375
470	271	127
471	958	869
472	587	729
473	543	574
474	284	311
475	51	351
476	933	535
477	309	604
478	295	295
479	855	431
480	81	515
481	69	436
482	663	47
483	931	373
484	706	586
485	315	442
486	853	785
487	35	870
488	799	806
489	135	791
490	695	94
491	40	237
492	831	302
493	27	624
494	473	883
495	108	827
496	469	192
497	409	725
498	538	448
499	326	35
500	461	310
501	883	348
502	15	927
503	628	261
504	648	476
505	730	301
506	715	484
507	782	899
508	683	668
509	518	407
510	740	861
511	371	561
512	17	114
513	978	701
514	300	584
515	909	846
516	914	963
517	453	850
518	56	237
519	898	888
520	375	164
521	140	563
522	954	711
523	907	483
524	642	997
525	132	89
526	619	430
527	79	338
528	87	968
529	819	225
530	516	672
531	585	236
532	848	934
533	121	673
534	481	884
535	338	430
536	221	241
537	630	535
538	819	876
539	633	638
540	684	36
541	557	185
542	23	754
543	619	84
544	756	642
545	185	810
546	180	908
547	81	152
548	290	664
549	690	956
550	216	637
551	983	362
552	77	226
553	89	922
554	796	477
555	234	400
556	299	177
557	39	432
558	963	575
559	72	977
560	677	836
561	281	546
562	352	74
563	651	789
564	632	373
565	284	639
566	656	789
567	236	143
568	148	208
569	788	809
570	832	672
571	321	994
572	707	355
573	561	30
574	660	134
575	882	48
576	165	533
577	185	926
578	651	426
579	841	971
580	484	628
581	500	813
582	437	874
583	42	109
584	723	868
585	224	890
586	150	414
587	356	706
588	366	432
589	12	211
590	440	240
591	566	100
592	273	512
593	807	375
594	524	291
595	504	16
596	181	827
597	223	888
598	882	864
599	596	890
600	682	107
601	292	536
602	368	940
603	405	835
604	179	180
605	591	800
606	872	852
607	683	451
608	640	873
609	653	367
610	345	584
611	192	853
612	911	86
613	532	744
614	330	110
615	818	312
616	647	483
617	603	195
618	965	116
619	505	961
620	116	368
621	899	576
622	914	265
623	785	394
624	816	736
625	112	615
626	933	900
627	504	893
628	570	798
629	24	75
630	283	950
631	338	956
632	900	528
633	535	797
634	147	856
635	524	459
636	885	113
637	114	5
638	732	824
639	622	462
640	388	723
641	368	741
642	128	905
643	577	363
644	299	477
645	878	478
646	200	753
647	780	149
648	153	974
649	497	232
650	526	490
651	571	492
652	280	453
653	899	192
654	662	219
655	986	832
656	444	118
657	877	1
658	366	278
659	335	887
660	302	860
661	475	352
662	871	146
663	726	170
664	593	699
665	233	64
666	360	170
667	380	836
668	298	2
669	138	672
670	709	14
671	920	702
672	445	884
673	875	510
674	980	265
675	38	510
676	21	286
677	278	965
678	482	741
679	3	270
680	496	481
681	820	24
682	309	469
683	320	401
684	797	974
685	258	190
686	109	329
687	105	177
688	238	912
689	135	809
690	446	100
691	315	273
692	444	597
693	16	73
694	231	721
695	210	89
696	279	5
697	323	831
698	355	640
699	603	234
700	65	517
701	344	746
702	491	819
703	133	556
704	744	322
705	252	60
706	991	957
707	88	929
708	883	27
709	641	281
710	740	252
711	259	808
712	48	831
713	269	31
714	255	183
715	285	704
716	800	39
717	354	380
718	726	101
719	123	844
720	688	895
721	176	383
722	849	7
723	278	430
724	615	757
725	88	607
726	577	204
727	72	725
728	530	297
729	746	963
730	510	234
731	519	351
732	893	212
733	976	133
734	381	354
735	140	734
736	863	125
737	813	42
738	517	472
739	227	961
740	939	250
741	800	652
742	945	201
743	596	267
744	344	366
745	907	476
746	842	985
747	920	355
748	361	706
749	948	56
750	401	124
751	942	709
752	135	40
753	447	996
754	494	704
755	14	670
756	645	888
757	917	22
758	600	235
759	940	177
760	869	675
761	76	841
762	122	583
763	175	61
764	881	633
765	324	981
766	605	498
767	20	39
768	182	697
769	985	946
770	60	464
771	321	778
772	980	920
773	796	572
774	85	724
775	970	339
776	434	682
777	691	914
778	855	817
779	880	574
780	425	291
781	928	903
782	637	200
783	32	45
784	883	487
785	777	527
786	197	165
787	854	804
788	474	277
789	106	624
790	343	486
791	800	994
792	342	338
793	947	616
794	137	426
795	864	165
796	955	609
797	214	351
798	605	256
799	656	9
800	941	78
801	135	260
802	204	670
803	983	643
804	727	514
805	172	698
806	731	105
807	618	406
808	663	601
809	198	290
810	91	898
811	488	918
812	840	536
813	744	191
814	234	95
815	582	821
816	747	512
817	225	681
818	686	794
819	551	729
820	57	744
821	621	377
822	84	221
823	270	312
824	533	816
825	605	27
826	381	826
827	583	369
828	845	145
829	643	745
830	719	70
831	369	1
832	18	951
833	551	287
834	710	672
835	282	43
836	658	52
837	761	784
838	905	237
839	260	720
840	277	482
841	651	579
842	501	544
843	839	884
844	18	632
845	653	558
846	776	69
847	57	8
848	273	21
849	136	17
850	558	158
851	778	240
852	723	163
853	387	601
854	614	315
855	195	666
856	557	601
857	548	995
858	317	470
859	588	220
860	747	289
861	155	964
862	291	640
863	647	986
864	881	920
865	970	385
866	18	213
867	44	345
868	965	767
869	912	250
870	210	534
871	3	3
872	680	132
873	763	658
874	916	38
875	454	236
876	700	801
877	58	247
878	450	749
879	542	828
880	619	135
881	673	846
882	672	341
883	395	395
884	582	206
885	545	653
886	87	200
887	477	572
888	61	818
889	749	836
890	896	2
891	91	443
892	793	85
893	765	947
894	656	943
895	0	478
896	143	717
897	82	891
898	243	392
899	778	12
900	386	88
901	464	448
902	633	745
903	965	705
904	700	88
905	710	203
906	19	374
907	12	711
908	195	468
909	3	967
910	529	907
911	26	632
912	683	464
913	549	74
914	349	984
915	636	13
916	251	652
917	541	751
918	894	644
919	108	684
920	228	246
921	75	965
922	504	188
923	268	850
924	282	714
925	228	28
926	955	993
927	491	62
928	444	276
929	314	742
930	660	46
931	645	293
932	810	967
933	768	521
934	859	100
935	670	653
936	68	35
937	995	325
938	977	366
939	723	56
940	775	195
941	299	79
942	462	360
943	346	893
944	839	963
945	165	618
946	842	177
947	821	275
948	223	725
949	959	910
950	737	205
951	695	447
952	427	691
953	128	238
954	136	501
955	183	645
956	485	110
957	206	348
958	702	696
959	476	76
960	231	95
961	639	725
962	900	686
963	593	929
964	808	206
965	828	617
966	167	292
967	268	521
968	984	562
969	821	600
970	202	699
971	356	380
972	397	42
973	973	304
974	576	469
975	795	599
976	521	329
977	103	257
978	134	129
979	743	992
980	235	266
981	868	980
982	360	643
983	772	701
984	104	428
985	777	488
986	420	426
987	328	295
988	772	686
989	63	797
990	15	99
991	897	36
992	906	714
993	100	788
994	737	637
995	560	224
996	456	59
997	22	939
998	519	119
999	413	930
1000	170	209
1001	443	707
DEMAND_SECTION
1	0
2	9
3	3
4	2
5	9
6	3
7	2
8	5
9	9
10	9
11	4
12	3
13	2
14	4
15	5
16	5
17	9
18	7
19	5
20	6
21	6
22	1
23	9
24	7
25	3
26	2
27	3
28	3
29	1
30	5
31	5
32	2
33	6
34	2
35	9
36	7
37	3
38	1
39	8
40	4
41	6
42	1
43	9
44	5
45	4
46	4
47	5
48	6
49	3
50	1
51	1
52	6
53	6
54	2
55	9
56	3
57	3
58	3
59	4
60	4
61	6
62	5
63	4
64	5
65	2
66	8
67	3
68	7
69	1
70	1
71	7
72	6
73	5
74	9
75	9
76	5
77	3
78	1
79	6
80	3
81	1
82	9
83	8
84	4
85	6
86	2
87	2
88	7
89	4
90	5
91	2
92	6
93	9
94	2
95	8
96	6
97	5
98	9
99	8
100	9
101	6
102	6
103	1
104	3
105	6
106	1
107	2
108	8
109	3
110	6
111	3
112	8
113	3
114	7
115	1
116	8
117	7
118	2
119	8
120	9
121	6
122	8
123	3
124	5
125	9
126	6
127	8
128	1
129	4
130	6
131	2
132	7
133	9
134	6
135	1
136	2
137	9
138	3
139	3
140	3
141	7
142	2
143	3
144	8
145	3
146	7
147	1
148	8
149	8
150	7
151	7
152	5
153	1
154	8
155	4
156	5
157	8
158	7
159	8
160	2
161	3
162	2
163	9
164	9
165	1
166	5
167	9
168	7
169	9
170	4
171	6
172	6
173	9
174	6
175	5
176	1
177	4
178	8
179	3
180	9
181	7
182	3
183	4
184	7
185	1
186	8
187	9
188	6
189	4
190	6
191	7
192	8
193	9
194	7
195	6
196	5
197	7
198	1
199	9
200	4
201	3
202	8
203	4
204	1
205	2
206	7
207	6
208	5
209	1
210	1
211	2
212	7
213	2
214	6
215	7
216	1
217	3
218	1
219	9
220	2
221	9
222	3
223	2
224	2
225	1
226	9
227	8
228	5
229	7
230	9
231	9
232	8
233	5
234	6
235	1
236	9
237	7
238	3
239	9
240	8
241	6
242	9
243	4
244	5
245	2
246	8
247	3
248	6
249	7
250	4
251	1
252	1
253	3
254	2
255	5
256	4
257	1
258	2
259	6
260	6
261	7
262	1
263	6
264	1
265	4
266	5
267	7
268	5
269	2
270	6
271	7
272	4
273	3
274	2
275	5
276	3
277	5
278	3
279	8
280	6
281	4
282	7
283	2
284	1
285	5
286	9
287	3
288	9
289	1
290	1
291	5
292	2
293	9
294	7
295	2
296	4
297	9
298	5
299	9
300	1
301	6
302	8
303	4
304	6
305	1
306	1
307	8
308	5
309	8
310	5
311	2
312	3
313	1
314	1
315	2
316	5
317	5
318	6
319	5
320	4
321	5
322	5
323	2
324	4
325	2
326	5
327	9
328	2
329	2
330	2
331	1
332	7
333	2
334	2
335	5
336	2
337	6
338	9
339	4
340	4
341	2
342	7
343	6
344	5
345	8
346	1
347	5
348	2
349	9
350	8
351	1
352	2
353	1
354	5
355	5
356	3
357	5
358	6
359	5
360	6
361	7
362	8
363	5
364	1
365	3
366	6
367	3
368	7
369	4
370	1
371	1
372	1
373	4
374	8
375	2
376	6
377	5
378	1
379	6
380	4
381	8
382	7
383	7
384	9
385	1
386	5
387	3
388	2
389	2
390	3
391	6
392	6
393	3
394	4
395	5
396	7
397	5
398	9
399	6
400	4
401	3
402	8
403	2
404	9
405	1
406	6
407	7
408	4
409	8
410	9
411	4
412	5
413	1
414	9
415	4
416	4
417	6
418	4
419	6
420	7
421	6
422	2
423	9
424	7
425	9
426	5
427	5
428	5
429	6
430	3
431	7
432	9
433	9
434	4
435	8
436	3
437	8
438	6
439	3
440	3
441	1
442	9
443	5
444	3
445	6
446	5
447	8
448	6
449	7
450	7
451	8
452	2
453	1
454	2
455	8
456	2
457	8
458	4
459	6
460	2
461	2
462	5
463	2
464	4
465	1
466	6
467	6
468	5
469	7
470	9
471	3
472	6
473	7
474	8
475	8
476	2
477	5
478	8
479	7
480	8
481	3
482	9
483	5
484	9
485	9
486	8
487	7
488	3
489	6
490	3
491	9
492	6
493	9
494	4
495	6
496	8
497	3
498	3
499	8
500	4
501	3
502	2
503	8
504	1
505	9
506	7
507	9
508	7
509	5
510	8
511	5
512	5
513	9
514	6
515	5
516	8
517	8
518	3
519	4
520	1
521	4
522	5
523	6
524	5
525	5
526	9
527	2
528	7
529	3
530	2
531	1
532	6
533	6
534	6
535	5
536	9
537	9
538	7
539	5
540	2
541	9
542	3
543	2
544	4
545	9
546	3
547	7
548	2
549	5
550	3
551	3
552	3
553	1
554	3
555	3
556	6
557	1
558	8
559	3
560	3
561	2
562	2
563	8
564	5
565	4
566	8
567	6
568	8
569	8
570	2
571	8
572	3
573	3
574	1
575	7
576	7
577	1
578	2
579	3
580	3
581	3
582	8
583	9
584	7
585	3
586	6
587	9
588	5
589	6
590	4
591	2
592	3
593	9
594	1
595	8
596	2
597	4
598	8
599	6
600	5
601	7
602	5
603	9
604	2
605	2
606	5
607	9
608	8
609	8
610	4
611	1
612	2
613	5
614	9
615	3
616	8
617	6
618	2
619	8
620	8
621	2
622	3
623	9
624	2
625	9
626	4
627	2
628	3
629	1
630	4
631	4
632	4
633	6
634	4
635	1
636	3
637	9
638	8
639	5
640	1
641	9
642	6
643	6
644	6
645	7
646	6
647	8
648	1
649	5
650	6
651	3
652	9
653	4
654	1
655	7
656	7
657	2
658	7
659	7
660	1
661	9
662	3
663	1
664	9
665	4
666	5
667	7
668	2
669	6
670	8
671	8
672	4
673	4
674	6
675	6
676	7
677	5
678	6
679	5
680	2
681	6
682	1
683	3
684	1
685	5
686	3
687	9
688	6
689	8
690	2
691	3
692	6
693	4
694	8
695	8
696	3
697	7
698	9
699	2
700	8
701	2
702	9
703	1
704	7
705	5
706	4
707	2
708	7
709	1
710	7
711	8
712	3
713	8
714	8
715	8
716	8
717	6
718	7
719	3
720	3
721	3
722	5
723	5
724	2
725	1
726	1
727	8
728	3
729	6
730	8
731	6
732	8
733	3
734	5
735	6
736	7
737	2
738	8
739	1
740	6
741	4
742	8
743	4
744	7
745	6
746	9
747	1
748	3
749	4
750	1
751	4
752	2
753	6
754	1
755	3
756	6
757	8
758	5
759	9
760	5
761	8
762	2
763	2
764	9
765	9
766	1
767	2
768	7
769	3
770	6
771	1
772	3
773	1
774	2
775	3
776	5
777	3
778	4
779	5
780	2
781	5
782	9
783	9
784	4
785	7
786	7
787	6
788	3
789	5
790	9
791	3
792	4
793	4
794	7
795	6
796	7
797	8
798	3
799	5
800	5
801	9
802	5
803	6
804	4
805	6
806	8
807	6
808	3
809	7
810	3
811	7
812	7
813	6
814	8
815	9
816	2
817	4
818	5
819	1
820	5
821	4
822	7
823	8
824	9
825	8
826	5
827	3
828	8
829	5
830	3
831	4
832	1
833	7
834	7
835	4
836	6
837	9
838	7
839	4
840	8
841	4
842	8
843	3
844	5
845	3
846	5
847	5
848	7
849	8
850	3
851	2
852	1
853	6
854	7
855	9
856	1
857	2
858	6
859	8
860	3
861	8
862	7
863	2
864	9
865	1
866	4
867	9
868	1
869	4
870	4
871	5
872	2
873	3
874	1
875	3
876	9
877	6
878	2
879	4
880	3
881	8
882	7
883	9
884	1
885	4
886	1
887	9
888	9
889	4
890	8
891	4
892	2
893	4
894	8
895	9
896	7
897	8
898	6
899	2
900	8
901	6
902	6
903	8
904	4
905	9
906	6
907	6
908	6
909	8
910	8
911	6
912	5
913	8
914	7
915	5
916	2
917	3
918	3
919	8
920	8
921	5
922	1
923	1
924	6
925	2
926	2
927	9
928	2
929	7
930	1
931	8
932	8
933	6
934	3
935	8
936	2
937	9
938	5
939	7
940	2
941	5
942	4
943	9
944	2
945	6
946	1
947	2
948	5
949	5
950	8
951	4
952	2
953	6
954	4
955	9
956	7
957	7
958	8
959	1
960	8
961	8
962	8
963	7
964	5
965	4
966	9
967	1
968	2
969	1
970	5
971	8
972	7
973	1
974	8
975	5
976	7
977	9
978	8
979	9
980	2
981	3
982	2
983	4
984	5
985	4
986	5
987	8
988	5
989	8
990	9
991	2
992	5
993	1
994	5
995	6
996	9
997	8
998	8
999	9
1000	9
1001	1
DEPOT_SECTION
1
-1
EOF
