NAME : n1001-0049
COMMENT : "Generated by pyvrp_manuel (OVRPL)"
TYPE : OVRPL
DIMENSION : 1001
EDGE_WEIGHT_TYPE : EUC_2D
CAPACITY : 150
VEHICLES : 1000
OPEN_ROUTE : YES
DISTANCE : 3000
NODE_COORD_SECTION
1	803	21
2	33	87
3	560	129
4	71	622
5	424	696
6	528	7
7	162	765
8	260	194
9	702	128
10	618	199
11	503	511
12	362	313
13	717	903
14	512	394
15	763	493
16	756	85
17	218	280
18	245	506
19	172	225
20	85	492
21	584	805
22	687	837
23	26	931
24	576	918
25	168	708
26	251	351
27	172	62
28	319	566
29	163	197
30	392	2
31	995	227
32	485	964
33	679	435
34	25	382
35	644	324
36	120	66
37	355	760
38	849	464
39	211	455
40	742	205
41	455	434
42	351	459
43	791	463
44	560	335
45	78	169
46	525	867
47	898	534
48	273	953
49	9	307
50	97	891
51	516	701
52	623	199
53	647	430
54	215	753
55	74	736
56	356	458
57	100	778
58	382	425
59	145	399
60	835	765
61	256	846
62	910	506
63	296	247
64	35	267
65	285	966
66	744	358
67	1	225
68	144	118
69	757	393
70	917	396
71	925	293
72	856	758
73	13	301
74	45	699
75	170	296
76	291	740
77	972	403
78	998	648
79	63	999
80	770	425
81	770	404
82	552	379
83	282	172
84	515	642
85	351	836
86	103	419
87	189	288
88	4	173
89	847	811
90	758	893
91	707	489
92	53	406
93	288	360
94	83	648
95	20	691
96	171	639
97	311	130
98	946	988
99	756	993
100	275	296
101	86	813
102	438	719
103	529	988
104	947	869
105	352	270
106	161	179
107	521	52
108	10	321
109	641	628
110	151	953
111	701	301
112	978	908
113	468	82
114	205	584
115	163	620
116	237	81
117	168	27
118	946	439
119	145	676
120	728	15
121	65	180
122	242	58
123	546	918
124	265	933
125	662	180
126	301	886
127	175	246
128	615	281
129	793	478
130	964	237
131	943	449
132	804	463
133	27	705
134	309	170
135	796	865
136	111	724
137	997	69
138	809	922
139	671	939
140	665	581
141	449	415
142	280	341
143	848	227
144	354	583
145	652	423
146	489	347
147	140	467
148	279	632
149	469	147
150	199	414
151	221	580
152	567	477
153	278	848
154	245	277
155	390	959
156	769	943
157	164	937
158	822	676
159	309	411
160	139	369
161	954	970
162	573	492
163	543	270
164	917	679
165	639	685
166	546	560
167	762	90
168	9	495
169	746	604
170	978	3
171	200	24
172	115	582
173	968	564
174	721	557
175	798	975
176	319	27
177	64	973
178	505	172
179	295	753
180	372	539
181	280	537
182	855	843
183	307	453
184	230	780
185	44	803
186	244	588
187	498	385
188	165	603
189	729	762
190	418	906
191	135	178
192	810	265
193	138	331
194	341	63
195	732	667
196	374	238
197	378	985
198	222	998
199	916	738
200	955	157
201	441	69
202	886	387
203	248	287
204	296	357
205	615	93
206	740	673
207	283	825
208	406	69
209	492	157
210	211	928
211	435	619
212	602	906
213	541	354
214	8	12
215	868	155
216	776	83
217	633	628
218	285	423
219	501	936
220	420	916
221	845	722
222	59	224
223	279	389
224	759	193
225	5	550
226	781	74
227	152	211
228	81	992
229	984	911
230	800	556
231	33	366
232	701	604
233	637	16
234	928	41
235	29	451
236	508	140
237	172	580
238	453	153
239	162	665
240	62	685
241	219	860
242	334	684
243	134	323
244	828	574
245	342	225
246	366	802
247	330	973
248	218	26
249	734	684
250	687	25
251	70	318
252	171	201
253	570	34
254	908	767
255	657	24
256	398	474
257	818	79
258	19	269
259	517	591
260	266	398
261	392	195
262	675	377
263	860	178
264	397	556
265	76	871
266	591	514
267	402	117
268	899	149
269	959	950
270	177	297
271	226	176
272	464	387
273	264	899
274	136	357
275	227	982
276	190	17
277	360	306
278	248	333
279	372	597
280	208	295
281	950	11
282	49	647
283	822	112
284	200	521
285	990	84
286	463	920
287	660	120
288	512	739
289	328	851
290	397	897
291	886	281
292	67	514
293	496	550
294	222	642
295	702	354
296	208	840
297	136	722
298	265	229
299	334	606
300	664	937
301	945	636
302	662	474
303	4	357
304	468	90
305	689	570
306	479	865
307	765	303
308	283	771
309	158	302
310	279	438
311	853	694
312	113	19
313	260	87
314	185	224
315	542	271
316	239	29
317	589	326
318	174	694
319	606	293
320	170	895
321	304	815
322	276	777
323	569	363
324	437	646
325	774	775
326	517	317
327	558	413
328	408	19
329	107	211
330	773	920
331	255	252
332	189	265
333	541	287
334	495	777
335	780	840
336	857	806
337	486	568
338	309	336
339	183	77
340	706	543
341	819	165
342	714	15
343	28	451
344	116	385
345	854	642
346	493	337
347	738	147
348	467	423
349	63	440
350	411	945
351	130	153
352	615	372
353	560	470
354	880	556
355	128	36
356	82	166
357	174	1
358	782	937
359	827	81
360	25	122
361	555	907
362	286	725
363	834	408
364	631	541
365	977	418
366	703	449
367	367	637
368	336	59
369	936	298
370	718	442
371	585	482
372	346	999
373	582	843
374	255	897
375	632	281
376	724	339
377	198	186
378	8	962
379	510	604
380	756	43
381	833	783
382	576	153
383	590	101
384	234	520
385	514	599
386	418	964
387	796	178
388	595	745
389	312	478
390	905	801
391	644	432
392	696	832
393	870	314
394	173	153
395	970	141
396	767	268
397	901	588
398	616	149
399	862	477
400	675	258
401	913	970
402	619	505
403	368	763
404	916	886
405	944	879
406	784	434
407	56	948
408	786	86
409	57	957
410	891	516
411	179	750
412	898	6
413	489	559
414	956	867
415	526	947
416	260	905
417	56	377
418	60	326
419	490	614
420	542	606
421	896	768
422	182	496
423	184	307
424	439	649
425	877	366
426	292	690
427	810	30
428	521	152
429	10	400
430	841	987
431	78	932
432	394	271
433	431	211
434	255	360
435	245	131
436	618	192
437	819	633
438	430	606
439	558	503
440	592	975
441	684	11
442	882	682
443	110	288
444	187	932
445	474	369
446	969	87
447	169	152
448	54	819
449	546	953
450	108	181
451	161	228
452	539	970
453	187	435
454	826	76
455	88	45
456	463	868
457	668	737
458	37	168
459	239	712
460	110	878
461	667	263
462	10	40
463	53	38
464	835	317
465	621	427
466	949	415
467	157	408
468	756	816
469	35	936
470	938	568
471	188	368
472	136	5
473	211	860
474	345	30
475	249	566
476	931	554
477	275	519
478	106	967
479	184	300
480	481	957
481	8	809
482	78	30
483	230	877
484	143	800
485	839	864
486	936	136
487	264	184
488	229	728
489	28	528
490	77	899
491	238	588
492	368	910
493	928	611
494	627	692
495	971	351
496	854	199
497	249	783
498	733	694
499	279	717
500	348	44
501	530	542
502	488	249
503	886	119
504	929	887
505	982	670
506	99	985
507	881	440
508	716	552
509	942	802
510	478	277
511	889	760
512	591	354
513	358	47
514	686	929
515	86	529
516	824	413
517	366	218
518	935	130
519	487	74
520	686	199
521	811	460
522	696	843
523	648	631
524	994	495
525	17	931
526	443	803
527	903	686
528	575	523
529	252	126
530	746	262
531	140	804
532	6	147
533	948	796
534	114	585
535	191	623
536	126	53
537	737	562
538	390	259
539	676	27
540	330	854
541	293	952
542	466	750
543	141	608
544	923	439
545	531	930
546	385	848
547	782	803
548	356	89
549	827	747
550	255	122
551	231	196
552	710	976
553	18	674
554	313	533
555	185	899
556	137	315
557	110	730
558	737	419
559	443	49
560	345	260
561	273	114
562	314	183
563	302	35
564	411	991
565	139	717
566	891	730
567	283	569
568	773	815
569	11	366
570	109	856
571	963	932
572	314	93
573	909	202
574	334	992
575	678	646
576	219	562
577	308	430
578	296	400
579	88	101
580	328	164
581	936	985
582	293	83
583	664	861
584	266	539
585	224	830
586	751	855
587	224	766
588	316	650
589	108	302
590	341	665
591	627	796
592	53	845
593	712	457
594	155	957
595	367	792
596	165	900
597	69	222
598	651	263
599	115	327
600	503	758
601	488	633
602	998	506
603	21	646
604	967	661
605	876	377
606	882	351
607	62	810
608	492	537
609	906	921
610	163	554
611	300	4
612	239	138
613	926	78
614	920	28
615	89	30
616	370	988
617	868	345
618	37	523
619	470	754
620	598	883
621	895	546
622	30	202
623	427	618
624	674	469
625	943	531
626	356	961
627	186	805
628	853	452
629	321	25
630	988	329
631	304	349
632	977	333
633	522	526
634	218	867
635	204	815
636	952	754
637	910	100
638	931	20
639	25	287
640	328	806
641	549	142
642	607	361
643	699	690
644	702	830
645	343	91
646	270	46
647	430	71
648	784	276
649	376	485
650	885	595
651	346	301
652	312	835
653	734	783
654	912	560
655	855	71
656	7	283
657	850	218
658	595	55
659	256	651
660	219	543
661	511	379
662	34	585
663	8	226
664	581	904
665	704	949
666	696	449
667	657	313
668	861	752
669	255	562
670	110	7
671	599	283
672	230	876
673	178	693
674	673	735
675	250	324
676	663	122
677	712	500
678	104	975
679	739	886
680	968	129
681	53	544
682	953	694
683	101	302
684	949	594
685	82	58
686	364	312
687	9	899
688	532	314
689	425	486
690	717	340
691	373	542
692	295	818
693	566	203
694	856	286
695	605	640
696	184	747
697	168	310
698	107	444
699	959	208
700	537	930
701	576	116
702	243	177
703	485	685
704	155	740
705	510	958
706	819	402
707	993	438
708	484	925
709	714	252
710	30	641
711	57	5
712	392	814
713	448	840
714	554	505
715	350	593
716	803	908
717	176	701
718	962	52
719	121	162
720	632	929
721	707	930
722	185	195
723	352	587
724	994	239
725	322	826
726	431	327
727	100	754
728	985	681
729	224	379
730	132	273
731	827	532
732	732	117
733	725	218
734	428	628
735	461	427
736	813	3
737	587	8
738	813	679
739	969	650
740	131	271
741	745	655
742	487	16
743	621	949
744	63	45
745	518	169
746	358	186
747	911	153
748	676	538
749	524	741
750	856	790
751	811	986
752	144	151
753	62	887
754	794	576
755	601	216
756	892	567
757	73	18
758	141	471
759	9	787
760	876	888
761	413	319
762	54	866
763	730	856
764	325	435
765	66	690
766	366	435
767	92	157
768	905	192
769	526	144
770	272	683
771	645	152
772	5	729
773	939	415
774	919	810
775	320	861
776	277	762
777	74	198
778	559	266
779	351	106
780	560	129
781	22	839
782	535	628
783	445	729
784	640	426
785	86	441
786	980	630
787	966	91
788	620	875
789	527	521
790	708	188
791	563	221
792	1	327
793	23	910
794	248	538
795	737	583
796	804	501
797	291	18
798	202	374
799	55	961
800	923	330
801	720	562
802	245	316
803	985	713
804	909	448
805	696	595
806	259	940
807	228	833
808	167	38
809	801	595
810	34	283
811	496	221
812	854	978
813	288	186
814	432	178
815	694	340
816	135	13
817	498	282
818	912	66
819	293	153
820	483	800
821	496	37
822	401	549
823	277	301
824	475	416
825	425	134
826	196	497
827	308	995
828	95	2
829	388	166
830	661	422
831	684	485
832	367	115
833	175	781
834	13	838
835	441	550
836	829	847
837	448	698
838	642	582
839	15	625
840	402	663
841	691	331
842	496	212
843	955	456
844	515	358
845	126	110
846	577	411
847	107	254
848	732	776
849	89	33
850	354	948
851	572	582
852	950	719
853	742	613
854	75	549
855	689	280
856	773	459
857	240	25
858	467	680
859	785	95
860	214	258
861	356	369
862	836	223
863	381	641
864	635	904
865	810	831
866	538	130
867	295	22
868	369	916
869	791	575
870	38	680
871	710	212
872	804	104
873	247	294
874	243	803
875	679	650
876	606	414
877	404	67
878	903	859
879	90	142
880	994	598
881	429	460
882	328	34
883	478	803
884	196	30
885	17	681
886	575	491
887	527	351
888	655	692
889	904	756
890	918	325
891	434	36
892	942	460
893	269	74
894	941	785
895	11	795
896	120	35
897	584	2
898	416	866
899	352	527
900	305	875
901	196	942
902	413	603
903	853	609
904	98	412
905	654	37
906	419	345
907	787	785
908	216	587
909	163	249
910	919	341
911	401	521
912	972	772
913	525	878
914	144	517
915	416	449
916	252	252
917	157	33
918	81	131
919	537	889
920	357	387
921	249	418
922	747	678
923	815	626
924	817	234
925	143	938
926	857	486
927	933	381
928	162	32
929	589	650
930	103	116
931	396	205
932	880	869
933	137	417
934	583	764
935	504	97
936	596	666
937	947	804
938	605	977
939	120	961
940	193	349
941	994	354
942	447	10
943	614	746
944	887	698
945	786	55
946	395	31
947	458	84
948	111	611
949	396	914
950	421	223
951	181	949
952	506	141
953	632	654
954	616	902
955	984	2
956	332	829
957	714	299
958	981	263
959	354	516
960	30	270
961	466	119
962	888	698
963	50	59
964	564	798
965	346	547
966	687	896
967	552	440
968	95	537
969	405	542
970	887	504
971	339	96
972	264	168
973	171	354
974	668	516
975	68	306
976	880	862
977	943	619
978	792	872
979	24	850
980	514	828
981	791	454
982	45	502
983	619	733
984	332	985
985	774	560
986	714	68
987	529	197
988	693	788
989	584	151
990	684	602
991	317	632
992	278	935
993	197	892
994	985	734
995	48	11
996	105	767
997	821	524
998	482	58
999	117	917
1000	391	612
1001	112	522
DEMAND_SECTION
1	0
2	2
3	7
4	7
5	9
6	6
7	9
8	8
9	5
10	1
11	8
12	9
13	5
14	3
15	7
16	1
17	2
18	3
19	8
20	5
21	8
22	8
23	2
24	6
25	5
26	8
27	6
28	8
29	2
30	5
31	7
32	2
33	8
34	2
35	5
36	1
37	9
38	8
39	8
40	1
41	9
42	5
43	4
44	5
45	4
46	2
47	3
48	5
49	8
50	2
51	9
52	6
53	9
54	2
55	2
56	4
57	7
58	9
59	7
60	8
61	4
62	4
63	6
64	1
65	6
66	2
67	1
68	7
69	8
70	3
71	3
72	9
73	2
74	1
75	4
76	9
77	2
78	2
79	3
80	8
81	6
82	8
83	2
84	8
85	5
86	2
87	3
88	7
89	4
90	9
91	4
92	2
93	2
94	2
95	8
96	1
97	6
98	5
99	6
100	6
101	5
102	9
103	8
104	2
105	2
106	2
107	2
108	9
109	9
110	1
111	9
112	3
113	1
114	7
115	5
116	7
117	2
118	5
119	7
120	6
121	7
122	5
123	2
124	5
125	9
126	9
127	8
128	3
129	7
130	8
131	5
132	9
133	2
134	5
135	8
136	9
137	9
138	6
139	7
140	5
141	3
142	3
143	2
144	1
145	7
146	8
147	5
148	6
149	7
150	5
151	7
152	5
153	1
154	3
155	6
156	2
157	3
158	8
159	1
160	7
161	8
162	8
163	5
164	2
165	2
166	4
167	3
168	9
169	2
170	1
171	1
172	2
173	1
174	3
175	9
176	7
177	7
178	3
179	8
180	1
181	3
182	3
183	2
184	3
185	8
186	4
187	6
188	1
189	2
190	4
191	1
192	7
193	6
194	5
195	6
196	1
197	9
198	5
199	9
200	1
201	4
202	6
203	7
204	1
205	6
206	4
207	9
208	9
209	6
210	3
211	9
212	5
213	5
214	5
215	5
216	2
217	9
218	4
219	2
220	9
221	5
222	2
223	2
224	1
225	2
226	1
227	3
228	4
229	7
230	5
231	5
232	9
233	8
234	9
235	6
236	8
237	6
238	4
239	6
240	2
241	2
242	9
243	2
244	6
245	3
246	1
247	1
248	5
249	6
250	4
251	6
252	5
253	6
254	3
255	7
256	2
257	5
258	9
259	9
260	4
261	1
262	6
263	4
264	1
265	7
266	2
267	8
268	1
269	1
270	3
271	3
272	9
273	3
274	7
275	1
276	5
277	5
278	4
279	7
280	1
281	7
282	5
283	1
284	3
285	3
286	2
287	9
288	5
289	1
290	1
291	1
292	3
293	3
294	4
295	2
296	3
297	4
298	5
299	7
300	6
301	7
302	2
303	1
304	1
305	7
306	2
307	8
308	8
309	2
310	9
311	3
312	3
313	7
314	1
315	9
316	2
317	1
318	5
319	7
320	4
321	7
322	3
323	3
324	3
325	2
326	9
327	8
328	5
329	2
330	8
331	8
332	6
333	6
334	5
335	7
336	6
337	3
338	5
339	6
340	8
341	5
342	2
343	6
344	8
345	9
346	6
347	4
348	1
349	8
350	8
351	9
352	4
353	4
354	4
355	1
356	5
357	7
358	8
359	5
360	3
361	6
362	2
363	5
364	5
365	1
366	8
367	2
368	5
369	4
370	6
371	7
372	1
373	7
374	6
375	6
376	7
377	2
378	4
379	2
380	7
381	5
382	1
383	8
384	8
385	2
386	3
387	5
388	1
389	8
390	8
391	6
392	9
393	4
394	9
395	5
396	2
397	9
398	6
399	8
400	1
401	2
402	4
403	2
404	9
405	4
406	7
407	5
408	7
409	3
410	5
411	1
412	9
413	6
414	3
415	8
416	3
417	3
418	1
419	5
420	5
421	9
422	3
423	1
424	6
425	9
426	3
427	6
428	3
429	5
430	2
431	9
432	8
433	3
434	8
435	6
436	3
437	5
438	6
439	7
440	6
441	4
442	1
443	7
444	3
445	6
446	5
447	2
448	5
449	1
450	2
451	3
452	8
453	4
454	4
455	1
456	6
457	8
458	7
459	5
460	2
461	7
462	3
463	8
464	3
465	6
466	9
467	6
468	9
469	6
470	6
471	8
472	5
473	4
474	6
475	6
476	1
477	1
478	8
479	1
480	6
481	8
482	4
483	3
484	8
485	1
486	7
487	3
488	5
489	9
490	4
491	1
492	7
493	5
494	3
495	4
496	9
497	6
498	5
499	4
500	1
501	7
502	8
503	8
504	3
505	5
506	7
507	2
508	3
509	9
510	7
511	2
512	2
513	2
514	4
515	1
516	5
517	6
518	1
519	6
520	2
521	6
522	2
523	9
524	9
525	6
526	5
527	3
528	2
529	6
530	7
531	1
532	8
533	5
534	3
535	1
536	9
537	8
538	2
539	8
540	3
541	5
542	4
543	2
544	9
545	8
546	9
547	6
548	6
549	2
550	3
551	8
552	6
553	4
554	1
555	5
556	1
557	2
558	7
559	9
560	5
561	5
562	9
563	6
564	8
565	7
566	5
567	1
568	3
569	3
570	9
571	1
572	4
573	3
574	3
575	6
576	1
577	6
578	5
579	4
580	9
581	3
582	7
583	1
584	7
585	2
586	2
587	4
588	9
589	7
590	9
591	7
592	4
593	2
594	7
595	9
596	1
597	9
598	9
599	7
600	6
601	7
602	6
603	6
604	3
605	6
606	2
607	6
608	9
609	9
610	1
611	3
612	9
613	8
614	5
615	3
616	5
617	9
618	5
619	5
620	3
621	6
622	3
623	8
624	8
625	7
626	4
627	9
628	7
629	4
630	3
631	3
632	4
633	9
634	5
635	7
636	9
637	7
638	8
639	1
640	5
641	8
642	1
643	9
644	8
645	1
646	8
647	9
648	1
649	7
650	3
651	9
652	6
653	2
654	3
655	8
656	9
657	5
658	1
659	1
660	8
661	6
662	2
663	4
664	6
665	7
666	5
667	8
668	2
669	5
670	2
671	2
672	3
673	4
674	1
675	6
676	4
677	2
678	3
679	8
680	7
681	8
682	6
683	5
684	6
685	8
686	5
687	2
688	6
689	8
690	1
691	6
692	7
693	6
694	8
695	9
696	9
697	9
698	5
699	1
700	4
701	8
702	4
703	6
704	5
705	4
706	6
707	8
708	5
709	5
710	5
711	1
712	6
713	1
714	3
715	1
716	4
717	6
718	3
719	6
720	8
721	4
722	7
723	6
724	9
725	6
726	7
727	7
728	6
729	3
730	3
731	7
732	1
733	7
734	6
735	8
736	9
737	4
738	3
739	6
740	1
741	9
742	9
743	2
744	9
745	2
746	9
747	3
748	9
749	3
750	7
751	4
752	7
753	1
754	1
755	2
756	2
757	3
758	5
759	7
760	5
761	5
762	2
763	7
764	9
765	5
766	6
767	1
768	7
769	5
770	1
771	2
772	4
773	7
774	2
775	5
776	2
777	3
778	3
779	4
780	1
781	5
782	5
783	9
784	5
785	4
786	9
787	1
788	5
789	9
790	4
791	8
792	6
793	9
794	7
795	2
796	9
797	2
798	5
799	9
800	9
801	3
802	3
803	9
804	5
805	5
806	3
807	1
808	8
809	5
810	6
811	7
812	9
813	7
814	5
815	9
816	3
817	8
818	3
819	4
820	8
821	3
822	4
823	7
824	8
825	1
826	7
827	3
828	4
829	9
830	2
831	1
832	7
833	9
834	2
835	1
836	3
837	1
838	1
839	6
840	3
841	5
842	6
843	7
844	6
845	3
846	1
847	5
848	1
849	5
850	9
851	4
852	3
853	3
854	2
855	4
856	4
857	3
858	2
859	5
860	9
861	4
862	6
863	3
864	9
865	8
866	9
867	2
868	8
869	2
870	1
871	1
872	9
873	7
874	4
875	4
876	8
877	6
878	9
879	6
880	6
881	3
882	8
883	2
884	2
885	2
886	7
887	2
888	2
889	4
890	3
891	7
892	6
893	5
894	9
895	9
896	4
897	8
898	2
899	9
900	8
901	5
902	6
903	4
904	6
905	6
906	9
907	2
908	1
909	1
910	2
911	1
912	2
913	6
914	9
915	3
916	6
917	8
918	7
919	6
920	6
921	5
922	2
923	5
924	6
925	6
926	2
927	3
928	1
929	2
930	7
931	2
932	3
933	7
934	4
935	3
936	2
937	6
938	1
939	4
940	1
941	4
942	8
943	7
944	2
945	8
946	8
947	6
948	3
949	9
950	4
951	6
952	3
953	2
954	2
955	1
956	4
957	5
958	4
959	4
960	6
961	5
962	1
963	7
964	1
965	5
966	4
967	5
968	1
969	9
970	4
971	4
972	7
973	4
974	8
975	3
976	7
977	1
978	5
979	8
980	5
981	1
982	3
983	1
984	8
985	7
986	5
987	3
988	3
989	1
990	1
991	9
992	5
993	1
994	9
995	3
996	8
997	9
998	3
999	9
1000	3
1001	6
DEPOT_SECTION
1
-1
EOF
