NAME : n1001-0009
COMMENT : "Generated by pyvrp_manuel (OVRPL)"
TYPE : OVRPL
DIMENSION : 1001
EDGE_WEIGHT_TYPE : EUC_2D
CAPACITY : 150
VEHICLES : 1000
OPEN_ROUTE : YES
DISTANCE : 3000
NODE_COORD_SECTION
1	534	606
2	70	852
3	956	225
4	345	149
5	888	385
6	752	242
7	599	532
8	268	875
9	277	63
10	562	577
11	371	16
12	665	45
13	227	952
14	283	380
15	437	390
16	577	845
17	17	600
18	262	74
19	840	483
20	489	233
21	947	397
22	974	668
23	242	927
24	905	115
25	221	881
26	811	125
27	187	30
28	256	924
29	615	973
30	368	695
31	907	410
32	294	319
33	389	78
34	431	343
35	181	349
36	866	990
37	52	404
38	289	469
39	915	326
40	247	864
41	230	647
42	179	64
43	785	120
44	90	5
45	207	494
46	473	961
47	385	42
48	512	806
49	379	820
50	630	460
51	952	385
52	869	641
53	380	374
54	201	474
55	897	299
56	351	371
57	594	246
58	227	863
59	932	840
60	639	432
61	583	478
62	594	637
63	21	65
64	351	884
65	966	909
66	916	250
67	658	108
68	50	177
69	139	395
70	181	987
71	163	576
72	343	482
73	225	905
74	968	900
75	321	294
76	623	653
77	901	624
78	602	317
79	962	146
80	873	446
81	47	487
82	482	378
83	957	937
84	445	453
85	324	718
86	164	444
87	891	358
88	748	356
89	253	548
90	647	834
91	369	604
92	152	733
93	476	448
94	880	940
95	667	317
96	569	602
97	527	979
98	561	320
99	246	830
100	535	216
101	760	789
102	755	456
103	91	423
104	33	81
105	147	676
106	759	485
107	934	258
108	344	640
109	505	327
110	799	88
111	708	868
112	562	649
113	664	388
114	137	994
115	633	471
116	290	256
117	58	337
118	490	335
119	21	372
120	670	46
121	545	80
122	197	213
123	639	414
124	33	175
125	27	820
126	909	945
127	924	49
128	178	751
129	986	261
130	706	216
131	160	172
132	5	340
133	640	497
134	305	486
135	257	770
136	777	888
137	926	202
138	147	85
139	113	160
140	606	602
141	242	656
142	29	786
143	2	67
144	167	151
145	912	122
146	671	12
147	316	533
148	940	664
149	292	819
150	319	794
151	154	957
152	43	573
153	980	662
154	681	679
155	379	987
156	460	156
157	42	427
158	229	753
159	553	282
160	838	512
161	594	689
162	713	860
163	536	5
164	220	472
165	154	668
166	177	794
167	862	507
168	194	293
169	197	716
170	136	726
171	512	285
172	442	480
173	302	442
174	22	103
175	196	569
176	368	365
177	447	35
178	328	481
179	199	93
180	83	816
181	290	48
182	922	43
183	13	205
184	23	187
185	111	495
186	391	362
187	635	63
188	810	428
189	506	840
190	30	767
191	873	130
192	701	431
193	750	336
194	507	936
195	251	97
196	675	561
197	209	818
198	567	4
199	302	590
200	230	736
201	952	921
202	642	241
203	342	925
204	214	181
205	670	705
206	838	971
207	949	156
208	929	141
209	45	170
210	911	50
211	635	935
212	350	140
213	349	32
214	565	956
215	319	111
216	169	761
217	665	710
218	283	723
219	572	932
220	442	502
221	93	309
222	506	488
223	390	495
224	379	195
225	94	779
226	662	619
227	522	140
228	60	724
229	627	330
230	95	111
231	855	351
232	784	387
233	35	708
234	631	548
235	639	919
236	740	316
237	329	460
238	979	956
239	309	241
240	617	776
241	408	170
242	633	389
243	802	106
244	732	3
245	313	94
246	503	210
247	155	706
248	998	678
249	542	631
250	837	542
251	684	536
252	902	197
253	236	813
254	324	253
255	486	958
256	736	394
257	533	640
258	964	733
259	305	308
260	802	335
261	470	478
262	137	778
263	38	80
264	179	39
265	383	962
266	237	341
267	376	215
268	66	939
269	597	73
270	107	492
271	169	696
272	491	590
273	862	105
274	743	22
275	454	480
276	909	632
277	180	516
278	307	580
279	180	927
280	226	228
281	743	501
282	410	562
283	675	764
284	31	391
285	645	450
286	518	661
287	490	963
288	314	112
289	480	981
290	282	828
291	927	7
292	710	116
293	737	220
294	473	801
295	431	65
296	267	351
297	348	324
298	586	284
299	863	974
300	939	609
301	123	197
302	391	578
303	693	649
304	42	218
305	548	57
306	757	10
307	864	568
308	847	551
309	72	608
310	21	208
311	106	241
312	844	142
313	420	238
314	765	830
315	203	625
316	182	243
317	984	77
318	800	197
319	696	730
320	426	34
321	334	876
322	888	473
323	652	364
324	530	682
325	865	728
326	991	980
327	516	622
328	86	608
329	888	495
330	496	691
331	579	733
332	755	650
333	159	329
334	902	893
335	560	111
336	615	435
337	836	840
338	448	724
339	914	608
340	444	802
341	252	715
342	261	837
343	119	965
344	397	465
345	126	814
346	774	582
347	122	73
348	927	152
349	957	565
350	764	524
351	689	0
352	43	301
353	348	119
354	954	41
355	476	777
356	497	708
357	718	942
358	815	106
359	745	830
360	143	834
361	88	576
362	514	634
363	35	604
364	176	103
365	158	407
366	518	964
367	262	897
368	711	719
369	950	487
370	504	207
371	653	717
372	41	751
373	74	613
374	363	200
375	934	807
376	732	596
377	927	742
378	802	860
379	93	21
380	145	440
381	548	740
382	622	878
383	333	456
384	406	910
385	129	886
386	947	248
387	112	950
388	231	460
389	729	833
390	794	382
391	902	852
392	817	472
393	736	725
394	83	433
395	579	270
396	793	414
397	113	162
398	99	415
399	252	955
400	293	391
401	148	550
402	366	362
403	368	708
404	625	261
405	330	982
406	793	179
407	154	742
408	553	317
409	936	4
410	439	921
411	595	234
412	317	638
413	834	50
414	972	388
415	782	425
416	432	462
417	308	368
418	62	167
419	704	765
420	880	977
421	116	685
422	633	63
423	279	329
424	719	730
425	11	609
426	411	764
427	766	395
428	508	244
429	502	816
430	556	297
431	441	192
432	998	986
433	975	311
434	596	238
435	694	619
436	336	387
437	792	562
438	529	95
439	730	814
440	270	211
441	190	740
442	952	909
443	34	685
444	967	815
445	739	662
446	724	390
447	411	9
448	946	188
449	720	705
450	897	517
451	819	451
452	413	634
453	403	180
454	344	531
455	923	528
456	33	674
457	766	431
458	351	896
459	526	649
460	197	53
461	650	923
462	152	252
463	350	233
464	254	537
465	767	533
466	77	316
467	588	556
468	458	905
469	267	13
470	979	860
471	622	575
472	573	96
473	673	861
474	60	560
475	771	492
476	764	592
477	874	557
478	130	854
479	641	609
480	164	970
481	229	352
482	616	79
483	282	813
484	918	144
485	557	853
486	249	856
487	638	804
488	236	913
489	486	913
490	818	307
491	218	441
492	495	332
493	639	897
494	692	154
495	410	624
496	92	9
497	714	993
498	451	552
499	241	392
500	430	525
501	252	668
502	833	205
503	232	727
504	339	519
505	820	754
506	4	322
507	930	888
508	372	895
509	588	212
510	921	126
511	650	773
512	195	875
513	844	693
514	227	633
515	282	595
516	305	312
517	568	272
518	322	613
519	30	875
520	83	808
521	911	130
522	669	164
523	759	638
524	339	155
525	785	479
526	811	732
527	661	478
528	726	985
529	605	115
530	726	703
531	663	915
532	769	87
533	648	889
534	461	478
535	60	286
536	691	597
537	165	114
538	646	731
539	589	281
540	352	679
541	274	116
542	898	547
543	322	261
544	474	29
545	882	430
546	76	781
547	886	688
548	195	842
549	907	433
550	116	948
551	283	815
552	745	864
553	351	931
554	131	491
555	377	461
556	411	172
557	713	185
558	475	427
559	86	569
560	518	381
561	57	476
562	411	297
563	254	236
564	247	165
565	428	730
566	171	840
567	487	262
568	786	795
569	392	821
570	765	338
571	859	781
572	230	696
573	977	83
574	206	203
575	152	105
576	502	142
577	725	379
578	116	91
579	128	423
580	784	802
581	524	158
582	345	803
583	791	578
584	914	16
585	875	889
586	274	936
587	533	61
588	406	126
589	672	927
590	233	919
591	402	568
592	984	213
593	407	298
594	710	734
595	368	195
596	944	804
597	696	324
598	883	371
599	212	194
600	115	901
601	241	561
602	499	279
603	648	249
604	957	313
605	56	571
606	335	530
607	810	390
608	373	377
609	447	493
610	652	183
611	551	402
612	567	255
613	620	611
614	330	157
615	298	671
616	884	592
617	660	79
618	511	117
619	215	141
620	906	744
621	384	535
622	709	785
623	957	21
624	181	371
625	961	624
626	519	365
627	493	850
628	783	61
629	100	16
630	471	275
631	592	636
632	518	309
633	917	660
634	621	153
635	110	276
636	811	714
637	54	913
638	289	462
639	297	653
640	577	533
641	482	456
642	184	770
643	79	755
644	210	267
645	598	224
646	823	966
647	752	82
648	458	479
649	954	255
650	972	703
651	905	738
652	140	568
653	894	478
654	603	524
655	227	288
656	497	433
657	126	327
658	768	669
659	523	930
660	513	444
661	935	512
662	39	351
663	971	400
664	576	176
665	112	782
666	832	927
667	161	553
668	552	966
669	442	948
670	624	806
671	496	867
672	701	93
673	108	170
674	726	59
675	371	439
676	471	298
677	476	334
678	658	332
679	720	447
680	126	393
681	575	919
682	58	689
683	874	976
684	945	52
685	498	11
686	623	103
687	604	871
688	538	485
689	541	818
690	184	814
691	755	860
692	526	875
693	313	688
694	809	575
695	467	808
696	267	176
697	476	795
698	152	61
699	928	810
700	963	592
701	323	627
702	602	307
703	800	678
704	677	788
705	983	731
706	723	595
707	414	87
708	399	754
709	363	207
710	970	206
711	353	970
712	916	142
713	182	468
714	872	532
715	778	445
716	759	572
717	817	966
718	873	954
719	699	523
720	82	233
721	894	475
722	331	176
723	381	196
724	394	393
725	655	335
726	966	978
727	69	75
728	175	794
729	822	630
730	9	302
731	795	59
732	927	918
733	642	480
734	400	25
735	151	128
736	117	479
737	371	700
738	973	326
739	838	883
740	999	358
741	588	241
742	457	768
743	107	731
744	585	62
745	854	996
746	770	222
747	773	153
748	353	581
749	132	518
750	950	768
751	632	390
752	241	490
753	299	597
754	161	1000
755	603	184
756	428	818
757	345	483
758	607	379
759	557	272
760	301	151
761	509	120
762	611	953
763	14	419
764	920	227
765	3	871
766	239	278
767	811	623
768	125	308
769	920	62
770	842	64
771	986	49
772	354	129
773	568	295
774	751	179
775	776	595
776	921	452
777	352	797
778	125	924
779	283	221
780	777	644
781	280	281
782	244	389
783	560	267
784	640	481
785	545	142
786	639	14
787	365	387
788	44	916
789	331	160
790	95	677
791	54	819
792	87	700
793	550	731
794	988	748
795	922	858
796	980	997
797	173	338
798	433	148
799	918	713
800	873	506
801	372	244
802	685	772
803	748	338
804	52	801
805	685	732
806	803	837
807	991	438
808	424	133
809	131	865
810	779	649
811	742	653
812	62	701
813	634	293
814	706	565
815	115	633
816	106	58
817	452	438
818	638	196
819	673	21
820	879	320
821	945	758
822	294	24
823	72	481
824	357	230
825	532	660
826	899	611
827	187	966
828	225	188
829	289	534
830	712	525
831	302	634
832	837	934
833	808	345
834	752	839
835	572	275
836	495	489
837	710	368
838	145	145
839	689	80
840	307	579
841	307	347
842	580	725
843	838	447
844	365	120
845	558	134
846	90	557
847	992	257
848	105	180
849	773	585
850	870	846
851	885	627
852	815	779
853	775	261
854	521	970
855	763	435
856	975	472
857	275	905
858	113	74
859	387	637
860	935	817
861	685	391
862	126	200
863	575	834
864	31	96
865	564	418
866	310	542
867	313	479
868	701	821
869	23	11
870	403	255
871	341	549
872	391	19
873	273	364
874	544	253
875	601	521
876	50	533
877	438	286
878	523	228
879	426	317
880	557	395
881	121	925
882	568	976
883	452	413
884	916	525
885	238	270
886	111	975
887	942	882
888	542	243
889	125	286
890	962	989
891	829	950
892	36	582
893	942	894
894	946	717
895	125	655
896	385	772
897	907	640
898	793	237
899	922	326
900	370	310
901	218	942
902	448	332
903	288	916
904	969	522
905	994	313
906	3	260
907	814	719
908	633	314
909	756	812
910	328	344
911	885	360
912	711	403
913	880	877
914	513	200
915	496	299
916	682	155
917	852	269
918	617	37
919	231	176
920	557	728
921	194	246
922	622	314
923	63	241
924	602	652
925	900	483
926	437	3
927	299	962
928	791	162
929	634	534
930	304	195
931	398	791
932	371	155
933	133	216
934	291	792
935	363	987
936	450	469
937	165	380
938	963	751
939	761	716
940	539	577
941	374	210
942	365	947
943	62	525
944	255	613
945	633	102
946	406	610
947	787	72
948	908	143
949	704	302
950	809	849
951	410	515
952	804	452
953	614	257
954	586	893
955	153	406
956	524	785
957	54	356
958	566	161
959	388	568
960	480	443
961	458	951
962	629	50
963	888	140
964	99	170
965	128	144
966	846	184
967	845	639
968	185	428
969	480	182
970	280	173
971	463	494
972	903	557
973	902	23
974	128	794
975	295	26
976	480	35
977	658	245
978	824	319
979	812	685
980	382	557
981	271	563
982	619	149
983	115	432
984	198	99
985	654	577
986	647	920
987	407	481
988	833	622
989	136	117
990	995	752
991	628	525
992	3	597
993	326	962
994	571	536
995	871	163
996	2	190
997	896	727
998	825	32
999	110	996
1000	235	142
1001	689	418
DEMAND_SECTION
1	0
2	7
3	9
4	2
5	1
6	7
7	9
8	1
9	2
10	8
11	9
12	9
13	2
14	5
15	8
16	8
17	5
18	3
19	5
20	2
21	2
22	6
23	8
24	4
25	8
26	7
27	6
28	3
29	8
30	6
31	9
32	9
33	8
34	1
35	8
36	5
37	7
38	3
39	5
40	1
41	7
42	8
43	4
44	4
45	5
46	5
47	5
48	7
49	8
50	1
51	4
52	3
53	5
54	3
55	4
56	6
57	7
58	5
59	1
60	7
61	5
62	4
63	2
64	5
65	5
66	5
67	8
68	2
69	4
70	9
71	3
72	6
73	8
74	3
75	1
76	6
77	9
78	9
79	1
80	4
81	1
82	2
83	5
84	5
85	3
86	4
87	8
88	7
89	3
90	6
91	3
92	6
93	8
94	9
95	4
96	4
97	3
98	6
99	2
100	2
101	7
102	7
103	7
104	8
105	1
106	8
107	6
108	4
109	5
110	4
111	5
112	8
113	9
114	8
115	9
116	3
117	5
118	5
119	2
120	3
121	7
122	7
123	6
124	1
125	2
126	5
127	2
128	3
129	8
130	5
131	4
132	5
133	5
134	4
135	1
136	3
137	9
138	3
139	3
140	1
141	2
142	8
143	9
144	7
145	8
146	6
147	4
148	5
149	5
150	5
151	1
152	7
153	8
154	3
155	8
156	9
157	4
158	7
159	5
160	8
161	9
162	5
163	9
164	1
165	5
166	3
167	2
168	4
169	7
170	5
171	5
172	2
173	4
174	4
175	5
176	3
177	9
178	9
179	8
180	3
181	3
182	1
183	3
184	8
185	1
186	3
187	2
188	8
189	2
190	2
191	6
192	1
193	3
194	1
195	1
196	4
197	1
198	4
199	6
200	9
201	6
202	4
203	3
204	5
205	5
206	1
207	3
208	1
209	8
210	8
211	7
212	5
213	4
214	3
215	6
216	4
217	4
218	2
219	8
220	6
221	3
222	7
223	4
224	4
225	7
226	3
227	9
228	6
229	4
230	8
231	5
232	5
233	1
234	7
235	3
236	3
237	2
238	5
239	8
240	3
241	2
242	7
243	8
244	1
245	5
246	5
247	5
248	5
249	1
250	9
251	2
252	6
253	1
254	9
255	2
256	7
257	4
258	4
259	7
260	8
261	9
262	5
263	7
264	4
265	2
266	5
267	4
268	8
269	8
270	2
271	2
272	2
273	8
274	4
275	2
276	1
277	9
278	3
279	2
280	2
281	7
282	4
283	7
284	7
285	8
286	9
287	4
288	8
289	7
290	2
291	7
292	6
293	5
294	8
295	9
296	1
297	9
298	1
299	9
300	5
301	6
302	7
303	6
304	6
305	1
306	3
307	1
308	1
309	5
310	4
311	2
312	4
313	2
314	1
315	7
316	1
317	6
318	6
319	2
320	5
321	4
322	7
323	9
324	1
325	6
326	2
327	2
328	1
329	5
330	4
331	1
332	4
333	3
334	4
335	5
336	8
337	9
338	9
339	4
340	3
341	1
342	7
343	3
344	7
345	5
346	3
347	4
348	1
349	9
350	7
351	7
352	3
353	1
354	1
355	8
356	2
357	8
358	2
359	2
360	8
361	3
362	6
363	3
364	6
365	4
366	9
367	1
368	1
369	1
370	6
371	1
372	4
373	6
374	2
375	9
376	9
377	5
378	2
379	4
380	6
381	8
382	2
383	1
384	4
385	4
386	6
387	4
388	7
389	2
390	9
391	1
392	5
393	5
394	8
395	6
396	7
397	2
398	4
399	7
400	1
401	4
402	8
403	2
404	4
405	4
406	8
407	7
408	5
409	8
410	8
411	8
412	7
413	1
414	3
415	8
416	6
417	3
418	1
419	2
420	8
421	7
422	5
423	4
424	6
425	8
426	8
427	3
428	4
429	8
430	9
431	6
432	5
433	2
434	3
435	4
436	1
437	2
438	4
439	7
440	3
441	6
442	1
443	5
444	6
445	6
446	7
447	2
448	6
449	2
450	8
451	5
452	3
453	4
454	3
455	4
456	9
457	3
458	9
459	9
460	5
461	3
462	3
463	6
464	8
465	5
466	6
467	9
468	4
469	1
470	7
471	8
472	1
473	4
474	9
475	3
476	3
477	1
478	3
479	7
480	3
481	4
482	9
483	8
484	5
485	9
486	3
487	8
488	6
489	3
490	6
491	2
492	5
493	8
494	3
495	6
496	1
497	6
498	6
499	4
500	5
501	3
502	8
503	6
504	9
505	7
506	2
507	2
508	2
509	2
510	1
511	4
512	5
513	6
514	8
515	4
516	3
517	6
518	7
519	7
520	8
521	7
522	7
523	7
524	1
525	2
526	8
527	6
528	8
529	2
530	9
531	8
532	5
533	4
534	1
535	9
536	8
537	2
538	2
539	2
540	4
541	7
542	5
543	1
544	4
545	8
546	2
547	6
548	6
549	9
550	6
551	4
552	2
553	9
554	1
555	9
556	1
557	1
558	2
559	4
560	5
561	4
562	4
563	6
564	6
565	3
566	2
567	8
568	9
569	1
570	1
571	1
572	7
573	3
574	7
575	3
576	2
577	8
578	8
579	5
580	4
581	9
582	2
583	4
584	8
585	2
586	1
587	7
588	1
589	5
590	6
591	8
592	5
593	2
594	2
595	1
596	7
597	6
598	6
599	5
600	7
601	4
602	6
603	4
604	8
605	5
606	8
607	7
608	5
609	1
610	6
611	2
612	1
613	3
614	9
615	8
616	6
617	8
618	9
619	8
620	2
621	5
622	6
623	9
624	7
625	4
626	8
627	6
628	7
629	4
630	3
631	1
632	4
633	7
634	3
635	4
636	5
637	8
638	2
639	1
640	5
641	7
642	3
643	1
644	6
645	3
646	3
647	6
648	3
649	5
650	2
651	9
652	5
653	6
654	8
655	9
656	7
657	6
658	6
659	6
660	3
661	9
662	7
663	6
664	4
665	1
666	4
667	4
668	9
669	4
670	6
671	1
672	9
673	7
674	6
675	8
676	5
677	1
678	3
679	9
680	1
681	6
682	9
683	6
684	4
685	9
686	9
687	3
688	2
689	6
690	6
691	6
692	4
693	8
694	9
695	9
696	8
697	7
698	5
699	7
700	9
701	7
702	9
703	6
704	9
705	1
706	6
707	2
708	5
709	1
710	8
711	1
712	4
713	7
714	5
715	5
716	4
717	6
718	1
719	1
720	1
721	9
722	1
723	1
724	7
725	2
726	2
727	4
728	3
729	2
730	6
731	4
732	3
733	7
734	6
735	2
736	1
737	7
738	1
739	1
740	2
741	1
742	9
743	6
744	4
745	3
746	1
747	6
748	4
749	4
750	1
751	9
752	2
753	3
754	9
755	8
756	8
757	3
758	8
759	8
760	7
761	5
762	4
763	4
764	3
765	3
766	3
767	9
768	6
769	4
770	5
771	2
772	1
773	1
774	5
775	3
776	4
777	5
778	4
779	2
780	3
781	1
782	9
783	9
784	5
785	3
786	3
787	5
788	6
789	9
790	1
791	2
792	6
793	6
794	7
795	9
796	4
797	9
798	5
799	4
800	2
801	4
802	4
803	7
804	7
805	9
806	9
807	4
808	6
809	9
810	7
811	4
812	7
813	2
814	9
815	2
816	4
817	5
818	7
819	6
820	1
821	8
822	9
823	6
824	4
825	3
826	6
827	5
828	4
829	2
830	7
831	7
832	4
833	9
834	9
835	2
836	5
837	8
838	8
839	7
840	5
841	5
842	1
843	5
844	1
845	3
846	5
847	8
848	1
849	6
850	7
851	5
852	9
853	6
854	2
855	3
856	4
857	9
858	4
859	2
860	3
861	9
862	8
863	2
864	7
865	2
866	1
867	7
868	4
869	9
870	8
871	6
872	4
873	1
874	6
875	5
876	8
877	4
878	7
879	1
880	9
881	5
882	1
883	7
884	5
885	3
886	8
887	8
888	2
889	2
890	2
891	5
892	5
893	7
894	8
895	7
896	2
897	8
898	1
899	5
900	4
901	5
902	6
903	8
904	5
905	8
906	7
907	3
908	8
909	5
910	3
911	8
912	5
913	2
914	7
915	7
916	7
917	1
918	7
919	6
920	1
921	5
922	7
923	7
924	5
925	7
926	2
927	5
928	6
929	7
930	1
931	6
932	8
933	4
934	5
935	8
936	7
937	2
938	1
939	8
940	5
941	8
942	7
943	6
944	1
945	1
946	2
947	5
948	3
949	7
950	8
951	7
952	6
953	9
954	8
955	8
956	4
957	7
958	3
959	5
960	5
961	4
962	8
963	9
964	6
965	2
966	1
967	9
968	2
969	6
970	7
971	4
972	6
973	2
974	8
975	3
976	9
977	2
978	6
979	6
980	4
981	6
982	3
983	4
984	3
985	4
986	5
987	7
988	4
989	4
990	2
991	5
992	3
993	5
994	9
995	8
996	2
997	5
998	5
999	5
1000	2
1001	3
DEPOT_SECTION
1
-1
EOF
