NAME : n1001-0020
COMMENT : "Generated by pyvrp_manuel (OVRPL)"
TYPE : OVRPL
DIMENSION : 1001
EDGE_WEIGHT_TYPE : EUC_2D
CAPACITY : 150
VEHICLES : 1000
OPEN_ROUTE : YES
DISTANCE : 3000
NODE_COORD_SECTION
1	309	713
2	489	102
3	319	709
4	72	401
5	524	811
6	925	74
7	466	68
8	812	112
9	96	60
10	409	115
11	605	704
12	170	275
13	800	994
14	293	69
15	700	979
16	490	912
17	917	63
18	363	812
19	703	382
20	966	34
21	261	656
22	435	651
23	492	897
24	289	387
25	669	730
26	749	172
27	935	200
28	547	541
29	570	509
30	88	685
31	889	583
32	210	208
33	996	211
34	322	482
35	533	776
36	875	174
37	306	504
38	458	412
39	580	146
40	117	849
41	136	507
42	293	677
43	941	238
44	638	781
45	370	750
46	851	625
47	729	509
48	903	458
49	310	733
50	973	195
51	559	586
52	140	774
53	785	188
54	892	549
55	279	318
56	172	137
57	367	38
58	858	332
59	344	78
60	38	296
61	277	859
62	98	989
63	14	87
64	263	267
65	437	703
66	581	685
67	439	267
68	184	104
69	528	398
70	694	164
71	518	458
72	401	13
73	166	315
74	435	949
75	405	48
76	232	580
77	71	725
78	643	357
79	632	716
80	1	944
81	594	46
82	437	844
83	391	638
84	386	937
85	158	236
86	593	355
87	426	781
88	37	971
89	684	385
90	968	53
91	739	191
92	998	464
93	439	471
94	496	85
95	855	232
96	334	800
97	875	837
98	263	725
99	573	227
100	501	407
101	255	89
102	631	719
103	248	122
104	158	393
105	244	45
106	764	450
107	57	303
108	879	899
109	996	983
110	143	925
111	566	64
112	391	953
113	58	835
114	560	964
115	735	657
116	410	951
117	659	8
118	502	767
119	879	429
120	343	820
121	119	394
122	867	540
123	303	838
124	116	705
125	112	863
126	837	707
127	505	519
128	97	101
129	944	143
130	403	508
131	560	552
132	546	415
133	110	780
134	176	173
135	979	612
136	444	534
137	528	393
138	248	996
139	211	536
140	208	53
141	939	114
142	387	668
143	565	276
144	722	742
145	69	284
146	51	589
147	142	947
148	128	485
149	138	395
150	555	870
151	282	726
152	766	99
153	437	207
154	860	724
155	842	514
156	200	110
157	118	870
158	832	850
159	705	393
160	839	492
161	274	164
162	853	813
163	883	728
164	343	622
165	467	410
166	812	568
167	253	281
168	340	37
169	999	706
170	734	668
171	167	742
172	753	123
173	749	928
174	33	900
175	836	603
176	666	145
177	747	255
178	84	120
179	463	400
180	103	171
181	884	414
182	487	343
183	630	681
184	401	104
185	211	224
186	464	549
187	847	680
188	725	739
189	308	142
190	459	71
191	263	723
192	511	300
193	224	280
194	758	662
195	803	417
196	464	7
197	101	227
198	894	411
199	719	339
200	698	835
201	77	18
202	285	421
203	458	802
204	629	452
205	10	769
206	293	183
207	316	155
208	232	348
209	462	55
210	775	700
211	977	389
212	142	992
213	400	280
214	380	881
215	838	923
216	220	490
217	154	775
218	732	928
219	556	529
220	355	943
221	36	660
222	601	478
223	39	922
224	987	841
225	561	57
226	940	212
227	585	529
228	34	839
229	31	982
230	663	216
231	299	178
232	965	841
233	16	124
234	965	45
235	342	854
236	333	901
237	513	646
238	822	490
239	282	397
240	419	22
241	22	596
242	113	407
243	373	448
244	5	29
245	183	138
246	761	345
247	545	938
248	225	107
249	776	464
250	219	120
251	358	753
252	397	272
253	496	59
254	431	22
255	883	366
256	180	130
257	897	74
258	10	177
259	520	573
260	928	479
261	900	112
262	536	701
263	77	802
264	933	677
265	742	308
266	181	183
267	785	38
268	878	774
269	983	633
270	773	739
271	90	636
272	645	96
273	394	38
274	191	481
275	494	843
276	849	405
277	169	743
278	680	790
279	411	793
280	525	365
281	122	294
282	264	314
283	787	199
284	532	583
285	123	944
286	722	657
287	338	894
288	355	322
289	173	81
290	505	84
291	691	291
292	359	232
293	535	960
294	928	938
295	753	960
296	836	745
297	685	683
298	511	343
299	97	390
300	227	985
301	692	438
302	366	615
303	94	573
304	995	98
305	314	225
306	268	996
307	303	746
308	723	868
309	240	269
310	158	197
311	961	289
312	601	905
313	66	4
314	639	765
315	98	383
316	577	466
317	408	848
318	201	816
319	757	55
320	115	628
321	360	600
322	494	185
323	309	479
324	523	674
325	318	512
326	720	548
327	811	91
328	373	538
329	851	348
330	49	982
331	408	749
332	363	965
333	394	366
334	816	849
335	78	804
336	631	697
337	91	758
338	554	507
339	454	867
340	821	951
341	836	156
342	272	985
343	986	593
344	148	360
345	514	97
346	209	905
347	544	456
348	159	781
349	872	36
350	53	363
351	112	790
352	988	367
353	548	563
354	55	590
355	35	757
356	380	409
357	462	525
358	976	915
359	816	707
360	617	636
361	104	676
362	982	90
363	530	266
364	879	73
365	267	95
366	224	403
367	660	811
368	772	415
369	469	829
370	839	966
371	383	110
372	565	934
373	172	271
374	230	587
375	655	844
376	505	311
377	995	681
378	444	967
379	188	441
380	200	629
381	347	629
382	530	529
383	692	405
384	425	235
385	788	104
386	370	801
387	209	247
388	584	360
389	810	900
390	224	267
391	506	966
392	231	946
393	731	176
394	639	404
395	615	610
396	585	812
397	281	399
398	772	67
399	691	62
400	534	341
401	856	82
402	820	433
403	87	147
404	956	263
405	639	928
406	201	579
407	579	420
408	214	948
409	294	938
410	148	393
411	428	61
412	582	274
413	530	305
414	105	360
415	780	847
416	296	536
417	157	499
418	880	1
419	78	676
420	54	938
421	919	909
422	331	596
423	386	971
424	314	738
425	528	684
426	156	558
427	904	702
428	88	213
429	50	877
430	429	160
431	335	741
432	485	324
433	168	609
434	646	672
435	918	392
436	960	776
437	437	706
438	728	650
439	221	491
440	228	180
441	243	717
442	842	454
443	68	349
444	441	465
445	195	569
446	339	233
447	79	725
448	954	959
449	76	40
450	456	251
451	620	169
452	598	856
453	268	685
454	569	587
455	965	189
456	615	52
457	20	883
458	811	296
459	274	512
460	249	91
461	176	171
462	670	772
463	521	817
464	271	633
465	223	156
466	150	185
467	490	270
468	832	68
469	788	6
470	159	718
471	187	245
472	176	863
473	263	676
474	153	925
475	16	312
476	422	280
477	166	989
478	149	813
479	726	307
480	249	319
481	840	552
482	659	624
483	3	206
484	976	999
485	163	144
486	769	76
487	339	580
488	714	268
489	285	548
490	350	34
491	436	773
492	849	955
493	1	428
494	666	820
495	743	924
496	504	589
497	509	403
498	853	310
499	279	173
500	895	744
501	524	866
502	980	766
503	284	211
504	681	977
505	259	624
506	180	983
507	412	586
508	925	706
509	350	270
510	261	985
511	901	832
512	65	649
513	34	205
514	96	756
515	617	6
516	504	449
517	876	48
518	161	32
519	386	964
520	909	165
521	94	242
522	660	426
523	618	286
524	119	679
525	419	597
526	173	724
527	599	949
528	47	792
529	288	229
530	450	86
531	17	565
532	335	915
533	66	889
534	401	768
535	720	348
536	902	781
537	400	817
538	958	577
539	1	845
540	568	621
541	769	514
542	970	397
543	429	203
544	533	867
545	915	9
546	842	441
547	548	676
548	311	396
549	75	710
550	914	17
551	315	239
552	3	905
553	15	791
554	820	948
555	1	138
556	434	478
557	768	558
558	697	432
559	841	177
560	437	227
561	103	395
562	797	307
563	373	640
564	343	192
565	789	253
566	881	538
567	777	822
568	513	191
569	145	628
570	157	957
571	842	16
572	161	132
573	148	86
574	718	909
575	183	607
576	29	17
577	956	456
578	857	444
579	669	966
580	555	483
581	473	361
582	643	930
583	125	887
584	557	657
585	228	637
586	844	279
587	20	191
588	517	217
589	684	265
590	893	521
591	180	809
592	948	834
593	646	415
594	641	28
595	488	923
596	464	148
597	648	20
598	78	833
599	469	970
600	946	411
601	687	280
602	634	779
603	589	919
604	551	419
605	457	752
606	243	728
607	762	64
608	92	656
609	200	758
610	519	657
611	204	791
612	58	989
613	352	315
614	931	924
615	533	574
616	543	924
617	940	63
618	312	254
619	820	897
620	239	722
621	958	835
622	983	303
623	229	311
624	964	666
625	870	850
626	75	283
627	34	256
628	228	824
629	408	393
630	836	540
631	124	489
632	370	372
633	187	94
634	686	5
635	36	382
636	507	252
637	348	167
638	516	96
639	374	314
640	828	331
641	469	342
642	674	850
643	183	685
644	500	42
645	220	460
646	96	311
647	895	130
648	154	639
649	14	349
650	989	852
651	119	505
652	23	20
653	608	626
654	125	128
655	776	693
656	642	3
657	261	239
658	126	971
659	165	821
660	86	300
661	781	490
662	24	883
663	68	306
664	515	535
665	370	936
666	697	736
667	638	881
668	146	953
669	229	793
670	305	754
671	938	958
672	970	206
673	419	852
674	907	912
675	937	915
676	261	516
677	968	121
678	211	39
679	391	514
680	472	966
681	764	701
682	712	871
683	112	933
684	941	263
685	36	699
686	355	812
687	804	120
688	152	681
689	362	391
690	177	149
691	588	462
692	152	105
693	336	919
694	687	260
695	757	968
696	254	824
697	822	990
698	398	321
699	109	898
700	857	235
701	936	550
702	51	417
703	604	734
704	91	374
705	62	309
706	53	838
707	569	80
708	553	282
709	812	140
710	895	431
711	14	738
712	608	288
713	964	166
714	315	417
715	703	41
716	593	163
717	274	289
718	903	390
719	362	998
720	11	673
721	199	749
722	579	597
723	653	598
724	566	949
725	525	309
726	998	258
727	981	584
728	457	309
729	979	23
730	145	442
731	646	638
732	280	673
733	697	409
734	87	616
735	696	483
736	411	503
737	634	338
738	746	375
739	727	481
740	403	146
741	69	106
742	353	417
743	215	647
744	132	378
745	306	332
746	433	799
747	703	96
748	923	257
749	665	525
750	280	145
751	308	511
752	912	934
753	341	947
754	295	143
755	730	823
756	206	354
757	57	992
758	156	582
759	835	53
760	83	932
761	30	421
762	196	884
763	17	332
764	481	74
765	650	191
766	169	89
767	710	54
768	596	177
769	948	818
770	348	191
771	102	691
772	5	280
773	752	500
774	867	609
775	949	615
776	721	878
777	475	827
778	313	823
779	935	929
780	324	154
781	569	724
782	406	461
783	29	87
784	602	26
785	546	743
786	320	316
787	920	286
788	328	457
789	906	934
790	552	963
791	298	72
792	774	73
793	579	647
794	471	24
795	392	260
796	866	498
797	801	680
798	374	955
799	541	664
800	246	919
801	181	16
802	203	697
803	687	434
804	532	960
805	142	247
806	447	951
807	731	604
808	676	276
809	909	635
810	721	694
811	687	258
812	848	670
813	0	169
814	971	773
815	3	991
816	320	775
817	726	152
818	541	591
819	118	794
820	139	918
821	192	261
822	664	689
823	274	882
824	262	945
825	506	938
826	273	221
827	272	153
828	150	656
829	53	38
830	458	846
831	413	474
832	861	198
833	618	157
834	161	87
835	459	746
836	103	703
837	432	802
838	657	936
839	267	87
840	119	106
841	8	492
842	962	164
843	784	544
844	404	452
845	131	105
846	732	532
847	131	516
848	785	373
849	263	125
850	628	844
851	37	255
852	131	684
853	18	512
854	960	361
855	579	489
856	215	979
857	411	575
858	194	225
859	70	721
860	791	731
861	833	166
862	738	447
863	500	170
864	678	592
865	92	284
866	478	374
867	543	645
868	857	679
869	250	437
870	181	991
871	270	249
872	958	974
873	95	355
874	832	835
875	310	421
876	250	949
877	755	655
878	788	332
879	993	599
880	608	649
881	273	575
882	481	396
883	69	603
884	19	501
885	338	392
886	407	831
887	646	736
888	506	719
889	763	777
890	345	596
891	76	312
892	950	32
893	902	53
894	656	9
895	601	437
896	310	941
897	341	534
898	935	622
899	520	475
900	778	509
901	94	37
902	523	70
903	72	26
904	453	326
905	31	804
906	499	134
907	82	122
908	123	401
909	31	31
910	999	60
911	435	670
912	126	934
913	33	655
914	271	209
915	603	332
916	183	505
917	907	168
918	351	623
919	579	246
920	785	491
921	81	984
922	804	611
923	586	429
924	323	355
925	440	701
926	329	993
927	26	617
928	129	459
929	340	27
930	734	410
931	731	197
932	741	728
933	815	985
934	413	296
935	720	94
936	556	600
937	495	762
938	161	570
939	468	33
940	171	710
941	881	919
942	832	320
943	431	298
944	499	202
945	691	501
946	180	339
947	383	136
948	775	425
949	863	574
950	720	661
951	176	982
952	242	430
953	858	530
954	700	102
955	920	923
956	224	808
957	836	113
958	266	424
959	192	211
960	225	367
961	638	101
962	176	319
963	611	872
964	44	955
965	108	807
966	407	539
967	751	800
968	346	899
969	629	612
970	500	204
971	94	59
972	271	897
973	629	8
974	571	849
975	605	466
976	931	528
977	622	192
978	230	802
979	201	684
980	756	725
981	481	459
982	610	733
983	732	264
984	234	671
985	866	463
986	973	640
987	519	238
988	153	432
989	744	610
990	829	527
991	474	996
992	49	231
993	396	729
994	186	926
995	675	666
996	343	936
997	303	512
998	905	793
999	931	181
1000	513	590
1001	305	770
DEMAND_SECTION
1	0
2	7
3	2
4	2
5	7
6	8
7	5
8	3
9	3
10	4
11	3
12	4
13	6
14	8
15	5
16	3
17	7
18	3
19	7
20	9
21	8
22	3
23	6
24	1
25	5
26	4
27	3
28	8
29	3
30	1
31	9
32	2
33	7
34	6
35	4
36	6
37	4
38	2
39	6
40	5
41	5
42	9
43	3
44	3
45	5
46	3
47	2
48	2
49	4
50	3
51	7
52	4
53	5
54	8
55	7
56	1
57	3
58	3
59	7
60	6
61	2
62	7
63	4
64	9
65	5
66	5
67	3
68	6
69	4
70	6
71	7
72	8
73	2
74	4
75	1
76	2
77	4
78	5
79	9
80	7
81	8
82	8
83	4
84	2
85	3
86	2
87	9
88	5
89	7
90	9
91	2
92	9
93	5
94	9
95	5
96	2
97	3
98	7
99	6
100	7
101	5
102	1
103	2
104	2
105	6
106	4
107	3
108	8
109	8
110	7
111	9
112	9
113	8
114	6
115	6
116	2
117	8
118	7
119	8
120	5
121	3
122	6
123	6
124	5
125	7
126	9
127	8
128	8
129	4
130	1
131	8
132	9
133	9
134	1
135	8
136	1
137	2
138	9
139	3
140	8
141	5
142	8
143	9
144	5
145	5
146	2
147	9
148	7
149	8
150	3
151	1
152	7
153	8
154	3
155	3
156	5
157	3
158	9
159	7
160	5
161	7
162	4
163	7
164	3
165	4
166	3
167	3
168	2
169	5
170	7
171	1
172	4
173	1
174	7
175	2
176	3
177	9
178	5
179	9
180	3
181	8
182	4
183	1
184	5
185	7
186	5
187	4
188	7
189	9
190	4
191	2
192	7
193	7
194	6
195	7
196	8
197	8
198	6
199	9
200	6
201	6
202	6
203	9
204	6
205	8
206	7
207	4
208	6
209	3
210	6
211	7
212	1
213	5
214	9
215	6
216	7
217	9
218	6
219	9
220	5
221	7
222	5
223	8
224	7
225	3
226	5
227	7
228	4
229	6
230	6
231	9
232	6
233	9
234	3
235	1
236	6
237	1
238	6
239	5
240	7
241	1
242	5
243	1
244	9
245	5
246	6
247	4
248	8
249	1
250	9
251	7
252	3
253	9
254	3
255	6
256	6
257	7
258	3
259	8
260	9
261	6
262	6
263	7
264	7
265	3
266	4
267	4
268	1
269	8
270	5
271	3
272	4
273	1
274	5
275	5
276	9
277	5
278	7
279	4
280	4
281	6
282	1
283	1
284	4
285	6
286	9
287	7
288	9
289	4
290	4
291	5
292	8
293	1
294	9
295	5
296	9
297	2
298	2
299	4
300	7
301	5
302	9
303	8
304	7
305	7
306	1
307	4
308	6
309	7
310	7
311	8
312	3
313	1
314	4
315	7
316	8
317	2
318	6
319	4
320	1
321	2
322	8
323	8
324	9
325	3
326	5
327	4
328	9
329	7
330	2
331	2
332	8
333	1
334	9
335	1
336	5
337	6
338	2
339	6
340	5
341	2
342	3
343	3
344	5
345	7
346	1
347	4
348	6
349	4
350	8
351	8
352	4
353	1
354	2
355	1
356	4
357	2
358	2
359	4
360	8
361	7
362	5
363	7
364	9
365	5
366	8
367	9
368	9
369	7
370	8
371	1
372	9
373	6
374	3
375	9
376	7
377	2
378	2
379	7
380	3
381	2
382	1
383	1
384	1
385	7
386	5
387	3
388	5
389	9
390	5
391	5
392	1
393	9
394	5
395	2
396	6
397	9
398	4
399	2
400	2
401	2
402	5
403	1
404	8
405	3
406	3
407	4
408	1
409	6
410	6
411	8
412	6
413	1
414	2
415	1
416	2
417	3
418	3
419	2
420	7
421	2
422	5
423	3
424	5
425	2
426	9
427	9
428	8
429	5
430	2
431	4
432	4
433	6
434	9
435	6
436	7
437	5
438	8
439	2
440	2
441	3
442	9
443	5
444	7
445	5
446	9
447	3
448	9
449	2
450	5
451	5
452	1
453	9
454	9
455	1
456	3
457	1
458	6
459	9
460	9
461	7
462	8
463	7
464	6
465	2
466	4
467	4
468	2
469	5
470	6
471	6
472	5
473	8
474	9
475	6
476	4
477	9
478	3
479	5
480	3
481	1
482	8
483	5
484	7
485	4
486	7
487	9
488	3
489	2
490	2
491	5
492	4
493	9
494	6
495	6
496	8
497	7
498	7
499	9
500	9
501	5
502	6
503	3
504	2
505	7
506	2
507	9
508	1
509	9
510	9
511	5
512	4
513	9
514	5
515	5
516	9
517	3
518	3
519	3
520	2
521	9
522	5
523	3
524	4
525	5
526	9
527	2
528	5
529	9
530	8
531	5
532	3
533	3
534	8
535	9
536	7
537	3
538	3
539	4
540	5
541	1
542	4
543	1
544	6
545	4
546	7
547	9
548	7
549	1
550	9
551	3
552	1
553	2
554	2
555	7
556	8
557	2
558	2
559	8
560	1
561	4
562	1
563	8
564	7
565	3
566	6
567	2
568	3
569	3
570	5
571	9
572	6
573	4
574	2
575	1
576	2
577	6
578	4
579	4
580	5
581	5
582	7
583	8
584	9
585	1
586	7
587	7
588	1
589	8
590	3
591	3
592	8
593	4
594	5
595	7
596	2
597	3
598	3
599	3
600	9
601	8
602	8
603	8
604	3
605	2
606	4
607	7
608	6
609	6
610	6
611	7
612	2
613	2
614	1
615	1
616	1
617	6
618	3
619	4
620	4
621	3
622	2
623	9
624	3
625	8
626	3
627	2
628	2
629	5
630	1
631	6
632	5
633	4
634	7
635	9
636	3
637	4
638	5
639	2
640	2
641	9
642	4
643	7
644	5
645	1
646	7
647	7
648	8
649	1
650	2
651	1
652	5
653	7
654	5
655	5
656	1
657	1
658	8
659	1
660	4
661	2
662	4
663	3
664	3
665	3
666	6
667	7
668	1
669	4
670	7
671	3
672	7
673	1
674	7
675	9
676	5
677	2
678	2
679	2
680	7
681	6
682	7
683	8
684	4
685	5
686	7
687	3
688	4
689	7
690	3
691	6
692	7
693	8
694	9
695	2
696	3
697	8
698	3
699	9
700	3
701	6
702	3
703	4
704	7
705	1
706	1
707	3
708	4
709	7
710	5
711	7
712	2
713	3
714	6
715	9
716	4
717	3
718	9
719	5
720	2
721	6
722	1
723	7
724	6
725	6
726	3
727	3
728	7
729	4
730	4
731	5
732	8
733	7
734	9
735	4
736	9
737	9
738	2
739	5
740	3
741	4
742	6
743	5
744	7
745	6
746	2
747	3
748	2
749	4
750	9
751	9
752	8
753	4
754	6
755	8
756	6
757	5
758	8
759	4
760	4
761	9
762	2
763	3
764	1
765	9
766	8
767	4
768	5
769	1
770	2
771	8
772	7
773	8
774	6
775	2
776	8
777	6
778	8
779	6
780	1
781	4
782	1
783	3
784	6
785	6
786	3
787	4
788	8
789	2
790	3
791	6
792	1
793	6
794	4
795	1
796	1
797	5
798	8
799	5
800	5
801	6
802	4
803	7
804	6
805	2
806	5
807	6
808	3
809	6
810	1
811	3
812	2
813	9
814	5
815	4
816	1
817	5
818	8
819	2
820	8
821	7
822	7
823	5
824	8
825	3
826	4
827	5
828	2
829	7
830	9
831	8
832	6
833	7
834	2
835	1
836	8
837	9
838	3
839	3
840	2
841	3
842	8
843	9
844	8
845	6
846	3
847	6
848	6
849	3
850	3
851	3
852	4
853	1
854	3
855	4
856	7
857	8
858	6
859	6
860	4
861	7
862	2
863	5
864	8
865	6
866	3
867	2
868	3
869	3
870	8
871	1
872	3
873	7
874	5
875	4
876	5
877	6
878	3
879	6
880	1
881	3
882	4
883	5
884	4
885	1
886	3
887	7
888	5
889	7
890	2
891	3
892	8
893	6
894	2
895	7
896	6
897	4
898	8
899	2
900	4
901	9
902	5
903	7
904	8
905	7
906	9
907	8
908	6
909	2
910	9
911	7
912	1
913	2
914	6
915	8
916	3
917	7
918	5
919	4
920	7
921	6
922	8
923	4
924	8
925	5
926	2
927	2
928	2
929	6
930	4
931	6
932	2
933	9
934	3
935	7
936	6
937	4
938	7
939	4
940	1
941	6
942	1
943	1
944	3
945	5
946	5
947	6
948	1
949	7
950	8
951	9
952	8
953	4
954	1
955	2
956	3
957	6
958	6
959	8
960	7
961	3
962	1
963	8
964	7
965	4
966	6
967	3
968	2
969	2
970	1
971	3
972	1
973	2
974	5
975	9
976	5
977	3
978	6
979	2
980	7
981	1
982	8
983	1
984	1
985	5
986	6
987	6
988	4
989	2
990	3
991	1
992	9
993	5
994	7
995	1
996	5
997	3
998	2
999	9
1000	8
1001	1
DEPOT_SECTION
1
-1
EOF
