NAME : n201-0002
COMMENT : "Generated by pyvrp_manuel (VRPB)"
TYPE : VRPB
DIMENSION : 201
EDGE_WEIGHT_TYPE : EUC_2D
CAPACITY : 80
VEHICLES : 200
NODE_COORD_SECTION
1	208	64
2	217	760
3	185	617
4	380	531
5	683	541
6	416	621
7	362	79
8	360	95
9	48	375
10	484	851
11	623	20
12	520	366
13	633	131
14	117	623
15	565	378
16	402	167
17	57	533
18	816	364
19	523	413
20	60	453
21	191	832
22	726	792
23	707	498
24	589	481
25	284	982
26	378	26
27	596	18
28	931	515
29	107	727
30	584	534
31	247	176
32	80	452
33	267	950
34	647	453
35	371	915
36	675	51
37	144	4
38	920	146
39	824	731
40	762	927
41	817	937
42	856	400
43	246	514
44	919	29
45	964	656
46	387	602
47	267	498
48	492	70
49	214	264
50	607	404
51	109	861
52	736	268
53	143	916
54	643	129
55	91	785
56	30	372
57	463	181
58	935	324
59	363	860
60	415	543
61	135	517
62	21	562
63	396	562
64	726	457
65	902	98
66	607	475
67	984	234
68	383	617
69	104	708
70	734	791
71	718	764
72	619	386
73	43	555
74	424	30
75	765	599
76	588	147
77	231	991
78	827	572
79	880	92
80	898	18
81	622	126
82	230	177
83	413	590
84	481	58
85	259	117
86	8	957
87	872	475
88	281	661
89	981	545
90	748	776
91	774	1
92	23	945
93	542	518
94	634	878
95	621	67
96	304	938
97	289	663
98	37	704
99	623	562
100	557	146
101	880	209
102	921	369
103	258	810
104	625	991
105	715	53
106	621	749
107	227	581
108	101	209
109	165	592
110	142	66
111	897	155
112	468	737
113	669	77
114	128	535
115	291	199
116	684	553
117	16	182
118	367	667
119	2	498
120	474	218
121	714	419
122	181	59
123	84	539
124	362	622
125	908	863
126	421	520
127	231	721
128	940	364
129	207	6
130	556	667
131	209	501
132	241	262
133	143	31
134	292	851
135	208	771
136	468	142
137	298	465
138	941	157
139	428	609
140	970	541
141	910	752
142	757	442
143	952	670
144	825	333
145	580	533
146	664	630
147	358	370
148	770	936
149	550	101
150	481	186
151	826	586
152	412	613
153	746	953
154	644	830
155	861	848
156	871	816
157	762	296
158	503	759
159	772	50
160	731	761
161	644	806
162	59	183
163	931	252
164	56	536
165	539	192
166	548	40
167	507	483
168	575	683
169	945	343
170	264	997
171	602	64
172	645	42
173	935	229
174	136	826
175	503	540
176	496	122
177	44	622
178	43	474
179	358	378
180	667	379
181	355	308
182	539	775
183	298	988
184	421	139
185	899	965
186	654	47
187	583	864
188	740	149
189	282	288
190	248	594
191	52	416
192	41	328
193	945	933
194	574	167
195	905	828
196	627	327
197	288	536
198	294	155
199	365	393
200	606	84
201	493	76
DEMAND_SECTION
1	0
2	6
3	3
4	3
5	5
6	6
7	8
8	7
9	4
10	5
11	4
12	4
13	8
14	7
15	6
16	3
17	3
18	2
19	9
20	9
21	2
22	1
23	3
24	6
25	4
26	7
27	5
28	1
29	5
30	3
31	1
32	5
33	4
34	6
35	2
36	8
37	4
38	7
39	2
40	3
41	9
42	2
43	7
44	2
45	7
46	7
47	8
48	2
49	8
50	7
51	2
52	9
53	8
54	5
55	1
56	2
57	3
58	1
59	1
60	6
61	1
62	6
63	1
64	2
65	5
66	6
67	4
68	2
69	9
70	1
71	9
72	6
73	4
74	7
75	7
76	1
77	6
78	7
79	4
80	2
81	6
82	7
83	8
84	3
85	2
86	8
87	1
88	2
89	5
90	8
91	4
92	4
93	6
94	6
95	1
96	2
97	9
98	2
99	3
100	5
101	6
102	6
103	7
104	9
105	2
106	4
107	5
108	2
109	8
110	6
111	8
112	6
113	3
114	7
115	6
116	1
117	9
118	2
119	6
120	5
121	6
122	2
123	5
124	9
125	6
126	1
127	5
128	9
129	2
130	3
131	9
132	6
133	4
134	7
135	6
136	8
137	5
138	4
139	5
140	3
141	1
142	3
143	1
144	4
145	3
146	6
147	7
148	6
149	1
150	4
151	4
152	8
153	6
154	5
155	9
156	8
157	8
158	7
159	7
160	3
161	9
162	4
163	3
164	1
165	4
166	8
167	5
168	3
169	5
170	4
171	5
172	3
173	8
174	4
175	8
176	6
177	3
178	2
179	4
180	1
181	5
182	8
183	3
184	3
185	7
186	9
187	3
188	4
189	1
190	5
191	7
192	9
193	4
194	5
195	4
196	7
197	4
198	2
199	8
200	5
201	1
BACKHAUL_SECTION
2	5	18	21	27	30	32	37	39	41	45	46	57	59	64	68	75	80	83	93	95	97	98	106	107	110	114	130	138	141	142	143	152	162	169	170	171	191	192	198	-1
DEPOT_SECTION
1
-1
EOF
