NAME : n201-0049
COMMENT : "Generated by pyvrp_manuel (VRPB)"
TYPE : VRPB
DIMENSION : 201
EDGE_WEIGHT_TYPE : EUC_2D
CAPACITY : 80
VEHICLES : 200
NODE_COORD_SECTION
1	402	31
2	771	587
3	761	588
4	778	486
5	40	848
6	577	237
7	313	226
8	763	983
9	621	317
10	591	453
11	459	698
12	835	321
13	928	332
14	673	506
15	711	225
16	385	480
17	159	717
18	947	31
19	106	145
20	570	761
21	285	154
22	393	343
23	839	183
24	944	205
25	205	850
26	609	458
27	146	112
28	944	134
29	542	88
30	928	511
31	56	138
32	549	533
33	710	854
34	22	898
35	926	21
36	469	478
37	754	156
38	621	305
39	996	796
40	61	829
41	763	706
42	478	697
43	634	112
44	17	203
45	527	98
46	429	100
47	158	143
48	503	48
49	263	724
50	940	883
51	375	100
52	197	625
53	946	22
54	231	577
55	471	138
56	585	735
57	879	707
58	488	740
59	380	284
60	377	518
61	592	208
62	916	295
63	150	892
64	483	255
65	715	841
66	289	40
67	835	594
68	657	722
69	620	223
70	668	857
71	282	190
72	582	743
73	292	297
74	731	550
75	397	36
76	412	303
77	968	465
78	575	991
79	355	743
80	57	738
81	295	6
82	554	526
83	805	416
84	591	571
85	263	582
86	130	101
87	376	857
88	792	310
89	739	905
90	990	447
91	56	401
92	938	636
93	908	776
94	277	270
95	263	87
96	319	64
97	26	69
98	370	580
99	771	627
100	603	508
101	383	300
102	644	618
103	777	604
104	534	415
105	90	105
106	855	398
107	754	341
108	608	657
109	394	432
110	624	750
111	519	437
112	96	525
113	651	484
114	884	199
115	224	757
116	396	890
117	965	647
118	934	457
119	789	92
120	504	338
121	925	311
122	865	598
123	654	600
124	167	790
125	403	421
126	429	276
127	794	181
128	217	331
129	848	93
130	270	572
131	464	553
132	555	705
133	332	867
134	218	202
135	533	858
136	229	766
137	934	300
138	157	594
139	676	41
140	483	351
141	513	855
142	994	459
143	317	932
144	765	748
145	964	927
146	318	267
147	444	763
148	449	65
149	263	281
150	279	249
151	449	785
152	732	949
153	217	440
154	813	175
155	135	708
156	355	6
157	112	694
158	574	405
159	215	772
160	567	633
161	712	264
162	448	700
163	282	890
164	988	495
165	867	386
166	744	185
167	553	204
168	751	270
169	482	629
170	455	916
171	240	161
172	480	519
173	49	168
174	951	244
175	818	494
176	975	256
177	856	228
178	727	476
179	7	862
180	958	737
181	321	489
182	557	145
183	180	60
184	276	53
185	333	357
186	226	20
187	317	118
188	958	763
189	369	102
190	845	706
191	737	507
192	577	189
193	144	342
194	160	287
195	836	398
196	418	457
197	521	717
198	647	903
199	340	984
200	61	343
201	22	729
DEMAND_SECTION
1	0
2	1
3	7
4	9
5	5
6	2
7	5
8	5
9	5
10	6
11	8
12	9
13	6
14	7
15	5
16	9
17	2
18	2
19	7
20	3
21	7
22	4
23	7
24	6
25	6
26	5
27	4
28	4
29	5
30	7
31	4
32	4
33	3
34	7
35	4
36	7
37	3
38	7
39	9
40	9
41	5
42	4
43	2
44	3
45	9
46	8
47	3
48	5
49	2
50	4
51	2
52	4
53	6
54	2
55	9
56	7
57	5
58	5
59	6
60	2
61	7
62	8
63	4
64	1
65	9
66	6
67	3
68	3
69	8
70	1
71	5
72	9
73	6
74	3
75	7
76	9
77	5
78	7
79	3
80	4
81	8
82	2
83	4
84	8
85	3
86	2
87	8
88	1
89	1
90	5
91	8
92	7
93	7
94	4
95	7
96	7
97	7
98	4
99	6
100	6
101	9
102	3
103	8
104	1
105	1
106	6
107	2
108	4
109	6
110	9
111	2
112	7
113	3
114	6
115	9
116	6
117	3
118	9
119	6
120	4
121	1
122	9
123	9
124	8
125	7
126	9
127	9
128	8
129	9
130	5
131	4
132	2
133	8
134	9
135	1
136	9
137	8
138	3
139	5
140	8
141	1
142	9
143	4
144	4
145	5
146	8
147	6
148	2
149	5
150	5
151	3
152	9
153	5
154	3
155	2
156	6
157	7
158	2
159	6
160	3
161	8
162	6
163	2
164	1
165	2
166	8
167	4
168	1
169	8
170	8
171	5
172	7
173	7
174	8
175	3
176	6
177	6
178	3
179	7
180	2
181	6
182	7
183	3
184	2
185	6
186	9
187	7
188	5
189	4
190	2
191	8
192	6
193	3
194	4
195	4
196	8
197	5
198	3
199	9
200	5
201	8
BACKHAUL_SECTION
2	5	18	21	27	30	32	37	39	41	45	46	57	59	64	68	75	80	83	93	95	97	98	106	107	110	114	130	138	141	142	143	152	162	169	170	171	191	192	198	-1
DEPOT_SECTION
1
-1
EOF
