NAME : n201-0048
COMMENT : "Generated by pyvrp_manuel (VRPB)"
TYPE : VRPB
DIMENSION : 201
EDGE_WEIGHT_TYPE : EUC_2D
CAPACITY : 80
VEHICLES : 200
NODE_COORD_SECTION
1	927	387
2	58	221
3	758	358
4	521	494
5	302	831
6	748	918
7	359	589
8	85	46
9	711	686
10	98	265
11	775	556
12	463	644
13	465	122
14	230	80
15	640	14
16	849	839
17	572	501
18	787	49
19	688	256
20	666	407
21	611	769
22	912	420
23	130	107
24	484	679
25	226	176
26	905	306
27	376	345
28	125	965
29	585	217
30	441	709
31	872	590
32	351	233
33	689	56
34	199	488
35	711	573
36	785	673
37	10	174
38	447	509
39	925	694
40	733	247
41	185	586
42	524	137
43	85	580
44	777	537
45	340	438
46	549	335
47	822	557
48	944	54
49	863	572
50	351	770
51	947	950
52	730	310
53	519	953
54	798	916
55	908	24
56	804	891
57	349	190
58	35	143
59	279	605
60	838	515
61	584	137
62	805	291
63	732	337
64	323	4
65	425	305
66	772	38
67	995	84
68	727	977
69	202	226
70	688	392
71	80	697
72	661	325
73	256	60
74	364	302
75	740	393
76	457	725
77	856	249
78	516	969
79	115	211
80	120	586
81	499	308
82	26	317
83	709	723
84	99	993
85	100	29
86	552	980
87	8	302
88	880	20
89	538	575
90	344	778
91	850	201
92	621	220
93	42	379
94	487	761
95	99	931
96	63	59
97	703	422
98	669	865
99	965	547
100	643	872
101	244	639
102	367	21
103	810	835
104	980	913
105	940	397
106	83	177
107	924	220
108	387	586
109	467	417
110	825	906
111	847	834
112	966	596
113	867	442
114	533	568
115	676	39
116	408	671
117	697	687
118	489	203
119	388	875
120	866	305
121	869	814
122	789	262
123	560	451
124	404	302
125	826	283
126	843	287
127	389	526
128	605	576
129	919	73
130	946	391
131	990	619
132	85	28
133	495	168
134	601	348
135	229	215
136	727	569
137	803	189
138	316	312
139	300	788
140	99	672
141	252	255
142	365	530
143	445	318
144	812	199
145	806	926
146	502	439
147	680	603
148	185	749
149	933	871
150	190	110
151	817	545
152	206	565
153	211	903
154	103	253
155	149	754
156	945	844
157	262	407
158	874	563
159	23	991
160	136	841
161	37	614
162	764	683
163	774	449
164	399	236
165	946	41
166	798	688
167	577	328
168	161	709
169	196	18
170	611	258
171	418	715
172	769	649
173	168	348
174	424	767
175	609	403
176	755	574
177	593	240
178	988	401
179	522	437
180	34	595
181	638	484
182	42	47
183	634	80
184	565	21
185	212	295
186	148	447
187	866	651
188	698	9
189	282	860
190	662	52
191	86	691
192	532	283
193	680	175
194	988	520
195	456	961
196	91	401
197	547	736
198	917	104
199	372	212
200	788	102
201	572	750
DEMAND_SECTION
1	0
2	3
3	2
4	7
5	4
6	4
7	1
8	5
9	1
10	4
11	5
12	4
13	6
14	9
15	8
16	4
17	1
18	9
19	2
20	2
21	4
22	7
23	2
24	6
25	4
26	8
27	2
28	9
29	5
30	1
31	8
32	9
33	8
34	1
35	9
36	6
37	6
38	4
39	7
40	8
41	2
42	7
43	3
44	4
45	4
46	6
47	7
48	4
49	8
50	7
51	3
52	3
53	5
54	3
55	5
56	3
57	5
58	8
59	6
60	8
61	7
62	4
63	6
64	8
65	1
66	7
67	1
68	1
69	7
70	7
71	4
72	1
73	4
74	7
75	9
76	9
77	1
78	5
79	4
80	6
81	1
82	9
83	3
84	1
85	7
86	7
87	9
88	3
89	5
90	7
91	9
92	7
93	3
94	9
95	5
96	5
97	8
98	5
99	4
100	3
101	9
102	5
103	5
104	9
105	6
106	6
107	5
108	7
109	7
110	6
111	4
112	7
113	5
114	1
115	8
116	8
117	3
118	1
119	9
120	6
121	6
122	8
123	7
124	5
125	5
126	3
127	4
128	6
129	8
130	1
131	3
132	6
133	5
134	6
135	5
136	4
137	5
138	9
139	8
140	6
141	8
142	7
143	2
144	5
145	8
146	2
147	5
148	7
149	5
150	6
151	1
152	8
153	8
154	3
155	5
156	9
157	6
158	2
159	8
160	3
161	6
162	9
163	8
164	5
165	4
166	1
167	8
168	5
169	6
170	6
171	4
172	5
173	4
174	7
175	7
176	9
177	5
178	8
179	6
180	9
181	1
182	4
183	3
184	8
185	9
186	3
187	4
188	9
189	5
190	9
191	1
192	5
193	1
194	6
195	6
196	5
197	9
198	4
199	4
200	1
201	7
BACKHAUL_SECTION
2	5	18	21	27	30	32	37	39	41	45	46	57	59	64	68	75	80	83	93	95	97	98	106	107	110	114	130	138	141	142	143	152	162	169	170	171	191	192	198	-1
DEPOT_SECTION
1
-1
EOF
