NAME : n201-0016
COMMENT : "Generated by pyvrp_manuel (VRPB)"
TYPE : VRPB
DIMENSION : 201
EDGE_WEIGHT_TYPE : EUC_2D
CAPACITY : 80
VEHICLES : 200
NODE_COORD_SECTION
1	639	432
2	506	49
3	794	462
4	622	584
5	476	247
6	146	837
7	224	990
8	932	685
9	838	253
10	624	675
11	61	731
12	159	430
13	838	301
14	479	526
15	815	403
16	882	870
17	408	623
18	634	1
19	189	747
20	885	545
21	193	354
22	953	220
23	768	785
24	664	63
25	204	334
26	686	32
27	987	123
28	555	810
29	78	276
30	778	550
31	810	434
32	734	599
33	479	62
34	609	792
35	523	131
36	549	449
37	979	884
38	634	246
39	801	958
40	723	428
41	976	336
42	656	598
43	866	459
44	788	617
45	920	454
46	430	412
47	619	729
48	833	821
49	241	854
50	499	717
51	4	778
52	73	968
53	312	950
54	998	839
55	484	668
56	444	640
57	88	262
58	938	933
59	8	281
60	21	507
61	179	410
62	68	401
63	18	496
64	793	652
65	208	322
66	681	215
67	514	591
68	579	492
69	1	647
70	374	133
71	873	306
72	532	809
73	515	484
74	652	346
75	477	883
76	902	307
77	844	253
78	973	106
79	36	752
80	481	37
81	291	566
82	408	893
83	534	52
84	93	510
85	794	197
86	806	281
87	249	409
88	356	19
89	636	621
90	7	186
91	793	958
92	340	746
93	487	937
94	893	175
95	710	981
96	81	563
97	383	438
98	203	879
99	967	459
100	662	367
101	170	343
102	547	167
103	702	481
104	741	532
105	661	127
106	583	33
107	600	18
108	295	705
109	743	40
110	571	839
111	465	291
112	868	400
113	138	162
114	946	495
115	315	489
116	534	655
117	876	76
118	854	328
119	376	922
120	413	727
121	584	179
122	878	294
123	282	722
124	212	636
125	53	294
126	344	935
127	180	259
128	411	361
129	733	922
130	453	897
131	708	916
132	397	997
133	497	152
134	866	359
135	90	307
136	4	878
137	98	113
138	6	5
139	347	515
140	486	534
141	200	767
142	499	428
143	171	575
144	923	142
145	605	80
146	558	171
147	759	529
148	547	380
149	918	443
150	311	990
151	21	292
152	997	458
153	655	338
154	287	986
155	648	926
156	550	178
157	182	554
158	214	205
159	459	305
160	835	390
161	663	972
162	544	652
163	257	744
164	14	389
165	549	645
166	286	970
167	551	225
168	597	30
169	134	653
170	938	830
171	760	747
172	23	651
173	455	951
174	483	145
175	217	420
176	709	953
177	186	90
178	365	739
179	782	192
180	489	510
181	410	951
182	75	394
183	811	271
184	2	643
185	972	974
186	784	87
187	195	11
188	476	779
189	649	994
190	796	862
191	455	877
192	72	22
193	95	821
194	596	449
195	665	409
196	533	373
197	93	727
198	641	884
199	354	647
200	565	244
201	188	833
DEMAND_SECTION
1	0
2	7
3	1
4	1
5	6
6	7
7	9
8	6
9	2
10	4
11	9
12	3
13	5
14	7
15	7
16	7
17	9
18	1
19	6
20	1
21	9
22	2
23	7
24	1
25	5
26	6
27	3
28	6
29	3
30	8
31	3
32	4
33	7
34	4
35	4
36	4
37	3
38	5
39	6
40	2
41	4
42	5
43	4
44	2
45	8
46	5
47	6
48	3
49	6
50	5
51	7
52	5
53	4
54	6
55	7
56	7
57	7
58	9
59	5
60	1
61	4
62	1
63	8
64	6
65	7
66	7
67	7
68	4
69	7
70	3
71	5
72	2
73	6
74	4
75	9
76	6
77	3
78	8
79	9
80	6
81	8
82	9
83	8
84	3
85	3
86	3
87	3
88	2
89	9
90	8
91	4
92	5
93	2
94	8
95	7
96	5
97	8
98	8
99	4
100	3
101	5
102	8
103	9
104	8
105	6
106	9
107	3
108	7
109	5
110	5
111	8
112	1
113	2
114	1
115	3
116	8
117	9
118	9
119	9
120	8
121	4
122	6
123	6
124	1
125	4
126	7
127	9
128	6
129	5
130	9
131	5
132	1
133	1
134	5
135	8
136	3
137	7
138	9
139	6
140	2
141	1
142	1
143	5
144	5
145	7
146	7
147	3
148	3
149	4
150	4
151	7
152	5
153	6
154	2
155	4
156	5
157	6
158	4
159	5
160	3
161	2
162	5
163	9
164	7
165	3
166	2
167	3
168	9
169	7
170	1
171	9
172	9
173	7
174	5
175	1
176	9
177	4
178	8
179	6
180	3
181	9
182	9
183	2
184	1
185	9
186	5
187	8
188	1
189	9
190	8
191	6
192	2
193	9
194	1
195	6
196	7
197	2
198	3
199	2
200	5
201	9
BACKHAUL_SECTION
2	5	18	21	27	30	32	37	39	41	45	46	57	59	64	68	75	80	83	93	95	97	98	106	107	110	114	130	138	141	142	143	152	162	169	170	171	191	192	198	-1
DEPOT_SECTION
1
-1
EOF
