NAME : n201-0010
COMMENT : "Generated by pyvrp_manuel (VRPB)"
TYPE : VRPB
DIMENSION : 201
EDGE_WEIGHT_TYPE : EUC_2D
CAPACITY : 80
VEHICLES : 200
NODE_COORD_SECTION
1	836	952
2	740	384
3	654	826
4	317	785
5	248	289
6	704	541
7	994	355
8	482	468
9	455	206
10	635	629
11	602	312
12	807	752
13	760	406
14	577	776
15	324	364
16	519	198
17	620	397
18	291	717
19	632	342
20	158	52
21	262	18
22	574	126
23	368	228
24	833	647
25	657	972
26	881	620
27	303	977
28	659	711
29	292	155
30	612	716
31	488	441
32	968	931
33	498	384
34	564	644
35	749	31
36	977	649
37	201	839
38	883	890
39	721	290
40	326	879
41	358	506
42	260	290
43	732	748
44	466	734
45	80	6
46	114	690
47	117	586
48	492	445
49	959	813
50	107	29
51	758	789
52	120	622
53	584	684
54	577	863
55	907	691
56	927	640
57	333	429
58	740	153
59	270	327
60	482	479
61	65	687
62	658	824
63	535	586
64	991	1000
65	111	610
66	64	82
67	781	209
68	516	441
69	723	312
70	319	975
71	187	73
72	667	562
73	41	879
74	35	692
75	695	224
76	630	605
77	16	547
78	734	551
79	625	664
80	997	722
81	536	277
82	569	879
83	159	838
84	713	105
85	421	156
86	105	824
87	257	697
88	913	139
89	589	26
90	300	828
91	148	612
92	960	852
93	224	79
94	374	672
95	713	375
96	861	732
97	792	552
98	978	97
99	591	871
100	69	593
101	210	579
102	517	51
103	259	335
104	415	90
105	383	306
106	16	186
107	158	929
108	580	171
109	995	359
110	309	867
111	470	713
112	451	474
113	894	343
114	852	928
115	92	466
116	76	686
117	116	468
118	105	818
119	735	687
120	646	479
121	78	113
122	132	783
123	184	206
124	738	95
125	874	105
126	183	429
127	431	908
128	471	662
129	688	140
130	703	106
131	142	559
132	533	506
133	880	530
134	320	964
135	98	529
136	997	622
137	583	97
138	780	314
139	262	818
140	914	938
141	616	579
142	241	842
143	456	298
144	719	952
145	394	457
146	514	57
147	152	614
148	11	501
149	582	794
150	319	339
151	420	308
152	461	500
153	905	85
154	528	819
155	438	250
156	609	966
157	128	752
158	239	446
159	21	119
160	843	470
161	485	633
162	956	513
163	74	839
164	151	218
165	486	221
166	943	864
167	901	556
168	753	208
169	12	949
170	889	857
171	466	583
172	903	88
173	288	684
174	926	191
175	980	238
176	804	339
177	808	894
178	160	283
179	918	962
180	544	690
181	516	594
182	754	28
183	453	523
184	134	727
185	414	149
186	678	622
187	41	542
188	358	960
189	201	846
190	347	952
191	234	54
192	265	13
193	583	243
194	560	386
195	208	911
196	575	857
197	646	743
198	950	936
199	307	820
200	440	922
201	278	82
DEMAND_SECTION
1	0
2	9
3	2
4	5
5	1
6	3
7	3
8	9
9	9
10	5
11	9
12	4
13	8
14	7
15	9
16	7
17	6
18	6
19	3
20	1
21	4
22	3
23	7
24	2
25	7
26	1
27	4
28	5
29	5
30	9
31	1
32	9
33	8
34	5
35	8
36	7
37	5
38	4
39	5
40	8
41	7
42	6
43	2
44	5
45	1
46	7
47	2
48	6
49	1
50	6
51	1
52	8
53	5
54	1
55	9
56	3
57	9
58	5
59	9
60	2
61	5
62	4
63	8
64	8
65	1
66	5
67	3
68	4
69	2
70	7
71	3
72	8
73	8
74	5
75	9
76	8
77	8
78	3
79	7
80	4
81	2
82	5
83	2
84	1
85	1
86	5
87	4
88	4
89	5
90	9
91	5
92	8
93	2
94	4
95	1
96	4
97	9
98	7
99	4
100	8
101	7
102	7
103	1
104	2
105	1
106	6
107	3
108	1
109	4
110	2
111	6
112	1
113	7
114	9
115	5
116	9
117	9
118	2
119	6
120	3
121	5
122	9
123	5
124	2
125	8
126	1
127	1
128	5
129	9
130	3
131	5
132	7
133	7
134	7
135	3
136	5
137	7
138	6
139	5
140	1
141	4
142	1
143	8
144	5
145	4
146	1
147	8
148	6
149	7
150	4
151	1
152	1
153	8
154	1
155	8
156	8
157	4
158	4
159	9
160	2
161	6
162	5
163	7
164	6
165	6
166	6
167	3
168	3
169	4
170	3
171	8
172	8
173	1
174	5
175	8
176	3
177	7
178	7
179	5
180	2
181	2
182	2
183	4
184	3
185	5
186	8
187	9
188	5
189	5
190	3
191	8
192	9
193	3
194	1
195	1
196	7
197	3
198	4
199	3
200	6
201	1
BACKHAUL_SECTION
2	5	18	21	27	30	32	37	39	41	45	46	57	59	64	68	75	80	83	93	95	97	98	106	107	110	114	130	138	141	142	143	152	162	169	170	171	191	192	198	-1
DEPOT_SECTION
1
-1
EOF
