NAME : n201-0034
COMMENT : "Generated by pyvrp_manuel (VRPB)"
TYPE : VRPB
DIMENSION : 201
EDGE_WEIGHT_TYPE : EUC_2D
CAPACITY : 80
VEHICLES : 200
NODE_COORD_SECTION
1	987	52
2	35	764
3	229	261
4	416	234
5	766	777
6	297	439
7	912	116
8	880	866
9	879	291
10	452	160
11	816	595
12	550	339
13	398	918
14	520	915
15	448	343
16	973	681
17	311	903
18	661	912
19	730	55
20	241	32
21	603	735
22	215	896
23	486	979
24	488	908
25	3	856
26	510	704
27	470	154
28	186	872
29	682	749
30	189	892
31	376	178
32	860	682
33	313	532
34	927	864
35	164	750
36	679	854
37	793	25
38	708	410
39	609	777
40	341	879
41	277	687
42	673	961
43	683	235
44	381	527
45	902	441
46	475	164
47	114	762
48	627	358
49	99	230
50	825	759
51	221	98
52	591	124
53	445	620
54	33	710
55	862	56
56	369	297
57	686	633
58	380	69
59	515	558
60	465	476
61	674	292
62	713	661
63	23	679
64	137	652
65	281	367
66	180	603
67	190	350
68	218	744
69	784	603
70	506	597
71	28	56
72	551	868
73	918	280
74	125	441
75	989	479
76	584	284
77	93	331
78	690	641
79	781	823
80	773	697
81	557	682
82	886	312
83	79	502
84	504	971
85	273	420
86	592	667
87	933	635
88	294	865
89	962	838
90	110	747
91	459	301
92	887	524
93	208	273
94	395	593
95	215	205
96	161	935
97	395	882
98	524	286
99	980	58
100	756	636
101	640	187
102	28	299
103	679	256
104	66	815
105	574	15
106	621	786
107	102	291
108	791	468
109	537	58
110	821	34
111	348	204
112	134	925
113	920	227
114	445	556
115	910	85
116	289	387
117	727	615
118	761	605
119	583	60
120	512	45
121	392	759
122	107	2
123	281	573
124	603	556
125	709	263
126	931	46
127	354	902
128	767	813
129	616	395
130	115	278
131	797	366
132	89	168
133	51	220
134	349	191
135	454	906
136	230	956
137	924	946
138	329	77
139	520	741
140	477	413
141	715	240
142	195	714
143	945	488
144	352	652
145	217	462
146	54	960
147	429	631
148	404	56
149	348	921
150	768	81
151	686	572
152	282	167
153	207	88
154	867	603
155	208	799
156	560	732
157	655	359
158	435	906
159	456	245
160	616	944
161	204	620
162	968	810
163	236	612
164	766	612
165	657	957
166	306	600
167	698	820
168	664	915
169	778	398
170	783	597
171	79	969
172	361	912
173	997	671
174	965	611
175	320	687
176	699	440
177	934	924
178	741	519
179	430	353
180	702	240
181	95	522
182	866	291
183	983	798
184	406	466
185	479	742
186	229	677
187	200	931
188	420	936
189	119	564
190	743	420
191	991	794
192	669	827
193	197	286
194	780	4
195	45	381
196	856	487
197	262	444
198	894	217
199	888	817
200	286	97
201	422	135
DEMAND_SECTION
1	0
2	5
3	8
4	5
5	3
6	2
7	4
8	5
9	1
10	8
11	4
12	9
13	7
14	4
15	1
16	3
17	3
18	4
19	9
20	7
21	8
22	1
23	9
24	6
25	4
26	9
27	9
28	6
29	2
30	5
31	3
32	4
33	9
34	8
35	9
36	8
37	9
38	3
39	2
40	7
41	1
42	5
43	3
44	6
45	3
46	4
47	6
48	8
49	3
50	7
51	4
52	3
53	8
54	3
55	1
56	4
57	4
58	3
59	7
60	2
61	5
62	4
63	7
64	3
65	8
66	1
67	2
68	4
69	3
70	1
71	2
72	8
73	6
74	6
75	5
76	7
77	2
78	4
79	4
80	5
81	4
82	4
83	3
84	5
85	4
86	4
87	2
88	4
89	6
90	2
91	4
92	8
93	5
94	8
95	3
96	2
97	6
98	3
99	7
100	7
101	5
102	6
103	4
104	7
105	8
106	3
107	4
108	8
109	9
110	8
111	8
112	6
113	3
114	4
115	3
116	3
117	8
118	2
119	6
120	6
121	6
122	2
123	4
124	9
125	9
126	2
127	3
128	1
129	5
130	1
131	4
132	6
133	6
134	7
135	7
136	4
137	6
138	5
139	7
140	7
141	4
142	7
143	3
144	6
145	1
146	7
147	6
148	8
149	2
150	8
151	6
152	8
153	4
154	6
155	2
156	8
157	9
158	9
159	8
160	3
161	7
162	5
163	2
164	3
165	3
166	8
167	6
168	2
169	7
170	9
171	7
172	9
173	7
174	9
175	3
176	3
177	1
178	2
179	6
180	9
181	9
182	1
183	1
184	8
185	2
186	2
187	6
188	7
189	8
190	6
191	5
192	2
193	4
194	1
195	8
196	3
197	3
198	9
199	9
200	1
201	1
BACKHAUL_SECTION
2	5	18	21	27	30	32	37	39	41	45	46	57	59	64	68	75	80	83	93	95	97	98	106	107	110	114	130	138	141	142	143	152	162	169	170	171	191	192	198	-1
DEPOT_SECTION
1
-1
EOF
