NAME : n501-0024
COMMENT : "Generated by pyvrp_manuel (VRPTW)"
TYPE : VRPTW
DIMENSION : 501
EDGE_WEIGHT_TYPE : EUC_2D
CAPACITY : 100
VEHICLES : 500
SERVICE_TIME : 200
NODE_COORD_SECTION
1	127	455
2	208	986
3	556	816
4	676	772
5	468	607
6	258	2
7	215	916
8	770	658
9	665	570
10	911	172
11	306	30
12	68	31
13	687	163
14	62	291
15	633	570
16	337	306
17	705	752
18	410	697
19	62	374
20	55	532
21	335	620
22	629	96
23	32	380
24	616	710
25	880	768
26	9	198
27	870	633
28	442	740
29	117	945
30	810	654
31	803	76
32	39	112
33	20	819
34	298	951
35	523	535
36	219	314
37	893	172
38	86	309
39	655	98
40	192	707
41	388	594
42	2	667
43	288	307
44	114	123
45	132	647
46	28	716
47	572	562
48	939	340
49	458	474
50	910	398
51	644	500
52	241	407
53	684	895
54	999	145
55	235	832
56	642	747
57	811	680
58	700	234
59	113	868
60	47	564
61	770	485
62	262	612
63	351	810
64	374	598
65	308	442
66	604	735
67	684	942
68	842	168
69	804	513
70	139	602
71	539	786
72	860	739
73	206	921
74	593	626
75	709	784
76	422	968
77	211	328
78	659	354
79	372	233
80	428	435
81	493	607
82	386	548
83	922	908
84	729	767
85	15	287
86	589	56
87	190	960
88	979	838
89	328	199
90	673	88
91	347	122
92	645	205
93	754	841
94	905	727
95	334	188
96	646	828
97	900	560
98	192	332
99	706	852
100	523	737
101	448	887
102	42	924
103	410	711
104	741	964
105	836	49
106	470	225
107	668	978
108	427	733
109	380	686
110	79	939
111	204	693
112	621	679
113	486	98
114	435	953
115	20	581
116	274	210
117	598	78
118	512	692
119	437	494
120	632	831
121	16	401
122	518	774
123	844	563
124	325	266
125	515	814
126	104	81
127	522	836
128	773	565
129	955	143
130	377	176
131	889	13
132	303	923
133	367	957
134	678	818
135	369	35
136	591	164
137	927	332
138	123	15
139	779	903
140	700	546
141	313	59
142	180	765
143	577	573
144	823	188
145	365	622
146	720	816
147	146	180
148	863	535
149	436	222
150	306	324
151	733	382
152	624	255
153	703	18
154	980	964
155	302	978
156	314	58
157	756	3
158	105	807
159	7	990
160	538	97
161	938	1
162	659	840
163	405	773
164	911	289
165	747	945
166	833	311
167	981	744
168	387	567
169	661	805
170	710	423
171	388	622
172	376	916
173	983	963
174	878	212
175	679	543
176	340	400
177	576	402
178	77	789
179	785	991
180	104	367
181	98	186
182	368	357
183	126	73
184	812	361
185	753	845
186	42	710
187	151	27
188	523	361
189	258	893
190	636	720
191	736	873
192	542	496
193	766	504
194	890	584
195	93	353
196	451	844
197	823	843
198	170	462
199	439	613
200	133	953
201	759	43
202	118	622
203	548	208
204	139	968
205	812	494
206	624	331
207	895	834
208	468	22
209	979	230
210	597	346
211	548	530
212	448	138
213	414	498
214	317	604
215	195	370
216	430	953
217	831	86
218	409	328
219	275	70
220	715	717
221	884	523
222	586	763
223	616	320
224	907	749
225	130	229
226	99	698
227	508	322
228	287	47
229	962	581
230	11	74
231	158	209
232	258	281
233	566	232
234	995	71
235	282	367
236	514	969
237	662	168
238	458	575
239	248	793
240	323	748
241	242	719
242	205	595
243	696	386
244	326	385
245	608	892
246	405	72
247	962	168
248	846	655
249	690	202
250	917	42
251	627	431
252	730	752
253	535	299
254	481	721
255	31	469
256	950	740
257	961	802
258	947	745
259	801	443
260	399	868
261	951	69
262	803	882
263	52	366
264	460	877
265	262	621
266	258	343
267	194	191
268	82	397
269	895	285
270	219	662
271	752	267
272	962	53
273	535	330
274	867	594
275	598	753
276	459	974
277	329	380
278	479	856
279	758	185
280	332	659
281	776	335
282	42	574
283	93	184
284	164	661
285	694	101
286	193	940
287	950	3
288	464	15
289	537	534
290	964	646
291	846	997
292	971	832
293	439	525
294	380	505
295	546	463
296	930	413
297	571	116
298	883	483
299	380	11
300	823	609
301	104	787
302	236	396
303	874	694
304	221	214
305	528	521
306	195	375
307	296	532
308	429	628
309	864	839
310	493	620
311	309	495
312	712	354
313	988	940
314	35	747
315	790	535
316	9	465
317	873	213
318	861	496
319	308	636
320	840	484
321	472	808
322	451	892
323	696	590
324	733	956
325	537	377
326	834	309
327	453	88
328	62	355
329	694	697
330	121	424
331	381	515
332	728	884
333	548	516
334	658	592
335	457	198
336	214	119
337	879	89
338	930	940
339	65	316
340	113	465
341	901	123
342	118	274
343	341	243
344	809	694
345	977	997
346	283	685
347	810	716
348	135	149
349	734	577
350	530	70
351	10	324
352	54	872
353	93	647
354	552	2
355	9	101
356	503	698
357	679	977
358	432	660
359	870	486
360	256	851
361	265	227
362	175	878
363	556	69
364	483	8
365	175	128
366	507	394
367	372	703
368	897	473
369	317	172
370	380	851
371	994	188
372	186	488
373	853	884
374	474	268
375	372	770
376	254	718
377	378	754
378	737	194
379	171	375
380	218	160
381	715	229
382	637	546
383	65	791
384	188	977
385	364	139
386	769	550
387	482	2
388	590	83
389	794	469
390	421	91
391	352	136
392	512	639
393	202	536
394	839	38
395	133	724
396	725	636
397	476	3
398	316	881
399	318	127
400	32	468
401	89	16
402	858	291
403	861	611
404	4	481
405	400	954
406	769	477
407	799	651
408	180	630
409	96	409
410	636	691
411	294	613
412	474	171
413	314	507
414	313	585
415	868	856
416	701	632
417	480	440
418	612	593
419	403	500
420	296	327
421	310	756
422	802	827
423	977	184
424	88	411
425	61	73
426	148	622
427	0	471
428	50	566
429	479	87
430	297	895
431	63	292
432	892	355
433	588	855
434	769	516
435	782	102
436	200	436
437	312	489
438	197	331
439	521	344
440	16	723
441	627	172
442	742	689
443	391	167
444	451	235
445	993	51
446	136	259
447	272	595
448	246	75
449	612	793
450	627	70
451	779	533
452	462	128
453	37	139
454	128	441
455	786	465
456	366	655
457	102	660
458	237	993
459	796	256
460	303	679
461	470	880
462	773	860
463	139	235
464	436	189
465	17	997
466	455	423
467	917	160
468	435	968
469	545	940
470	448	880
471	513	617
472	878	473
473	298	295
474	665	107
475	889	321
476	367	338
477	248	746
478	732	70
479	679	895
480	542	471
481	109	283
482	676	681
483	678	846
484	909	806
485	150	728
486	50	293
487	521	944
488	64	642
489	754	518
490	16	804
491	911	117
492	831	998
493	410	573
494	665	145
495	687	354
496	516	303
497	599	812
498	838	507
499	596	936
500	857	279
501	348	501
DEMAND_SECTION
1	0
2	9
3	1
4	3
5	2
6	1
7	6
8	3
9	7
10	3
11	1
12	9
13	9
14	2
15	4
16	7
17	6
18	9
19	6
20	7
21	5
22	6
23	2
24	7
25	5
26	4
27	6
28	2
29	4
30	5
31	9
32	1
33	6
34	6
35	3
36	5
37	6
38	5
39	6
40	6
41	7
42	1
43	8
44	7
45	4
46	2
47	3
48	4
49	5
50	9
51	5
52	4
53	4
54	4
55	2
56	1
57	5
58	6
59	2
60	4
61	8
62	2
63	4
64	8
65	1
66	9
67	9
68	7
69	1
70	4
71	8
72	1
73	9
74	8
75	8
76	8
77	4
78	8
79	7
80	7
81	6
82	9
83	6
84	9
85	3
86	1
87	2
88	2
89	9
90	7
91	3
92	8
93	7
94	4
95	8
96	3
97	7
98	2
99	1
100	6
101	3
102	1
103	8
104	3
105	2
106	4
107	5
108	9
109	7
110	7
111	4
112	9
113	5
114	7
115	4
116	7
117	3
118	7
119	8
120	1
121	8
122	9
123	2
124	5
125	8
126	3
127	4
128	9
129	3
130	2
131	1
132	6
133	5
134	4
135	8
136	9
137	2
138	4
139	2
140	9
141	4
142	8
143	4
144	2
145	6
146	4
147	1
148	7
149	6
150	8
151	5
152	9
153	3
154	9
155	9
156	3
157	3
158	8
159	2
160	3
161	8
162	1
163	7
164	5
165	8
166	9
167	3
168	2
169	2
170	9
171	3
172	1
173	9
174	4
175	7
176	3
177	9
178	3
179	9
180	5
181	6
182	2
183	3
184	5
185	1
186	1
187	3
188	1
189	3
190	8
191	1
192	4
193	2
194	7
195	8
196	4
197	9
198	1
199	8
200	4
201	1
202	7
203	7
204	5
205	1
206	6
207	4
208	1
209	5
210	1
211	6
212	3
213	9
214	3
215	7
216	6
217	6
218	9
219	8
220	5
221	7
222	3
223	4
224	5
225	9
226	1
227	5
228	1
229	7
230	9
231	6
232	5
233	6
234	6
235	7
236	4
237	3
238	1
239	4
240	1
241	9
242	6
243	4
244	4
245	8
246	7
247	6
248	5
249	9
250	6
251	2
252	4
253	7
254	3
255	4
256	2
257	1
258	7
259	3
260	8
261	5
262	4
263	5
264	3
265	5
266	3
267	4
268	3
269	3
270	9
271	4
272	8
273	2
274	1
275	8
276	8
277	3
278	4
279	2
280	2
281	8
282	5
283	2
284	4
285	9
286	6
287	3
288	1
289	8
290	4
291	1
292	2
293	5
294	7
295	1
296	4
297	6
298	4
299	3
300	7
301	6
302	9
303	7
304	6
305	3
306	5
307	9
308	6
309	3
310	5
311	3
312	3
313	4
314	3
315	6
316	6
317	7
318	5
319	4
320	5
321	2
322	4
323	9
324	3
325	8
326	7
327	9
328	5
329	5
330	6
331	8
332	4
333	1
334	3
335	9
336	9
337	8
338	5
339	3
340	9
341	3
342	5
343	9
344	3
345	6
346	7
347	4
348	2
349	7
350	6
351	5
352	3
353	7
354	1
355	6
356	7
357	4
358	9
359	6
360	1
361	4
362	8
363	9
364	4
365	9
366	6
367	6
368	7
369	7
370	7
371	8
372	7
373	4
374	3
375	2
376	2
377	5
378	4
379	5
380	6
381	8
382	1
383	3
384	4
385	2
386	9
387	9
388	9
389	8
390	5
391	7
392	9
393	6
394	9
395	5
396	7
397	6
398	5
399	2
400	3
401	3
402	7
403	3
404	2
405	4
406	9
407	8
408	4
409	5
410	4
411	1
412	4
413	4
414	7
415	9
416	2
417	7
418	4
419	9
420	1
421	1
422	5
423	5
424	4
425	7
426	4
427	6
428	1
429	2
430	9
431	3
432	2
433	6
434	6
435	1
436	5
437	7
438	2
439	1
440	1
441	9
442	5
443	8
444	9
445	4
446	2
447	3
448	2
449	2
450	3
451	1
452	4
453	2
454	9
455	9
456	1
457	7
458	3
459	1
460	8
461	5
462	4
463	2
464	2
465	7
466	8
467	1
468	4
469	2
470	6
471	9
472	1
473	9
474	7
475	6
476	7
477	6
478	4
479	6
480	8
481	5
482	1
483	6
484	8
485	6
486	9
487	8
488	6
489	4
490	4
491	5
492	9
493	6
494	9
495	6
496	1
497	7
498	1
499	5
500	6
501	3
TIME_WINDOW_SECTION
1	0	3000
2	1146	2727
3	17	1606
4	1152	2750
5	365	1888
6	1435	2285
7	1454	1679
8	544	1404
9	0	1390
10	841	1086
11	1313	2979
12	549	2273
13	1733	2503
14	1735	2742
15	291	2073
16	1076	2022
17	861	2580
18	1244	2989
19	809	1907
20	871	1559
21	407	1719
22	154	1240
23	196	1909
24	1153	3000
25	1206	1882
26	1185	1460
27	454	1200
28	415	2149
29	148	1934
30	1267	1968
31	1300	2064
32	939	2472
33	273	1136
34	140	1544
35	1694	2003
36	587	2477
37	678	2368
38	1391	2353
39	182	1269
40	2084	2854
41	628	2108
42	1707	2981
43	1143	2802
44	1788	2342
45	520	2008
46	519	2389
47	1549	2839
48	731	1201
49	623	1135
50	994	1709
51	1762	2710
52	42	1474
53	0	1479
54	1166	2572
55	1239	1494
56	1724	1990
57	1328	2697
58	739	1762
59	193	1138
60	790	2537
61	670	1849
62	2365	2686
63	743	1112
64	313	2303
65	911	1122
66	787	1528
67	631	2578
68	235	1468
69	1050	2824
70	62	1559
71	1463	2306
72	990	1909
73	946	2254
74	1342	2708
75	139	1274
76	804	1406
77	335	1765
78	1092	1685
79	0	1189
80	538	767
81	395	1650
82	695	2181
83	216	1902
84	17	1757
85	37	436
86	1107	2772
87	1206	3000
88	859	1391
89	493	828
90	1490	1729
91	569	1165
92	756	2268
93	604	1456
94	975	2341
95	778	2276
96	743	2303
97	1469	2558
98	750	1026
99	1327	1572
100	122	1843
101	135	1261
102	288	1002
103	55	966
104	763	2575
105	419	1955
106	1618	2862
107	560	1467
108	1512	2587
109	304	1103
110	0	1192
111	866	2638
112	1930	2260
113	445	2062
114	1629	2782
115	546	788
116	0	1422
117	755	2514
118	506	2390
119	1018	1343
120	566	2142
121	2161	2504
122	0	1261
123	95	1932
124	1421	1758
125	1011	1872
126	322	2052
127	266	1183
128	506	1536
129	1595	1869
130	1874	2195
131	748	2414
132	1595	2150
133	305	1188
134	325	1767
135	1458	1702
136	1075	1820
137	151	2088
138	1358	2159
139	902	1507
140	1236	2049
141	1423	2298
142	0	1452
143	691	1096
144	1023	2455
145	59	1687
146	872	1518
147	1680	3000
148	526	2498
149	1844	2910
150	211	2110
151	1669	2544
152	1238	3000
153	863	2426
154	1065	1546
155	375	2056
156	670	1490
157	1443	2055
158	1041	1738
159	418	978
160	362	1116
161	348	2233
162	480	2136
163	710	1243
164	705	2507
165	72	1609
166	926	1921
167	868	2577
168	1704	3000
169	1555	2106
170	1036	2180
171	1685	1930
172	549	1304
173	654	2567
174	1305	1509
175	1923	2401
176	0	1422
177	982	2047
178	839	2097
179	484	1725
180	1963	2830
181	1256	1908
182	0	1657
183	562	2222
184	695	1208
185	1317	1686
186	2163	2737
187	1393	2455
188	787	2364
189	962	1833
190	1566	2080
191	993	1203
192	1010	2067
193	303	1280
194	750	2355
195	574	1100
196	0	1158
197	1058	1578
198	1892	3000
199	1141	2234
200	1053	2245
201	794	1439
202	0	1105
203	780	1660
204	299	2206
205	1954	2185
206	400	1331
207	1189	1857
208	1738	2169
209	1539	1969
210	724	1288
211	702	1300
212	486	727
213	1392	3000
214	1071	2994
215	993	2192
216	1787	2584
217	1168	2358
218	1126	2765
219	698	2388
220	987	1527
221	1232	1566
222	249	917
223	895	2416
224	796	2371
225	1073	2128
226	981	2562
227	1924	2607
228	1368	2115
229	670	1279
230	368	2011
231	1493	2745
232	1016	2356
233	1231	1980
234	1141	2443
235	117	1993
236	1346	1730
237	1524	2214
238	1481	1836
239	0	1171
240	786	2279
241	644	2499
242	376	917
243	1422	1808
244	903	1442
245	1129	3000
246	799	1226
247	1045	2138
248	1216	2698
249	1027	1941
250	1536	2095
251	1047	1980
252	1527	2582
253	1558	3000
254	1210	1805
255	1159	2188
256	1193	1827
257	625	2281
258	709	2473
259	796	2353
260	1006	1544
261	680	1945
262	722	1502
263	1259	2870
264	0	1540
265	113	548
266	328	810
267	1578	2485
268	0	895
269	1187	2771
270	934	2609
271	949	1260
272	473	2026
273	195	683
274	959	1767
275	319	1065
276	1024	1718
277	1300	1887
278	1527	2469
279	1416	1728
280	1851	2536
281	1709	2357
282	566	1043
283	680	1327
284	2014	2575
285	459	1174
286	594	825
287	1114	2594
288	871	1420
289	449	1307
290	1127	2126
291	1098	1777
292	466	2347
293	1108	2634
294	844	1683
295	1243	2218
296	943	2605
297	600	1166
298	952	1891
299	785	2749
300	556	2221
301	1751	1961
302	192	813
303	1184	2124
304	338	1930
305	777	1311
306	1906	3000
307	1103	2652
308	914	2456
309	1561	2211
310	1334	1624
311	264	1936
312	520	1353
313	1043	2032
314	1471	2112
315	412	1359
316	1632	2062
317	947	2568
318	1316	2576
319	1119	1755
320	825	2170
321	0	1359
322	179	1643
323	1137	2118
324	360	1967
325	704	1863
326	1663	2183
327	621	1531
328	0	585
329	1286	2615
330	1039	2512
331	2071	2564
332	0	1600
333	1740	1981
334	1634	2266
335	258	1933
336	1389	2353
337	1343	2323
338	1002	1869
339	15	1582
340	1831	2336
341	1691	2020
342	0	845
343	222	461
344	506	1520
345	936	1451
346	0	1098
347	887	1262
348	1467	1989
349	250	1296
350	1897	2394
351	585	927
352	61	1393
353	2295	2653
354	851	1564
355	321	713
356	1225	2617
357	661	2623
358	1104	1418
359	1177	2820
360	838	2613
361	1400	2466
362	0	1376
363	967	1800
364	1912	2412
365	0	1309
366	1494	3000
367	31	1549
368	1149	2581
369	626	2469
370	1265	1849
371	914	2429
372	374	2108
373	554	2546
374	329	1340
375	1067	2547
376	707	1250
377	0	1587
378	745	2556
379	511	1470
380	399	2345
381	0	1494
382	93	1040
383	1073	3000
384	1191	2003
385	256	949
386	1680	2187
387	434	736
388	1169	1860
389	1275	1560
390	1891	2469
391	2068	2634
392	1728	2018
393	1794	2342
394	1200	2128
395	1580	2142
396	1307	1745
397	1134	1338
398	1768	2542
399	662	1792
400	1183	1713
401	1524	2292
402	811	1650
403	697	2606
404	1352	2729
405	470	2196
406	1336	1738
407	981	1463
408	901	2569
409	0	564
410	1487	1889
411	1191	2496
412	1675	2132
413	1843	3000
414	0	1332
415	498	1592
416	447	1035
417	406	850
418	851	1202
419	145	1494
420	0	1116
421	656	1783
422	852	1760
423	1225	1654
424	1943	3000
425	345	829
426	1246	2079
427	271	1561
428	706	1135
429	296	1205
430	492	2478
431	18	384
432	747	2338
433	298	1282
434	864	2693
435	522	1177
436	410	1154
437	1037	1492
438	832	2455
439	1118	2241
440	0	1278
441	219	1296
442	923	1455
443	1953	2682
444	98	1808
445	1070	1328
446	1897	3000
447	1825	3000
448	1098	1621
449	1972	2384
450	1730	2204
451	859	1300
452	1411	2446
453	2276	2611
454	162	1135
455	984	2184
456	0	1334
457	1150	2159
458	403	1500
459	169	1756
460	2014	2807
461	885	2494
462	1351	1878
463	556	773
464	0	1117
465	629	1764
466	436	637
467	1296	2276
468	211	1004
469	1553	2244
470	1801	2548
471	1283	1901
472	839	2180
473	0	1374
474	1207	3000
475	1313	1675
476	2003	2390
477	0	1839
478	96	1343
479	707	926
480	358	1086
481	0	1527
482	17	1365
483	727	2474
484	627	2155
485	112	2024
486	72	1849
487	1273	2093
488	489	1499
489	1353	1747
490	1572	2382
491	911	1960
492	731	2722
493	889	1811
494	702	2394
495	1513	1877
496	1510	2890
497	1175	1902
498	773	1264
499	1738	2047
500	393	1739
501	772	2631
DEPOT_SECTION
1
-1
EOF
