NAME : n501-0043
COMMENT : "Generated by pyvrp_manuel (VRPTW)"
TYPE : VRPTW
DIMENSION : 501
EDGE_WEIGHT_TYPE : EUC_2D
CAPACITY : 100
VEHICLES : 500
SERVICE_TIME : 200
NODE_COORD_SECTION
1	945	732
2	104	197
3	33	150
4	568	829
5	420	361
6	164	587
7	117	658
8	655	920
9	48	589
10	959	349
11	519	563
12	268	64
13	985	941
14	553	51
15	541	789
16	517	65
17	636	630
18	687	826
19	277	828
20	761	25
21	187	217
22	3	542
23	531	122
24	716	295
25	163	134
26	875	632
27	192	88
28	848	525
29	5	7
30	961	821
31	328	102
32	534	504
33	823	655
34	627	691
35	164	239
36	471	454
37	736	658
38	362	867
39	859	639
40	271	297
41	369	733
42	181	12
43	653	724
44	627	955
45	244	373
46	399	855
47	77	589
48	614	562
49	63	484
50	568	307
51	929	343
52	868	541
53	246	849
54	622	771
55	881	809
56	659	589
57	503	130
58	564	410
59	753	719
60	994	62
61	35	288
62	217	788
63	780	8
64	522	215
65	771	82
66	548	636
67	80	957
68	391	167
69	231	358
70	799	864
71	780	171
72	730	410
73	784	680
74	529	214
75	693	400
76	457	175
77	714	491
78	569	221
79	556	964
80	978	549
81	473	358
82	896	986
83	882	318
84	310	358
85	447	624
86	752	755
87	746	612
88	260	187
89	866	595
90	194	858
91	441	196
92	541	664
93	545	581
94	87	325
95	871	57
96	53	306
97	318	211
98	101	247
99	152	631
100	585	28
101	944	161
102	820	59
103	624	849
104	341	488
105	86	58
106	198	793
107	833	132
108	862	254
109	722	293
110	220	60
111	215	128
112	406	670
113	154	158
114	169	41
115	730	961
116	580	157
117	122	367
118	897	789
119	700	823
120	104	186
121	252	684
122	695	143
123	0	121
124	238	696
125	200	795
126	488	402
127	405	384
128	360	982
129	267	98
130	229	648
131	248	27
132	54	686
133	621	200
134	321	861
135	714	954
136	190	295
137	787	91
138	438	389
139	75	900
140	911	937
141	812	524
142	2	763
143	646	188
144	877	588
145	727	25
146	182	454
147	826	320
148	133	956
149	314	541
150	318	538
151	595	995
152	419	248
153	58	699
154	420	883
155	568	750
156	62	293
157	528	35
158	181	364
159	239	93
160	52	429
161	948	254
162	129	541
163	619	956
164	478	251
165	104	243
166	880	26
167	881	687
168	2	968
169	922	135
170	980	559
171	776	268
172	782	761
173	508	853
174	269	598
175	33	362
176	880	651
177	811	4
178	585	317
179	556	214
180	470	680
181	179	111
182	663	710
183	372	997
184	569	485
185	236	737
186	309	186
187	142	539
188	848	851
189	853	604
190	363	131
191	570	403
192	804	18
193	343	433
194	881	757
195	752	661
196	887	812
197	555	286
198	55	131
199	490	143
200	343	675
201	831	571
202	527	863
203	472	105
204	707	709
205	345	804
206	372	347
207	217	521
208	151	399
209	917	763
210	223	93
211	284	908
212	578	61
213	649	244
214	636	88
215	719	87
216	663	250
217	474	199
218	745	862
219	954	676
220	17	650
221	756	633
222	634	273
223	570	724
224	251	295
225	12	542
226	485	940
227	685	903
228	707	632
229	36	453
230	102	502
231	740	816
232	518	451
233	592	611
234	8	523
235	971	180
236	771	414
237	198	815
238	480	733
239	729	604
240	364	376
241	695	840
242	967	177
243	420	836
244	857	534
245	977	946
246	971	751
247	642	26
248	577	931
249	166	178
250	321	222
251	149	856
252	764	281
253	376	222
254	727	354
255	469	980
256	172	316
257	484	485
258	80	187
259	555	421
260	321	941
261	761	718
262	772	727
263	375	517
264	513	144
265	339	3
266	706	94
267	265	401
268	408	558
269	458	208
270	433	912
271	385	113
272	535	346
273	102	227
274	226	510
275	37	83
276	471	724
277	839	666
278	134	689
279	856	356
280	488	65
281	508	360
282	329	391
283	250	374
284	278	573
285	825	765
286	818	650
287	751	70
288	423	846
289	937	696
290	181	441
291	398	970
292	549	946
293	690	258
294	887	256
295	671	983
296	502	317
297	103	380
298	34	159
299	822	47
300	900	123
301	374	130
302	70	407
303	3	314
304	453	396
305	998	135
306	141	787
307	783	244
308	244	718
309	305	850
310	828	799
311	974	781
312	431	26
313	160	203
314	981	803
315	864	812
316	766	296
317	623	608
318	873	921
319	424	604
320	901	878
321	298	927
322	964	591
323	763	430
324	121	698
325	304	114
326	617	783
327	463	242
328	91	473
329	543	784
330	779	988
331	496	700
332	396	925
333	999	693
334	752	440
335	117	116
336	111	245
337	805	440
338	38	219
339	24	610
340	152	865
341	283	702
342	405	551
343	397	596
344	574	46
345	480	533
346	411	15
347	647	679
348	129	659
349	137	436
350	614	57
351	837	589
352	637	790
353	345	853
354	864	524
355	176	427
356	302	912
357	428	299
358	849	392
359	38	40
360	823	401
361	802	698
362	903	861
363	979	277
364	820	481
365	898	149
366	617	74
367	223	909
368	973	501
369	889	198
370	148	12
371	364	193
372	730	187
373	38	948
374	416	355
375	829	922
376	832	169
377	139	253
378	288	701
379	702	359
380	294	921
381	106	877
382	925	26
383	686	141
384	930	335
385	71	127
386	812	397
387	835	267
388	76	711
389	556	878
390	670	545
391	37	742
392	441	584
393	353	361
394	988	246
395	745	579
396	697	666
397	291	792
398	196	55
399	710	258
400	370	730
401	139	186
402	728	577
403	9	641
404	332	953
405	109	778
406	660	958
407	891	996
408	44	294
409	398	138
410	266	338
411	130	341
412	915	637
413	911	791
414	322	791
415	858	496
416	908	406
417	224	640
418	944	838
419	974	937
420	488	799
421	417	248
422	446	428
423	565	173
424	324	953
425	499	438
426	147	290
427	2	599
428	808	33
429	752	975
430	381	701
431	306	194
432	304	981
433	336	416
434	509	630
435	316	502
436	43	337
437	569	867
438	484	154
439	921	922
440	28	230
441	593	534
442	203	294
443	854	850
444	164	162
445	626	522
446	0	437
447	881	385
448	961	997
449	573	634
450	626	605
451	976	645
452	1	343
453	553	363
454	776	234
455	786	92
456	845	526
457	37	328
458	150	213
459	790	816
460	94	288
461	335	568
462	554	230
463	558	615
464	506	580
465	535	996
466	665	574
467	126	571
468	434	433
469	428	289
470	961	577
471	339	951
472	192	404
473	679	931
474	673	904
475	704	886
476	248	848
477	526	937
478	76	383
479	485	218
480	603	955
481	757	136
482	831	950
483	413	429
484	84	849
485	986	320
486	419	227
487	583	449
488	235	308
489	730	718
490	749	816
491	381	27
492	282	939
493	302	860
494	932	888
495	946	701
496	114	431
497	351	118
498	265	638
499	400	536
500	32	106
501	477	84
DEMAND_SECTION
1	0
2	7
3	4
4	2
5	8
6	8
7	8
8	6
9	2
10	7
11	6
12	3
13	6
14	2
15	1
16	7
17	3
18	9
19	4
20	9
21	4
22	3
23	6
24	3
25	4
26	4
27	7
28	2
29	5
30	9
31	4
32	2
33	6
34	9
35	2
36	8
37	3
38	8
39	1
40	7
41	6
42	7
43	1
44	7
45	4
46	1
47	6
48	5
49	9
50	6
51	4
52	3
53	1
54	8
55	9
56	6
57	2
58	6
59	9
60	9
61	5
62	9
63	5
64	6
65	2
66	4
67	2
68	5
69	4
70	6
71	9
72	2
73	5
74	2
75	1
76	4
77	2
78	3
79	4
80	4
81	2
82	6
83	1
84	1
85	7
86	8
87	5
88	2
89	1
90	3
91	4
92	9
93	9
94	3
95	4
96	5
97	2
98	5
99	4
100	9
101	6
102	3
103	4
104	7
105	7
106	4
107	2
108	6
109	9
110	5
111	3
112	4
113	3
114	1
115	7
116	2
117	4
118	4
119	2
120	4
121	5
122	5
123	4
124	2
125	2
126	5
127	3
128	3
129	6
130	3
131	6
132	3
133	2
134	6
135	4
136	2
137	4
138	3
139	2
140	4
141	1
142	1
143	1
144	9
145	1
146	9
147	1
148	5
149	6
150	2
151	7
152	7
153	4
154	7
155	4
156	3
157	6
158	3
159	5
160	5
161	8
162	8
163	6
164	4
165	3
166	9
167	8
168	9
169	9
170	2
171	3
172	4
173	1
174	7
175	3
176	1
177	5
178	1
179	2
180	7
181	1
182	3
183	7
184	9
185	5
186	1
187	8
188	9
189	3
190	1
191	3
192	8
193	5
194	6
195	9
196	7
197	9
198	3
199	6
200	4
201	9
202	4
203	5
204	2
205	8
206	1
207	5
208	1
209	3
210	4
211	4
212	9
213	9
214	2
215	2
216	4
217	9
218	3
219	2
220	1
221	1
222	3
223	5
224	5
225	9
226	4
227	8
228	5
229	9
230	1
231	5
232	9
233	2
234	3
235	6
236	9
237	6
238	4
239	5
240	1
241	4
242	8
243	6
244	9
245	2
246	9
247	1
248	6
249	2
250	1
251	2
252	6
253	4
254	4
255	4
256	2
257	5
258	6
259	3
260	5
261	2
262	6
263	2
264	2
265	3
266	5
267	7
268	3
269	7
270	7
271	8
272	3
273	8
274	2
275	5
276	4
277	9
278	3
279	9
280	6
281	2
282	5
283	8
284	5
285	4
286	8
287	6
288	8
289	7
290	9
291	5
292	6
293	6
294	6
295	6
296	5
297	1
298	5
299	8
300	3
301	1
302	1
303	7
304	7
305	9
306	1
307	4
308	7
309	8
310	8
311	5
312	4
313	9
314	5
315	3
316	4
317	2
318	7
319	3
320	3
321	2
322	2
323	7
324	3
325	2
326	6
327	9
328	1
329	7
330	7
331	4
332	6
333	5
334	8
335	5
336	4
337	5
338	8
339	6
340	7
341	2
342	2
343	5
344	4
345	9
346	9
347	8
348	7
349	3
350	5
351	1
352	5
353	8
354	6
355	8
356	2
357	6
358	9
359	2
360	5
361	3
362	1
363	7
364	4
365	4
366	7
367	9
368	1
369	5
370	7
371	6
372	5
373	1
374	3
375	5
376	9
377	5
378	4
379	3
380	5
381	2
382	2
383	5
384	1
385	8
386	6
387	2
388	7
389	1
390	7
391	7
392	2
393	1
394	1
395	8
396	7
397	9
398	9
399	1
400	7
401	9
402	7
403	5
404	6
405	7
406	9
407	3
408	9
409	9
410	7
411	8
412	7
413	3
414	3
415	4
416	5
417	1
418	2
419	9
420	7
421	2
422	2
423	4
424	7
425	7
426	2
427	5
428	5
429	7
430	4
431	3
432	2
433	2
434	9
435	7
436	7
437	4
438	8
439	2
440	1
441	3
442	4
443	3
444	5
445	1
446	7
447	9
448	2
449	1
450	1
451	3
452	2
453	4
454	5
455	4
456	9
457	8
458	1
459	1
460	9
461	7
462	7
463	3
464	7
465	2
466	7
467	6
468	5
469	1
470	2
471	2
472	6
473	9
474	4
475	5
476	1
477	4
478	5
479	8
480	7
481	9
482	8
483	1
484	9
485	1
486	9
487	8
488	6
489	6
490	5
491	8
492	3
493	5
494	4
495	3
496	7
497	3
498	5
499	7
500	7
501	7
TIME_WINDOW_SECTION
1	0	3000
2	1040	2431
3	543	2409
4	1090	2652
5	776	1696
6	143	2119
7	1326	2556
8	0	1367
9	53	1997
10	845	1392
11	35	1384
12	692	2628
13	48	1061
14	382	1367
15	200	1615
16	760	1673
17	1296	2948
18	0	1226
19	1684	2454
20	244	2170
21	647	1431
22	1051	2307
23	980	1564
24	1359	3000
25	1308	2271
26	220	1139
27	631	2525
28	966	2831
29	1213	1918
30	0	929
31	1330	2027
32	138	1177
33	404	652
34	698	2650
35	532	1951
36	1211	2493
37	318	1894
38	1655	2264
39	1232	2558
40	922	1295
41	1514	1917
42	1203	1473
43	1686	2587
44	855	1598
45	724	2606
46	1045	1329
47	716	1198
48	528	1678
49	1290	2190
50	642	2553
51	1861	2617
52	166	1405
53	667	1093
54	289	1092
55	1170	2572
56	1303	2803
57	1248	2163
58	0	1188
59	0	1519
60	1165	1982
61	1432	1637
62	605	2496
63	938	2723
64	415	1150
65	669	1949
66	1102	2202
67	1148	2623
68	900	1133
69	643	2305
70	785	2092
71	0	1474
72	0	1418
73	109	1057
74	1135	2578
75	1447	2940
76	955	2173
77	2058	2490
78	811	2280
79	274	2233
80	0	1203
81	1275	1695
82	1281	2250
83	572	1224
84	602	1042
85	889	2021
86	2345	2665
87	886	2167
88	1235	1834
89	720	1677
90	822	1956
91	1177	2723
92	221	1578
93	1184	1590
94	348	2107
95	1193	1970
96	1608	1893
97	709	1402
98	641	2469
99	0	1813
100	1550	2357
101	1225	3000
102	1140	2909
103	1171	2005
104	836	1406
105	1036	2183
106	470	2375
107	1001	2551
108	669	1944
109	1638	1918
110	1164	2191
111	1144	2377
112	695	1396
113	1182	1866
114	510	1613
115	1857	2515
116	118	1475
117	489	1507
118	1907	2985
119	1153	1830
120	1491	2088
121	664	2201
122	1178	1705
123	1173	1534
124	87	1869
125	1497	2535
126	659	1323
127	61	1984
128	1206	2515
129	626	1697
130	256	1933
131	34	2014
132	1042	1758
133	656	1752
134	225	2155
135	1137	2437
136	1493	2127
137	543	2449
138	867	2623
139	356	2293
140	1068	1524
141	1442	2333
142	1142	1411
143	0	1793
144	110	370
145	70	1758
146	1013	2186
147	1749	2472
148	1041	1604
149	1039	2135
150	1549	2202
151	468	2187
152	1605	2294
153	788	2622
154	1089	2060
155	878	1615
156	1280	1705
157	543	2091
158	970	2381
159	1013	2345
160	594	1443
161	892	1253
162	206	2107
163	163	1035
164	645	2644
165	809	1845
166	826	2734
167	0	824
168	260	1709
169	143	1615
170	1265	2359
171	1140	1443
172	1714	3000
173	1546	1789
174	1622	2543
175	1326	2093
176	1682	2947
177	778	1654
178	1383	1678
179	354	2339
180	539	1171
181	620	1942
182	1411	2389
183	1812	2411
184	637	2317
185	1415	2274
186	1285	2403
187	783	1930
188	547	2325
189	755	2522
190	633	2213
191	1250	2146
192	799	2745
193	1733	2028
194	1505	2259
195	1967	2397
196	175	2168
197	168	1672
198	393	1982
199	958	1220
200	1009	2757
201	1919	2268
202	1080	2234
203	1067	1934
204	1037	1978
205	38	1920
206	607	1829
207	1186	1445
208	789	999
209	0	1417
210	1317	2241
211	209	2050
212	636	1676
213	589	965
214	387	1372
215	1214	2935
216	660	926
217	203	1762
218	649	973
219	44	1365
220	832	1974
221	493	1168
222	827	2153
223	0	1706
224	923	1670
225	1533	1977
226	0	1521
227	1174	1818
228	2083	2390
229	861	1691
230	1140	1676
231	1950	2999
232	1747	2616
233	1819	2561
234	379	2305
235	601	2478
236	943	1211
237	1101	2089
238	810	2637
239	981	2745
240	1169	1452
241	1409	3000
242	1274	1900
243	611	1998
244	0	1208
245	1489	2959
246	0	1106
247	997	2564
248	675	1919
249	986	1212
250	1613	2375
251	1595	2285
252	1452	2326
253	1491	2053
254	525	2478
255	1140	1789
256	1301	2398
257	688	2245
258	510	1593
259	855	2694
260	742	1399
261	702	1509
262	2058	2264
263	717	986
264	558	1653
265	1413	2004
266	864	2347
267	551	1855
268	1281	2945
269	574	1587
270	1829	2091
271	1328	1580
272	1543	2479
273	1011	2584
274	1601	2372
275	952	2076
276	1144	2208
277	0	1660
278	778	1127
279	1960	2208
280	393	2032
281	1073	1373
282	1002	1240
283	724	2646
284	845	2091
285	677	2512
286	1354	2923
287	547	1597
288	1449	2728
289	1354	2104
290	270	1633
291	742	2388
292	1450	2159
293	6	1505
294	74	2027
295	1279	1971
296	1530	2463
297	1270	2193
298	909	1619
299	0	1817
300	524	1602
301	323	1500
302	725	2583
303	1195	2182
304	645	1720
305	188	1303
306	701	2684
307	1693	2788
308	712	2048
309	662	1628
310	2322	2960
311	337	1422
312	940	1818
313	1279	1992
314	1789	2803
315	538	869
316	1151	1396
317	1903	2146
318	1152	2662
319	513	1326
320	0	1232
321	944	1144
322	2116	2944
323	138	915
324	344	1444
325	634	1147
326	325	796
327	719	2660
328	98	1955
329	535	1479
330	240	1695
331	1084	2888
332	1254	1758
333	0	627
334	1783	2585
335	709	1515
336	1333	2305
337	0	1112
338	478	2353
339	590	2463
340	1095	2676
341	1793	2261
342	1113	2862
343	516	1360
344	19	1937
345	902	2755
346	481	1377
347	1506	3000
348	1054	2292
349	1182	1608
350	575	2419
351	2121	2513
352	1615	1839
353	906	2277
354	1872	2461
355	1184	1805
356	1742	2508
357	934	2085
358	1517	3000
359	425	2047
360	1535	2982
361	128	643
362	1347	2412
363	0	1607
364	1220	1586
365	1295	2121
366	1662	2232
367	992	1887
368	0	1175
369	1280	2540
370	1185	1974
371	1048	1686
372	132	1790
373	997	1692
374	1296	2767
375	179	385
376	0	1488
377	632	2504
378	375	2017
379	1414	1974
380	841	1942
381	1195	2619
382	1632	2368
383	1316	1521
384	950	2668
385	1116	1743
386	1328	2152
387	1461	1983
388	1067	2334
389	1004	2044
390	1308	3000
391	739	1317
392	430	655
393	487	1613
394	60	1933
395	1047	1542
396	2006	2861
397	330	1764
398	863	1567
399	335	819
400	1424	1809
401	627	1976
402	392	1434
403	1113	1746
404	175	1798
405	380	1850
406	347	1649
407	1121	2472
408	1488	1862
409	258	2211
410	859	1320
411	1136	2559
412	821	2189
413	840	2829
414	117	1542
415	488	778
416	171	1394
417	751	2655
418	0	1538
419	1811	2133
420	352	1028
421	901	1529
422	1206	1654
423	0	1734
424	934	1546
425	1001	2377
426	324	2005
427	1410	2170
428	99	1442
429	1492	2170
430	0	1452
431	1123	1610
432	890	1168
433	1013	1459
434	1409	2890
435	1096	2380
436	655	1555
437	1740	2756
438	1238	2248
439	334	1092
440	702	1481
441	1178	2748
442	1210	2665
443	144	2083
444	1430	1712
445	1784	2074
446	1044	1588
447	1821	3000
448	1055	1554
449	215	710
450	613	1101
451	463	1700
452	846	1517
453	1976	2228
454	0	1646
455	1136	2353
456	1257	2529
457	1261	1546
458	1170	1918
459	1240	1841
460	973	1576
461	0	1455
462	565	2220
463	1385	2575
464	1589	2934
465	1041	1284
466	1004	2171
467	701	982
468	1124	1480
469	1020	2071
470	1189	1836
471	567	2325
472	388	1642
473	910	2015
474	1531	2862
475	883	1182
476	1028	1765
477	1938	2516
478	92	1987
479	0	1978
480	568	1069
481	679	2055
482	0	1508
483	1847	2221
484	844	2055
485	328	1388
486	1530	2384
487	2192	2463
488	1080	2707
489	1732	2234
490	1	539
491	1002	1567
492	365	2264
493	1917	2172
494	27	529
495	0	1200
496	902	1592
497	1529	2010
498	15	1517
499	1634	2135
500	666	1900
501	895	1157
DEPOT_SECTION
1
-1
EOF
