NAME : n501-0014
COMMENT : "Generated by pyvrp_manuel (VRPTW)"
TYPE : VRPTW
DIMENSION : 501
EDGE_WEIGHT_TYPE : EUC_2D
CAPACITY : 100
VEHICLES : 500
SERVICE_TIME : 200
NODE_COORD_SECTION
1	925	60
2	127	396
3	160	841
4	164	980
5	214	307
6	546	237
7	300	549
8	235	566
9	975	151
10	139	547
11	858	293
12	284	472
13	143	882
14	299	738
15	341	744
16	56	789
17	647	259
18	966	964
19	995	655
20	622	637
21	25	356
22	447	525
23	271	51
24	310	987
25	714	128
26	553	92
27	774	156
28	599	191
29	961	633
30	733	650
31	873	975
32	153	80
33	604	287
34	430	504
35	426	934
36	818	143
37	180	778
38	580	713
39	542	782
40	996	807
41	599	979
42	774	702
43	715	40
44	107	723
45	58	390
46	474	221
47	670	62
48	407	791
49	310	706
50	408	108
51	319	487
52	317	387
53	239	299
54	762	181
55	411	481
56	410	850
57	994	231
58	4	216
59	472	434
60	315	163
61	753	498
62	554	222
63	886	756
64	344	851
65	257	648
66	363	349
67	206	265
68	608	452
69	26	402
70	383	613
71	559	83
72	164	893
73	189	788
74	248	728
75	109	451
76	940	94
77	875	246
78	400	714
79	666	855
80	265	890
81	505	866
82	329	417
83	350	614
84	371	633
85	346	159
86	105	60
87	45	153
88	2	827
89	626	304
90	451	98
91	546	45
92	845	139
93	634	224
94	662	735
95	650	136
96	254	328
97	232	824
98	56	124
99	567	890
100	678	868
101	734	838
102	794	531
103	642	283
104	131	732
105	524	933
106	992	829
107	997	480
108	846	977
109	529	813
110	321	78
111	514	315
112	223	78
113	575	672
114	795	749
115	697	405
116	807	629
117	524	817
118	522	605
119	844	1
120	923	823
121	452	450
122	948	152
123	977	823
124	918	671
125	983	978
126	378	86
127	42	509
128	963	147
129	505	388
130	860	930
131	918	841
132	887	477
133	354	927
134	388	173
135	506	488
136	603	574
137	973	990
138	417	565
139	846	791
140	695	988
141	598	670
142	253	433
143	724	361
144	183	496
145	763	596
146	340	951
147	897	600
148	587	394
149	809	608
150	760	294
151	574	317
152	668	746
153	318	837
154	282	653
155	325	860
156	203	225
157	395	993
158	189	169
159	728	504
160	100	915
161	266	650
162	75	556
163	753	921
164	488	980
165	429	356
166	219	289
167	397	377
168	475	661
169	673	677
170	376	13
171	117	502
172	874	734
173	789	20
174	638	470
175	910	989
176	493	270
177	597	711
178	350	245
179	403	283
180	625	917
181	176	844
182	685	522
183	526	238
184	660	812
185	999	502
186	473	869
187	991	994
188	805	894
189	503	529
190	308	562
191	33	326
192	104	304
193	223	406
194	332	372
195	1	579
196	618	799
197	2	792
198	142	170
199	457	76
200	605	448
201	659	528
202	385	434
203	375	793
204	818	754
205	156	222
206	858	25
207	742	676
208	511	693
209	736	124
210	998	988
211	163	420
212	990	903
213	413	443
214	675	864
215	129	413
216	842	444
217	56	927
218	387	624
219	858	957
220	75	889
221	574	627
222	472	575
223	289	297
224	474	165
225	277	346
226	746	254
227	648	923
228	834	880
229	207	501
230	696	249
231	110	635
232	159	707
233	946	922
234	151	549
235	400	772
236	391	943
237	647	641
238	788	489
239	422	80
240	6	287
241	463	476
242	885	390
243	819	838
244	704	173
245	45	336
246	45	437
247	28	636
248	703	605
249	255	748
250	695	17
251	554	419
252	683	604
253	879	98
254	434	761
255	754	527
256	676	485
257	812	511
258	285	460
259	65	904
260	758	990
261	493	440
262	32	657
263	351	626
264	73	393
265	346	945
266	205	509
267	990	769
268	250	932
269	485	532
270	890	474
271	441	189
272	223	301
273	771	476
274	913	804
275	209	392
276	385	525
277	401	938
278	821	208
279	986	635
280	753	930
281	848	720
282	756	526
283	53	632
284	321	252
285	969	663
286	901	274
287	62	185
288	194	90
289	146	313
290	946	737
291	308	462
292	197	814
293	329	128
294	618	943
295	213	269
296	294	417
297	853	342
298	128	876
299	895	243
300	986	761
301	764	604
302	662	37
303	145	807
304	853	705
305	619	550
306	598	233
307	866	743
308	165	711
309	574	734
310	38	397
311	134	687
312	41	527
313	665	272
314	881	273
315	14	926
316	756	357
317	570	619
318	993	269
319	529	314
320	828	290
321	442	427
322	759	243
323	13	7
324	429	68
325	979	612
326	267	509
327	342	378
328	770	292
329	147	661
330	409	842
331	604	817
332	524	68
333	101	136
334	526	359
335	425	737
336	974	129
337	767	545
338	872	992
339	28	571
340	726	728
341	28	89
342	303	948
343	451	82
344	742	355
345	483	960
346	94	20
347	186	619
348	475	234
349	215	808
350	369	739
351	431	970
352	693	911
353	367	15
354	684	533
355	847	962
356	292	250
357	223	471
358	14	625
359	285	447
360	906	624
361	818	404
362	646	618
363	861	81
364	40	81
365	984	793
366	45	272
367	721	950
368	33	536
369	457	232
370	114	360
371	785	295
372	754	598
373	550	863
374	499	680
375	364	154
376	893	391
377	743	986
378	541	393
379	903	611
380	433	257
381	496	238
382	221	628
383	626	54
384	972	86
385	382	968
386	305	478
387	977	139
388	786	975
389	310	840
390	254	436
391	749	735
392	992	237
393	792	604
394	737	525
395	322	637
396	902	860
397	557	903
398	379	672
399	385	276
400	151	879
401	730	858
402	784	87
403	447	249
404	751	455
405	9	652
406	609	322
407	199	655
408	170	593
409	823	261
410	642	110
411	153	191
412	229	490
413	781	8
414	693	148
415	779	620
416	135	664
417	798	252
418	558	23
419	521	984
420	980	718
421	79	11
422	874	167
423	722	502
424	21	241
425	52	498
426	594	679
427	888	485
428	8	657
429	695	885
430	201	858
431	530	902
432	982	759
433	635	557
434	841	188
435	888	576
436	420	351
437	265	291
438	857	876
439	278	390
440	736	398
441	524	520
442	34	200
443	519	856
444	348	427
445	725	748
446	866	490
447	670	574
448	646	676
449	223	877
450	83	219
451	150	454
452	396	450
453	109	839
454	531	613
455	565	965
456	689	575
457	127	718
458	93	883
459	528	562
460	200	806
461	598	564
462	39	936
463	920	1
464	822	121
465	261	358
466	474	473
467	166	533
468	504	122
469	130	444
470	785	12
471	872	218
472	605	248
473	843	712
474	960	664
475	359	972
476	744	795
477	420	890
478	787	990
479	37	997
480	195	880
481	945	0
482	641	307
483	329	536
484	197	79
485	976	928
486	580	700
487	294	966
488	821	907
489	719	382
490	87	141
491	262	893
492	72	31
493	146	292
494	12	552
495	123	441
496	176	699
497	142	313
498	972	542
499	622	529
500	437	794
501	11	414
DEMAND_SECTION
1	0
2	3
3	7
4	7
5	1
6	7
7	1
8	2
9	6
10	8
11	3
12	5
13	9
14	8
15	3
16	2
17	2
18	6
19	9
20	1
21	8
22	3
23	6
24	2
25	4
26	4
27	5
28	8
29	8
30	5
31	4
32	3
33	3
34	7
35	5
36	8
37	7
38	1
39	7
40	7
41	9
42	4
43	5
44	4
45	6
46	3
47	8
48	1
49	6
50	7
51	8
52	7
53	6
54	7
55	8
56	1
57	4
58	6
59	3
60	4
61	3
62	3
63	2
64	8
65	3
66	6
67	7
68	1
69	6
70	8
71	9
72	7
73	1
74	8
75	7
76	7
77	3
78	1
79	3
80	2
81	9
82	1
83	2
84	5
85	1
86	6
87	9
88	3
89	4
90	1
91	7
92	8
93	9
94	6
95	7
96	1
97	4
98	4
99	6
100	4
101	6
102	1
103	3
104	4
105	1
106	7
107	7
108	3
109	9
110	6
111	3
112	3
113	9
114	7
115	8
116	6
117	4
118	6
119	8
120	2
121	7
122	9
123	8
124	7
125	9
126	5
127	8
128	4
129	3
130	2
131	9
132	2
133	8
134	9
135	7
136	8
137	2
138	4
139	9
140	2
141	9
142	9
143	7
144	7
145	7
146	3
147	4
148	8
149	2
150	3
151	7
152	4
153	3
154	8
155	8
156	4
157	1
158	2
159	7
160	4
161	6
162	2
163	1
164	5
165	3
166	3
167	6
168	3
169	3
170	5
171	8
172	7
173	2
174	9
175	2
176	5
177	9
178	4
179	5
180	9
181	2
182	6
183	5
184	1
185	8
186	6
187	3
188	3
189	6
190	6
191	6
192	9
193	5
194	2
195	8
196	5
197	6
198	7
199	2
200	3
201	9
202	5
203	6
204	3
205	6
206	9
207	3
208	2
209	3
210	5
211	6
212	4
213	2
214	6
215	7
216	7
217	4
218	8
219	4
220	4
221	1
222	6
223	9
224	6
225	8
226	2
227	6
228	6
229	6
230	7
231	2
232	2
233	7
234	6
235	5
236	8
237	9
238	4
239	3
240	4
241	4
242	7
243	2
244	3
245	8
246	1
247	8
248	4
249	9
250	9
251	8
252	4
253	1
254	7
255	9
256	4
257	3
258	5
259	2
260	2
261	4
262	8
263	9
264	5
265	2
266	1
267	1
268	4
269	9
270	8
271	2
272	6
273	1
274	1
275	1
276	3
277	5
278	8
279	2
280	9
281	2
282	1
283	8
284	7
285	1
286	1
287	5
288	2
289	2
290	6
291	1
292	8
293	8
294	3
295	8
296	8
297	1
298	1
299	2
300	8
301	1
302	3
303	8
304	1
305	7
306	1
307	1
308	2
309	8
310	8
311	5
312	8
313	7
314	2
315	3
316	2
317	8
318	3
319	5
320	3
321	7
322	6
323	6
324	7
325	8
326	2
327	1
328	3
329	9
330	8
331	3
332	4
333	4
334	8
335	3
336	9
337	8
338	7
339	4
340	2
341	7
342	9
343	7
344	7
345	5
346	1
347	5
348	1
349	6
350	1
351	9
352	1
353	6
354	6
355	7
356	9
357	5
358	4
359	5
360	3
361	5
362	4
363	8
364	8
365	6
366	9
367	5
368	1
369	3
370	7
371	4
372	2
373	4
374	6
375	2
376	6
377	2
378	9
379	7
380	5
381	1
382	9
383	9
384	3
385	7
386	4
387	8
388	9
389	2
390	9
391	7
392	4
393	1
394	5
395	7
396	1
397	4
398	8
399	3
400	3
401	3
402	2
403	7
404	7
405	3
406	2
407	7
408	3
409	7
410	9
411	9
412	2
413	9
414	2
415	9
416	5
417	7
418	4
419	5
420	4
421	3
422	1
423	6
424	5
425	8
426	7
427	8
428	3
429	6
430	8
431	5
432	4
433	2
434	1
435	9
436	8
437	1
438	6
439	9
440	1
441	7
442	2
443	7
444	2
445	4
446	9
447	6
448	2
449	8
450	4
451	6
452	7
453	9
454	9
455	4
456	3
457	3
458	1
459	3
460	5
461	4
462	9
463	4
464	6
465	7
466	2
467	6
468	6
469	1
470	7
471	9
472	1
473	7
474	4
475	1
476	4
477	4
478	3
479	2
480	4
481	5
482	2
483	7
484	5
485	8
486	5
487	7
488	2
489	8
490	2
491	9
492	8
493	2
494	2
495	6
496	8
497	4
498	6
499	3
500	8
501	3
TIME_WINDOW_SECTION
1	0	3000
2	1166	2226
3	910	1943
4	458	2426
5	1238	1872
6	2054	2481
7	768	1478
8	45	1765
9	19	1806
10	1033	2474
11	1258	1952
12	1364	1775
13	887	1974
14	1113	1578
15	604	2285
16	1379	1579
17	0	1232
18	328	1578
19	20	1489
20	239	1465
21	404	1519
22	531	877
23	938	2867
24	911	1327
25	1710	2640
26	1427	2103
27	0	891
28	1080	1414
29	1215	3000
30	92	1807
31	817	2682
32	540	1718
33	1645	2404
34	1208	2629
35	804	2302
36	310	1924
37	255	2198
38	1507	2301
39	302	1522
40	407	2123
41	1117	1880
42	1644	1970
43	1461	1684
44	919	1777
45	1533	2056
46	1051	2071
47	1174	3000
48	379	1717
49	794	1455
50	756	1975
51	593	1453
52	992	2955
53	1085	2892
54	357	1027
55	0	1674
56	238	2019
57	1058	1929
58	534	1421
59	1280	3000
60	1212	2190
61	0	1299
62	1839	2535
63	1588	2271
64	1169	1992
65	738	2260
66	1252	1626
67	1260	2630
68	1687	2223
69	1638	1995
70	503	2063
71	994	1654
72	759	2090
73	1151	1692
74	1298	1716
75	376	2307
76	1459	3000
77	0	875
78	226	2089
79	670	2606
80	192	2173
81	662	2204
82	1615	2434
83	491	2473
84	1241	2513
85	461	2082
86	238	1760
87	749	2524
88	692	1754
89	1089	2111
90	0	978
91	937	1471
92	1664	3000
93	2320	2580
94	1088	2688
95	725	1984
96	719	2487
97	996	2366
98	1484	2248
99	1028	2320
100	1229	2581
101	806	2219
102	569	983
103	264	901
104	1009	2093
105	538	1418
106	578	2352
107	585	786
108	1480	2210
109	665	2560
110	1918	2285
111	2062	2543
112	1493	2389
113	201	1679
114	552	2045
115	936	1762
116	1588	2434
117	747	1863
118	1034	2044
119	934	1980
120	1310	2575
121	0	1476
122	1032	2512
123	471	2441
124	1507	1787
125	1677	2018
126	139	1802
127	842	1780
128	2189	3000
129	429	1759
130	833	2518
131	604	1825
132	284	1468
133	1087	1769
134	1495	2643
135	0	1593
136	1563	2324
137	522	2465
138	492	2189
139	710	2471
140	888	1235
141	874	1237
142	893	2637
143	0	807
144	836	1248
145	1113	2026
146	1079	1805
147	905	1720
148	340	1998
149	397	766
150	1084	1439
151	1496	1876
152	1447	2218
153	1393	1796
154	12	1903
155	422	2400
156	296	1401
157	1310	1784
158	1040	2263
159	1924	2200
160	456	2324
161	427	1959
162	1212	2197
163	1140	2310
164	758	1325
165	1461	2619
166	519	1780
167	979	1410
168	1402	2352
169	512	1880
170	474	1269
171	364	1878
172	1762	2399
173	349	1760
174	1874	2371
175	297	2171
176	917	2383
177	995	2548
178	1129	2521
179	1815	2027
180	1606	2041
181	671	1979
182	318	2012
183	1657	2759
184	976	2868
185	960	1728
186	1050	1262
187	670	2432
188	837	2752
189	1453	1721
190	1098	2886
191	867	1878
192	549	1534
193	335	1464
194	1297	1725
195	1350	1806
196	726	2462
197	1247	1795
198	471	1964
199	552	1944
200	637	2376
201	769	2646
202	1283	2449
203	283	2155
204	166	1993
205	303	2239
206	100	887
207	1216	2725
208	527	2044
209	1779	2543
210	621	1887
211	924	1761
212	740	1303
213	198	1731
214	869	2330
215	892	2259
216	0	1300
217	1216	1902
218	1141	2597
219	1122	2042
220	426	2277
221	915	1375
222	657	1739
223	677	2414
224	1607	2562
225	1493	2520
226	1439	3000
227	779	1773
228	659	2169
229	618	1625
230	627	1535
231	627	2615
232	1062	1521
233	950	2212
234	821	2016
235	1359	1706
236	753	1458
237	818	1949
238	1117	1512
239	1834	2100
240	900	1895
241	1502	1726
242	345	982
243	657	947
244	1589	3000
245	871	2766
246	1350	1871
247	1176	2033
248	493	769
249	537	2429
250	0	792
251	703	1513
252	392	1218
253	1740	2265
254	1530	1975
255	76	1395
256	1771	2046
257	997	2253
258	342	2117
259	561	2339
260	975	1577
261	1400	2172
262	1064	2375
263	311	1780
264	676	1518
265	458	2197
266	407	1581
267	1363	1833
268	382	2174
269	1164	2146
270	0	1358
271	1347	1699
272	809	1918
273	246	1400
274	633	937
275	1693	1930
276	471	1676
277	1538	2006
278	133	535
279	512	1689
280	790	2044
281	611	2424
282	45	1613
283	499	2497
284	1350	2972
285	42	1426
286	1747	2720
287	163	2141
288	604	1385
289	559	2272
290	466	2031
291	1703	2347
292	364	2344
293	308	1889
294	918	1627
295	854	2494
296	21	1874
297	50	1064
298	819	2074
299	754	1472
300	120	1811
301	164	1542
302	1051	2903
303	1057	2362
304	1170	1576
305	1573	2398
306	1777	2155
307	0	1573
308	467	1980
309	1036	1961
310	983	2522
311	722	2441
312	757	2346
313	1598	2235
314	1090	1447
315	633	2148
316	1719	2479
317	1019	2145
318	287	526
319	0	1300
320	249	2098
321	2001	2265
322	1893	2802
323	920	1357
324	641	1509
325	667	2190
326	1120	2168
327	901	1565
328	0	1244
329	1002	1508
330	1149	2094
331	1435	2436
332	1395	2418
333	984	2936
334	777	2201
335	1700	2184
336	1704	3000
337	0	1480
338	564	2131
339	662	1670
340	1357	1916
341	438	1600
342	657	1722
343	1283	3000
344	458	1944
345	436	1686
346	267	1400
347	279	1879
348	1398	1668
349	1279	1502
350	743	2183
351	718	1930
352	738	2328
353	898	1988
354	1715	1999
355	847	2731
356	1209	2411
357	1704	1914
358	728	2518
359	252	2157
360	840	2028
361	2073	2571
362	555	1124
363	491	1349
364	1157	1801
365	860	2135
366	705	1122
367	576	2263
368	864	1309
369	1285	1810
370	872	2520
371	426	2216
372	1699	2357
373	431	1639
374	900	1246
375	1239	1686
376	226	613
377	641	1672
378	429	1468
379	1144	1645
380	836	2823
381	0	1388
382	153	1996
383	168	1432
384	1353	2614
385	710	2628
386	1035	1930
387	1695	3000
388	741	2545
389	1514	1844
390	845	2357
391	726	995
392	0	1027
393	0	1833
394	271	2034
395	903	2471
396	1571	2166
397	618	1497
398	949	1636
399	1274	2682
400	1047	1370
401	1406	1758
402	750	1126
403	258	1379
404	0	1319
405	728	2505
406	1396	2728
407	745	2289
408	1080	2624
409	0	650
410	125	2025
411	1621	1858
412	947	2796
413	2284	2612
414	474	840
415	729	1855
416	400	1748
417	1466	2159
418	510	880
419	642	2216
420	1056	1319
421	848	1197
422	0	497
423	1830	2391
424	792	1731
425	1047	1342
426	496	1484
427	2077	2323
428	767	1495
429	558	1778
430	655	2494
431	761	1534
432	871	1721
433	1463	1681
434	921	1944
435	1589	2610
436	999	2067
437	618	1436
438	1225	1753
439	2	1962
440	1360	1946
441	1228	2390
442	896	1156
443	691	1379
444	433	2249
445	710	1157
446	213	2005
447	697	951
448	1022	2913
449	663	2176
450	973	1500
451	179	1665
452	164	1736
453	893	2178
454	1161	2166
455	491	2415
456	1646	2545
457	443	2307
458	1079	1655
459	278	1357
460	1018	1884
461	779	2611
462	588	2126
463	0	995
464	1801	2038
465	1239	2360
466	589	794
467	29	2018
468	0	1332
469	582	2140
470	2255	3000
471	670	1414
472	0	1414
473	1221	1868
474	712	2378
475	1136	2239
476	1369	1704
477	1253	2385
478	543	2342
479	1322	1656
480	714	2064
481	0	1338
482	945	1668
483	712	2205
484	865	2854
485	518	1826
486	0	1587
487	1060	2065
488	526	1688
489	1534	2283
490	1499	2340
491	413	2099
492	693	2610
493	1389	2491
494	867	2149
495	972	1523
496	304	2303
497	633	2224
498	688	1382
499	1173	2582
500	1127	2615
501	1226	2230
DEPOT_SECTION
1
-1
EOF
