NAME : n501-0013
COMMENT : "Generated by pyvrp_manuel (VRPTW)"
TYPE : VRPTW
DIMENSION : 501
EDGE_WEIGHT_TYPE : EUC_2D
CAPACITY : 100
VEHICLES : 500
SERVICE_TIME : 200
NODE_COORD_SECTION
1	900	515
2	797	798
3	954	642
4	465	67
5	233	152
6	271	583
7	703	856
8	284	480
9	151	744
10	325	76
11	945	475
12	396	195
13	161	863
14	120	12
15	276	141
16	289	540
17	118	705
18	479	891
19	921	131
20	927	722
21	888	42
22	887	958
23	965	157
24	507	275
25	303	842
26	204	866
27	226	490
28	281	464
29	575	390
30	249	571
31	354	27
32	35	668
33	591	790
34	786	592
35	920	237
36	676	518
37	385	769
38	733	252
39	853	940
40	860	858
41	577	115
42	954	599
43	76	350
44	345	771
45	808	936
46	234	671
47	977	360
48	74	470
49	710	183
50	981	293
51	306	361
52	136	242
53	204	456
54	670	852
55	660	497
56	804	465
57	167	980
58	524	825
59	346	244
60	353	695
61	428	756
62	178	450
63	135	207
64	506	567
65	137	224
66	39	114
67	16	983
68	750	73
69	808	205
70	67	394
71	591	894
72	609	441
73	129	397
74	452	444
75	172	960
76	138	382
77	592	651
78	407	630
79	459	607
80	503	413
81	45	218
82	922	276
83	608	781
84	856	290
85	835	517
86	516	589
87	700	623
88	647	697
89	528	895
90	129	63
91	518	458
92	283	66
93	882	692
94	203	491
95	908	161
96	626	45
97	530	219
98	589	3
99	778	217
100	619	123
101	209	909
102	662	675
103	238	316
104	11	300
105	800	270
106	386	536
107	963	68
108	458	204
109	252	19
110	392	840
111	283	528
112	571	481
113	809	428
114	239	443
115	92	651
116	257	681
117	271	820
118	862	928
119	658	278
120	546	258
121	971	475
122	706	449
123	605	67
124	39	887
125	286	347
126	463	869
127	874	274
128	188	557
129	734	648
130	437	315
131	790	862
132	223	895
133	54	867
134	115	537
135	888	104
136	36	628
137	886	637
138	161	241
139	250	850
140	171	845
141	318	831
142	321	775
143	860	493
144	635	33
145	724	422
146	430	546
147	428	901
148	626	501
149	271	704
150	412	670
151	749	192
152	218	615
153	112	219
154	23	562
155	813	447
156	213	221
157	966	826
158	650	852
159	993	415
160	330	815
161	861	966
162	117	520
163	417	386
164	799	539
165	223	257
166	115	296
167	454	128
168	965	555
169	349	642
170	161	899
171	836	496
172	440	278
173	456	476
174	739	333
175	23	295
176	572	173
177	348	996
178	690	219
179	876	316
180	843	300
181	677	552
182	78	26
183	426	280
184	905	532
185	766	66
186	265	751
187	475	962
188	730	540
189	851	356
190	628	865
191	871	233
192	957	616
193	361	259
194	993	484
195	617	885
196	83	215
197	44	747
198	587	988
199	274	446
200	56	450
201	412	217
202	577	920
203	292	298
204	725	162
205	142	590
206	531	899
207	666	144
208	968	379
209	870	275
210	876	522
211	329	213
212	191	796
213	659	686
214	495	450
215	76	819
216	981	954
217	78	441
218	990	241
219	43	55
220	522	507
221	272	20
222	828	628
223	840	856
224	330	941
225	58	779
226	298	595
227	572	743
228	959	316
229	814	603
230	223	462
231	713	245
232	877	176
233	945	786
234	957	916
235	184	931
236	322	386
237	683	266
238	942	646
239	805	973
240	816	117
241	845	647
242	649	42
243	734	755
244	755	904
245	25	567
246	319	502
247	927	878
248	158	853
249	378	177
250	390	278
251	647	924
252	438	930
253	913	761
254	563	787
255	591	469
256	20	976
257	874	882
258	458	375
259	747	129
260	986	166
261	369	659
262	555	582
263	953	608
264	704	994
265	265	591
266	896	426
267	483	795
268	368	729
269	696	519
270	783	960
271	798	186
272	231	310
273	222	923
274	493	959
275	734	291
276	607	904
277	846	187
278	813	43
279	373	523
280	16	361
281	888	361
282	49	23
283	121	26
284	935	781
285	7	690
286	328	301
287	778	179
288	448	580
289	619	768
290	734	627
291	183	655
292	198	285
293	427	951
294	707	615
295	339	131
296	878	960
297	353	179
298	617	967
299	231	499
300	582	877
301	661	102
302	552	422
303	375	345
304	225	707
305	694	257
306	166	538
307	781	627
308	219	613
309	611	463
310	450	752
311	974	778
312	245	303
313	387	793
314	801	655
315	393	252
316	647	476
317	43	516
318	601	256
319	591	349
320	146	28
321	26	967
322	788	723
323	690	203
324	921	506
325	494	338
326	235	548
327	227	45
328	837	537
329	770	905
330	453	487
331	48	250
332	222	877
333	196	410
334	786	152
335	624	84
336	741	427
337	647	512
338	242	133
339	160	905
340	954	329
341	791	126
342	161	232
343	373	751
344	347	253
345	303	315
346	22	735
347	688	452
348	690	169
349	52	102
350	49	179
351	491	77
352	334	191
353	118	769
354	226	969
355	362	996
356	872	199
357	723	428
358	509	799
359	207	829
360	838	384
361	569	175
362	200	488
363	731	500
364	397	697
365	353	296
366	852	998
367	502	501
368	908	123
369	324	502
370	453	694
371	912	44
372	381	732
373	673	847
374	941	553
375	687	248
376	216	541
377	237	806
378	787	98
379	383	961
380	43	613
381	341	599
382	256	422
383	658	390
384	452	102
385	157	678
386	336	852
387	660	79
388	804	180
389	671	951
390	436	404
391	569	392
392	758	892
393	245	466
394	328	676
395	308	909
396	67	292
397	819	351
398	936	535
399	19	407
400	690	979
401	93	707
402	383	640
403	816	409
404	890	84
405	179	210
406	184	418
407	522	815
408	180	18
409	596	713
410	159	53
411	970	276
412	264	203
413	275	675
414	41	375
415	615	970
416	905	7
417	146	105
418	368	9
419	855	773
420	732	587
421	198	42
422	882	857
423	989	585
424	433	748
425	936	407
426	558	531
427	631	571
428	983	768
429	667	924
430	61	229
431	545	412
432	875	997
433	308	288
434	292	185
435	888	6
436	781	954
437	489	560
438	807	612
439	133	200
440	614	926
441	36	95
442	93	393
443	210	304
444	226	384
445	669	224
446	189	825
447	376	666
448	966	427
449	358	691
450	569	460
451	257	638
452	550	158
453	587	892
454	45	636
455	713	367
456	763	274
457	263	583
458	480	783
459	734	501
460	924	784
461	800	128
462	423	127
463	140	108
464	479	24
465	463	339
466	400	763
467	636	122
468	478	912
469	895	564
470	599	401
471	519	745
472	428	516
473	299	98
474	199	972
475	996	102
476	706	710
477	627	929
478	778	252
479	837	917
480	264	84
481	989	69
482	625	776
483	495	504
484	907	761
485	753	539
486	297	77
487	57	533
488	535	230
489	174	854
490	471	594
491	480	450
492	865	388
493	746	901
494	814	527
495	308	996
496	562	238
497	914	240
498	695	979
499	913	195
500	545	124
501	935	798
DEMAND_SECTION
1	0
2	9
3	8
4	8
5	9
6	5
7	6
8	5
9	7
10	1
11	1
12	1
13	1
14	7
15	2
16	6
17	7
18	5
19	5
20	1
21	6
22	2
23	4
24	1
25	4
26	6
27	6
28	3
29	7
30	6
31	9
32	9
33	2
34	3
35	6
36	3
37	7
38	6
39	9
40	2
41	4
42	1
43	1
44	6
45	5
46	9
47	9
48	8
49	6
50	3
51	8
52	8
53	3
54	5
55	2
56	9
57	3
58	4
59	4
60	8
61	6
62	9
63	4
64	5
65	4
66	9
67	5
68	7
69	9
70	8
71	8
72	2
73	8
74	2
75	6
76	2
77	9
78	4
79	9
80	3
81	7
82	1
83	5
84	2
85	4
86	7
87	4
88	2
89	4
90	4
91	9
92	7
93	6
94	5
95	3
96	9
97	7
98	6
99	1
100	5
101	7
102	4
103	2
104	9
105	2
106	6
107	6
108	1
109	5
110	8
111	3
112	8
113	7
114	1
115	9
116	4
117	2
118	9
119	7
120	8
121	2
122	7
123	2
124	9
125	4
126	3
127	1
128	3
129	1
130	9
131	6
132	1
133	1
134	3
135	1
136	8
137	3
138	1
139	3
140	4
141	3
142	2
143	1
144	2
145	8
146	6
147	7
148	4
149	5
150	2
151	5
152	4
153	1
154	9
155	3
156	6
157	2
158	1
159	9
160	6
161	8
162	8
163	4
164	8
165	6
166	3
167	4
168	6
169	8
170	4
171	1
172	5
173	1
174	1
175	2
176	2
177	4
178	1
179	6
180	6
181	1
182	8
183	9
184	1
185	6
186	7
187	6
188	2
189	5
190	4
191	6
192	6
193	5
194	5
195	9
196	5
197	2
198	1
199	1
200	4
201	6
202	1
203	2
204	2
205	4
206	9
207	4
208	7
209	6
210	6
211	9
212	7
213	8
214	6
215	7
216	8
217	4
218	8
219	6
220	8
221	9
222	9
223	4
224	9
225	7
226	6
227	8
228	8
229	4
230	9
231	1
232	3
233	5
234	7
235	7
236	8
237	9
238	3
239	1
240	3
241	7
242	2
243	3
244	2
245	5
246	7
247	7
248	5
249	7
250	1
251	6
252	4
253	9
254	1
255	4
256	8
257	8
258	5
259	7
260	5
261	5
262	6
263	3
264	5
265	5
266	2
267	9
268	3
269	4
270	1
271	1
272	6
273	5
274	6
275	7
276	7
277	5
278	9
279	1
280	9
281	4
282	2
283	7
284	9
285	3
286	7
287	2
288	3
289	6
290	8
291	9
292	7
293	5
294	7
295	4
296	7
297	5
298	1
299	7
300	8
301	9
302	3
303	4
304	1
305	9
306	5
307	7
308	9
309	9
310	4
311	5
312	4
313	8
314	1
315	9
316	2
317	2
318	6
319	8
320	1
321	9
322	2
323	8
324	8
325	5
326	8
327	4
328	6
329	4
330	9
331	4
332	1
333	5
334	5
335	8
336	2
337	3
338	8
339	8
340	9
341	6
342	9
343	5
344	2
345	6
346	2
347	6
348	4
349	2
350	1
351	8
352	2
353	7
354	3
355	7
356	9
357	5
358	3
359	1
360	2
361	7
362	4
363	3
364	5
365	1
366	2
367	7
368	2
369	3
370	2
371	5
372	8
373	2
374	2
375	5
376	7
377	7
378	3
379	3
380	9
381	7
382	6
383	7
384	5
385	6
386	5
387	9
388	9
389	7
390	5
391	4
392	8
393	9
394	6
395	5
396	4
397	2
398	2
399	4
400	8
401	5
402	5
403	2
404	6
405	3
406	7
407	4
408	3
409	5
410	6
411	3
412	5
413	1
414	7
415	1
416	1
417	9
418	2
419	9
420	6
421	2
422	3
423	7
424	9
425	9
426	4
427	1
428	6
429	7
430	1
431	9
432	3
433	9
434	6
435	2
436	5
437	5
438	6
439	5
440	3
441	5
442	5
443	2
444	8
445	2
446	5
447	8
448	5
449	4
450	6
451	8
452	5
453	3
454	8
455	4
456	2
457	1
458	9
459	3
460	8
461	8
462	8
463	7
464	4
465	5
466	7
467	5
468	6
469	7
470	7
471	3
472	1
473	4
474	6
475	7
476	1
477	2
478	4
479	3
480	5
481	7
482	8
483	7
484	8
485	3
486	7
487	7
488	9
489	9
490	3
491	8
492	6
493	5
494	8
495	2
496	1
497	2
498	2
499	8
500	5
501	5
TIME_WINDOW_SECTION
1	0	3000
2	518	1750
3	976	1954
4	1085	2118
5	568	2349
6	1103	2240
7	709	1034
8	1786	2168
9	207	1647
10	1895	2185
11	0	1090
12	1283	2198
13	858	2056
14	330	2195
15	1792	2290
16	1462	1934
17	1125	2749
18	335	2123
19	1382	1675
20	0	1499
21	175	1312
22	835	1153
23	1219	3000
24	1493	1799
25	1371	2713
26	927	2255
27	634	1294
28	1282	1964
29	561	1139
30	1241	1689
31	1058	2818
32	1059	2105
33	520	1867
34	1023	2058
35	1014	1800
36	745	2278
37	306	1714
38	645	1506
39	0	1645
40	1005	1971
41	597	1220
42	378	2217
43	771	1296
44	879	2647
45	1462	2829
46	1146	2808
47	1762	2630
48	1042	1527
49	1627	2232
50	1638	2435
51	235	1026
52	1714	2189
53	1512	1804
54	512	778
55	547	870
56	364	2306
57	694	1882
58	742	1889
59	349	1835
60	992	2567
61	379	1086
62	630	1744
63	0	1984
64	970	2342
65	62	1771
66	1335	2277
67	1499	1707
68	1306	1912
69	364	678
70	465	1235
71	1316	2955
72	0	1873
73	991	2740
74	390	836
75	652	1741
76	706	2242
77	1518	3000
78	635	1216
79	576	881
80	1645	2098
81	740	2025
82	441	1015
83	1513	2107
84	2034	3000
85	0	1082
86	1761	3000
87	65	1248
88	1870	2647
89	1474	2415
90	734	1470
91	1310	2644
92	409	2361
93	2241	2479
94	1347	2782
95	544	1998
96	1529	2060
97	586	2174
98	1282	2437
99	897	2072
100	1365	2535
101	1431	2142
102	2145	2849
103	1204	2659
104	742	1272
105	0	1151
106	676	1216
107	1150	2177
108	722	1849
109	1036	2572
110	1325	2179
111	1158	1457
112	656	876
113	836	2660
114	133	1334
115	1611	2023
116	1628	2068
117	1060	3000
118	615	2106
119	1260	1532
120	1055	3000
121	415	1859
122	752	1833
123	128	1788
124	1486	1849
125	913	1287
126	1773	2089
127	1111	2201
128	1327	2702
129	1727	2118
130	880	1616
131	536	990
132	823	1335
133	1087	2636
134	1099	2545
135	0	1336
136	1492	1991
137	0	1108
138	275	1753
139	881	2712
140	314	1651
141	257	1176
142	0	1413
143	0	1651
144	1784	2678
145	375	2001
146	555	2513
147	1719	2263
148	1411	1726
149	747	1095
150	1880	2666
151	811	1877
152	738	2007
153	770	2254
154	815	2576
155	266	1534
156	791	1325
157	1327	1885
158	428	1010
159	0	1616
160	629	1461
161	645	1470
162	1067	1271
163	0	1132
164	262	952
165	1487	2052
166	679	969
167	1019	2570
168	351	771
169	808	1608
170	646	1289
171	241	585
172	744	971
173	0	1832
174	2207	2748
175	555	1813
176	2032	2443
177	848	2288
178	498	2487
179	377	2316
180	2084	2545
181	0	1036
182	935	1808
183	950	1306
184	787	1671
185	1371	1730
186	898	2827
187	533	1781
188	0	1498
189	1654	2799
190	265	1683
191	1496	2751
192	0	1325
193	421	1776
194	1698	3000
195	1740	2847
196	393	2358
197	1744	2079
198	394	1177
199	310	1633
200	1442	2333
201	1289	2476
202	107	1292
203	1302	1837
204	1643	2619
205	439	1157
206	1178	2490
207	518	723
208	769	1854
209	1957	2290
210	2584	2959
211	1018	1440
212	554	1167
213	1311	1907
214	634	2335
215	56	1905
216	1355	1951
217	1448	1966
218	651	1649
219	1052	1860
220	1297	2354
221	981	2911
222	1354	2048
223	1996	2699
224	993	1956
225	342	2179
226	110	1374
227	1015	1565
228	92	394
229	1482	2706
230	368	1102
231	1308	2601
232	1304	3000
233	126	1551
234	783	2781
235	530	1214
236	570	1014
237	1242	2277
238	0	489
239	398	1647
240	371	2125
241	1312	3000
242	1030	2633
243	1249	2616
244	0	1521
245	606	1224
246	331	1929
247	168	1114
248	751	2425
249	627	2364
250	461	1312
251	1204	1768
252	1109	3000
253	1438	2364
254	267	2231
255	1365	2630
256	1275	1510
257	1271	1583
258	266	2101
259	1196	1647
260	1383	1778
261	1350	2459
262	132	630
263	1830	2602
264	533	1867
265	837	2791
266	1705	2588
267	862	2699
268	1593	2731
269	19	1487
270	1286	2986
271	150	1453
272	881	1220
273	581	1403
274	1133	1413
275	733	1457
276	974	1720
277	161	1352
278	1006	2782
279	1636	2550
280	986	2557
281	1389	2495
282	668	1325
283	828	1811
284	1823	2565
285	30	1883
286	1505	1970
287	397	872
288	1246	3000
289	1333	1934
290	0	1424
291	1194	2473
292	382	1744
293	1321	1985
294	901	1189
295	1019	2090
296	1490	2867
297	856	1395
298	970	1639
299	528	2393
300	303	906
301	1079	2973
302	0	1329
303	11	1241
304	1020	2456
305	1194	2160
306	989	2547
307	1066	1297
308	1117	2593
309	72	739
310	300	1842
311	1346	1746
312	195	1190
313	270	2060
314	1349	2353
315	732	2725
316	1051	2039
317	1485	2374
318	1279	2866
319	368	1821
320	1415	2174
321	1369	1833
322	478	1991
323	0	1276
324	2479	2899
325	1017	2751
326	1309	2672
327	324	1431
328	427	1051
329	963	2390
330	1754	2547
331	1577	1817
332	955	1713
333	400	2365
334	1378	2300
335	1116	2901
336	948	1178
337	1796	3000
338	1379	2491
339	773	2640
340	24	1879
341	1118	1997
342	286	1314
343	1171	1888
344	268	1094
345	853	2713
346	836	2599
347	784	2176
348	1119	1566
349	630	1627
350	310	1819
351	1293	1723
352	1446	1975
353	623	1606
354	897	2608
355	1234	2147
356	1158	2626
357	364	1850
358	394	1590
359	1161	1729
360	1541	2470
361	188	1950
362	1097	1725
363	1000	2977
364	884	2207
365	354	2270
366	208	1805
367	1043	1814
368	2082	2479
369	779	1891
370	697	1006
371	358	2098
372	1402	1721
373	1315	1535
374	642	1653
375	1546	1928
376	780	1088
377	1247	1636
378	152	1491
379	103	1793
380	232	1733
381	541	2144
382	683	2306
383	963	1877
384	1723	2298
385	1122	1377
386	1733	2199
387	1244	2417
388	1526	2453
389	1431	3000
390	243	1432
391	1148	2035
392	565	2262
393	608	1530
394	904	1448
395	380	1460
396	1248	1896
397	1384	1671
398	1087	2375
399	1098	1673
400	1156	3000
401	368	2255
402	712	2223
403	0	1682
404	46	1806
405	1162	1911
406	1317	1709
407	1079	3000
408	362	2015
409	1170	2679
410	1495	1752
411	209	444
412	1370	2549
413	448	1233
414	1483	2203
415	1030	1858
416	321	1385
417	556	1933
418	934	1901
419	0	1112
420	17	637
421	499	2074
422	588	2071
423	822	2559
424	1139	2151
425	796	1043
426	842	2646
427	595	1070
428	429	2160
429	0	1359
430	573	1738
431	583	1817
432	888	1822
433	1312	2025
434	1546	2173
435	278	823
436	0	1376
437	1740	2300
438	0	1051
439	682	2378
440	597	962
441	535	1461
442	1355	2032
443	301	1270
444	377	1691
445	1898	2132
446	473	1932
447	1242	2910
448	1146	1938
449	1246	2922
450	806	1680
451	1762	2065
452	702	2451
453	1077	2401
454	980	2793
455	1449	3000
456	1123	2015
457	1403	2265
458	38	1084
459	1792	2213
460	1260	2774
461	1571	2225
462	221	1065
463	365	2315
464	80	1502
465	1251	2823
466	980	1404
467	1857	2764
468	1039	2862
469	447	2405
470	1500	1861
471	840	1429
472	862	1069
473	765	1656
474	568	1542
475	613	1154
476	1377	2882
477	965	2166
478	0	1052
479	0	1231
480	1004	2848
481	1033	1808
482	794	1762
483	512	1503
484	0	709
485	189	2146
486	114	1537
487	1142	2074
488	1188	2932
489	857	2263
490	1423	3000
491	0	1330
492	1850	3000
493	683	2214
494	137	853
495	1647	2179
496	2056	2349
497	827	1960
498	110	1196
499	496	2467
500	253	1896
501	617	2041
DEPOT_SECTION
1
-1
EOF
