NAME : n501-0045
COMMENT : "Generated by pyvrp_manuel (VRPTW)"
TYPE : VRPTW
DIMENSION : 501
EDGE_WEIGHT_TYPE : EUC_2D
CAPACITY : 100
VEHICLES : 500
SERVICE_TIME : 200
NODE_COORD_SECTION
1	7	473
2	559	231
3	571	384
4	222	129
5	940	719
6	339	321
7	770	137
8	155	661
9	976	123
10	58	106
11	559	258
12	68	401
13	551	66
14	276	96
15	475	620
16	34	299
17	741	922
18	709	844
19	370	662
20	714	810
21	218	679
22	68	600
23	561	459
24	189	51
25	298	763
26	826	200
27	3	650
28	280	228
29	196	90
30	564	3
31	250	931
32	787	717
33	337	276
34	659	757
35	384	820
36	574	826
37	342	503
38	418	502
39	552	583
40	211	142
41	167	130
42	868	458
43	986	899
44	315	438
45	674	149
46	445	105
47	209	898
48	875	50
49	127	957
50	605	130
51	715	139
52	698	280
53	929	848
54	198	927
55	65	989
56	268	289
57	985	773
58	626	961
59	90	975
60	741	50
61	706	806
62	492	61
63	539	646
64	998	549
65	56	230
66	445	545
67	902	873
68	809	179
69	815	94
70	350	995
71	230	657
72	576	271
73	625	231
74	668	748
75	932	455
76	860	362
77	398	225
78	791	37
79	725	868
80	641	203
81	587	31
82	328	184
83	271	258
84	209	842
85	497	759
86	795	455
87	226	797
88	391	300
89	624	798
90	491	151
91	784	566
92	20	430
93	382	408
94	521	398
95	236	392
96	497	301
97	617	452
98	494	878
99	626	119
100	207	786
101	701	402
102	401	863
103	366	430
104	713	23
105	794	639
106	228	866
107	387	254
108	460	267
109	942	147
110	173	256
111	337	501
112	404	301
113	135	829
114	583	709
115	421	742
116	981	334
117	97	12
118	390	155
119	430	727
120	294	149
121	216	486
122	776	610
123	583	703
124	692	325
125	450	128
126	373	913
127	139	64
128	129	8
129	729	909
130	835	432
131	165	442
132	552	604
133	717	540
134	622	66
135	581	749
136	726	571
137	87	536
138	345	403
139	868	625
140	517	154
141	359	431
142	312	189
143	879	798
144	883	289
145	44	190
146	403	367
147	205	780
148	78	426
149	557	864
150	251	491
151	54	610
152	120	76
153	361	832
154	752	759
155	909	988
156	364	254
157	639	953
158	248	870
159	478	904
160	644	188
161	19	826
162	176	890
163	440	185
164	445	145
165	107	300
166	443	471
167	389	540
168	208	521
169	662	726
170	548	886
171	138	504
172	9	961
173	267	224
174	46	952
175	718	110
176	138	457
177	462	642
178	936	881
179	254	691
180	579	511
181	751	762
182	132	233
183	565	597
184	823	938
185	357	852
186	496	965
187	740	160
188	530	81
189	866	208
190	344	633
191	331	309
192	160	459
193	177	269
194	423	104
195	652	318
196	286	630
197	288	721
198	728	471
199	815	574
200	437	931
201	249	7
202	524	529
203	381	540
204	203	94
205	324	704
206	278	420
207	320	560
208	358	695
209	715	662
210	852	259
211	548	125
212	560	70
213	646	153
214	166	567
215	626	591
216	598	191
217	795	968
218	961	697
219	29	244
220	941	561
221	948	932
222	278	80
223	434	429
224	535	31
225	161	417
226	688	907
227	21	406
228	474	83
229	251	201
230	869	830
231	388	923
232	38	918
233	399	530
234	454	122
235	489	115
236	771	904
237	879	412
238	561	226
239	13	523
240	56	5
241	571	250
242	824	762
243	195	809
244	510	587
245	689	643
246	481	582
247	409	264
248	60	587
249	530	314
250	412	307
251	321	188
252	7	453
253	436	441
254	784	365
255	165	397
256	262	448
257	327	930
258	753	23
259	12	501
260	752	659
261	63	870
262	42	538
263	699	584
264	102	668
265	804	315
266	30	273
267	271	808
268	74	554
269	825	494
270	4	121
271	828	450
272	514	339
273	823	297
274	701	853
275	468	217
276	550	740
277	773	448
278	165	847
279	835	965
280	997	30
281	442	761
282	645	113
283	47	29
284	505	888
285	709	69
286	664	241
287	863	158
288	63	644
289	705	291
290	48	537
291	931	335
292	802	584
293	710	290
294	597	994
295	116	350
296	33	590
297	469	692
298	196	677
299	183	562
300	218	818
301	505	793
302	607	795
303	717	373
304	613	925
305	577	836
306	438	931
307	342	193
308	763	849
309	518	92
310	356	800
311	539	430
312	186	506
313	382	752
314	293	651
315	186	592
316	678	966
317	569	691
318	623	66
319	556	570
320	781	341
321	458	929
322	964	189
323	30	619
324	896	472
325	330	287
326	851	756
327	658	996
328	777	191
329	444	12
330	553	466
331	151	803
332	62	357
333	47	873
334	248	128
335	19	995
336	814	459
337	981	138
338	424	389
339	304	456
340	867	194
341	822	401
342	249	454
343	782	980
344	109	228
345	469	380
346	42	764
347	598	139
348	240	1
349	213	9
350	644	607
351	763	393
352	593	349
353	507	514
354	529	756
355	84	331
356	171	235
357	375	130
358	53	762
359	807	869
360	408	308
361	481	112
362	707	512
363	442	525
364	523	605
365	193	84
366	244	721
367	573	259
368	591	852
369	384	83
370	771	775
371	700	402
372	881	475
373	499	78
374	620	313
375	467	735
376	221	855
377	332	462
378	90	980
379	661	143
380	963	259
381	462	488
382	579	129
383	259	951
384	684	92
385	672	188
386	244	973
387	137	493
388	856	351
389	181	675
390	162	733
391	789	305
392	974	869
393	857	820
394	414	203
395	314	912
396	674	152
397	539	323
398	371	153
399	919	754
400	972	739
401	548	793
402	697	67
403	838	301
404	66	531
405	133	934
406	665	915
407	762	118
408	410	823
409	625	467
410	940	709
411	244	749
412	283	429
413	926	716
414	7	577
415	278	453
416	9	988
417	306	502
418	945	532
419	335	176
420	978	380
421	200	793
422	668	461
423	703	266
424	967	425
425	944	721
426	558	181
427	350	661
428	817	759
429	408	946
430	676	855
431	654	325
432	461	568
433	574	237
434	138	28
435	783	914
436	175	712
437	466	352
438	39	225
439	51	737
440	179	131
441	755	296
442	580	65
443	682	340
444	872	8
445	838	304
446	426	477
447	586	672
448	610	417
449	319	970
450	105	271
451	530	292
452	402	69
453	782	17
454	613	485
455	55	54
456	936	627
457	641	930
458	547	162
459	254	5
460	927	222
461	394	261
462	342	889
463	558	498
464	970	33
465	241	249
466	486	789
467	493	16
468	267	708
469	592	372
470	604	210
471	257	886
472	572	380
473	583	996
474	33	616
475	991	175
476	754	980
477	1	865
478	704	121
479	3	604
480	595	406
481	283	62
482	693	416
483	521	688
484	386	439
485	395	382
486	501	789
487	725	162
488	757	723
489	661	434
490	876	619
491	47	669
492	716	22
493	637	809
494	594	186
495	458	941
496	712	352
497	329	772
498	243	629
499	483	952
500	634	293
501	601	760
DEMAND_SECTION
1	0
2	6
3	7
4	6
5	2
6	5
7	4
8	5
9	2
10	3
11	8
12	8
13	2
14	4
15	4
16	6
17	5
18	9
19	3
20	3
21	3
22	1
23	8
24	6
25	1
26	8
27	3
28	8
29	2
30	2
31	3
32	4
33	8
34	4
35	8
36	8
37	2
38	3
39	2
40	6
41	7
42	9
43	2
44	3
45	1
46	2
47	1
48	7
49	1
50	4
51	5
52	3
53	5
54	1
55	7
56	9
57	5
58	5
59	6
60	5
61	7
62	3
63	2
64	6
65	3
66	2
67	8
68	8
69	2
70	9
71	3
72	1
73	9
74	5
75	3
76	5
77	6
78	8
79	5
80	9
81	6
82	7
83	8
84	7
85	7
86	5
87	6
88	1
89	9
90	2
91	1
92	8
93	4
94	8
95	1
96	6
97	2
98	3
99	1
100	1
101	9
102	6
103	4
104	2
105	1
106	3
107	4
108	1
109	5
110	9
111	7
112	3
113	4
114	5
115	3
116	9
117	9
118	1
119	6
120	2
121	1
122	6
123	2
124	3
125	2
126	9
127	4
128	5
129	9
130	1
131	4
132	8
133	8
134	1
135	2
136	7
137	5
138	3
139	2
140	3
141	5
142	7
143	1
144	8
145	5
146	8
147	1
148	4
149	1
150	3
151	2
152	1
153	1
154	3
155	4
156	6
157	1
158	4
159	5
160	9
161	1
162	7
163	5
164	5
165	4
166	3
167	3
168	2
169	4
170	7
171	2
172	8
173	7
174	7
175	5
176	3
177	9
178	4
179	5
180	3
181	1
182	8
183	9
184	8
185	8
186	7
187	4
188	6
189	9
190	8
191	1
192	8
193	4
194	2
195	1
196	6
197	4
198	4
199	3
200	7
201	5
202	5
203	5
204	4
205	3
206	4
207	3
208	6
209	9
210	3
211	8
212	3
213	4
214	1
215	4
216	7
217	2
218	1
219	1
220	6
221	8
222	7
223	2
224	3
225	2
226	2
227	6
228	6
229	1
230	7
231	2
232	2
233	7
234	1
235	4
236	7
237	8
238	2
239	4
240	9
241	7
242	5
243	4
244	1
245	2
246	8
247	8
248	9
249	2
250	3
251	6
252	4
253	8
254	2
255	7
256	4
257	2
258	4
259	6
260	8
261	7
262	3
263	1
264	8
265	4
266	5
267	1
268	3
269	4
270	1
271	5
272	8
273	4
274	5
275	6
276	4
277	3
278	6
279	9
280	5
281	2
282	3
283	2
284	1
285	9
286	9
287	9
288	8
289	9
290	6
291	9
292	5
293	6
294	1
295	4
296	9
297	5
298	2
299	2
300	1
301	4
302	3
303	6
304	2
305	5
306	4
307	7
308	3
309	6
310	8
311	4
312	3
313	9
314	3
315	5
316	5
317	1
318	6
319	9
320	8
321	1
322	9
323	5
324	4
325	6
326	6
327	4
328	4
329	3
330	4
331	3
332	7
333	3
334	4
335	5
336	1
337	4
338	5
339	5
340	2
341	3
342	1
343	2
344	3
345	2
346	3
347	1
348	4
349	8
350	5
351	6
352	4
353	4
354	4
355	7
356	2
357	3
358	4
359	3
360	4
361	7
362	5
363	6
364	9
365	7
366	6
367	5
368	6
369	7
370	7
371	4
372	3
373	9
374	5
375	9
376	9
377	7
378	9
379	9
380	3
381	4
382	4
383	7
384	9
385	1
386	3
387	3
388	3
389	5
390	5
391	6
392	6
393	9
394	5
395	4
396	4
397	7
398	7
399	7
400	3
401	3
402	4
403	5
404	2
405	8
406	4
407	1
408	2
409	6
410	7
411	4
412	5
413	7
414	9
415	8
416	9
417	2
418	7
419	2
420	6
421	5
422	6
423	3
424	9
425	3
426	5
427	9
428	6
429	2
430	2
431	4
432	6
433	1
434	5
435	2
436	5
437	4
438	3
439	4
440	2
441	3
442	3
443	8
444	7
445	9
446	2
447	7
448	6
449	8
450	2
451	2
452	8
453	6
454	5
455	2
456	5
457	1
458	6
459	4
460	2
461	8
462	3
463	2
464	9
465	4
466	3
467	2
468	6
469	7
470	4
471	6
472	9
473	3
474	4
475	9
476	3
477	8
478	1
479	3
480	9
481	8
482	5
483	8
484	6
485	2
486	6
487	9
488	9
489	3
490	7
491	2
492	6
493	4
494	7
495	2
496	3
497	7
498	8
499	8
500	4
501	9
TIME_WINDOW_SECTION
1	0	3000
2	1235	3000
3	324	1577
4	1856	2182
5	741	1407
6	921	2099
7	0	1788
8	209	854
9	1079	2285
10	872	1886
11	1076	1935
12	1532	3000
13	1382	2716
14	1310	2250
15	1092	1417
16	62	1006
17	1126	1767
18	556	2430
19	0	1739
20	921	1219
21	991	1755
22	1395	2025
23	1291	2163
24	977	2201
25	355	758
26	559	2223
27	701	1478
28	0	1461
29	364	1221
30	1211	1733
31	1388	1976
32	1696	2195
33	183	649
34	1035	1578
35	1911	2128
36	193	1265
37	563	1745
38	0	1076
39	702	2485
40	988	2325
41	0	1621
42	1202	1924
43	1026	1862
44	1800	3000
45	0	1631
46	805	1453
47	1660	2247
48	1336	1913
49	214	1822
50	269	1211
51	815	2530
52	1886	2125
53	1141	1559
54	1722	2866
55	0	1910
56	1246	2159
57	283	1785
58	1226	2509
59	0	1627
60	926	2088
61	1671	1946
62	2012	2239
63	1390	2109
64	64	1924
65	283	1742
66	1581	2047
67	1235	1901
68	876	1378
69	80	1720
70	1078	3000
71	0	1081
72	1326	2918
73	560	2249
74	788	1361
75	769	2502
76	836	1631
77	1368	1799
78	665	1888
79	444	2317
80	535	1403
81	459	2030
82	53	1175
83	0	1253
84	767	2294
85	1746	2140
86	1180	1854
87	1401	2040
88	1593	2226
89	797	2064
90	726	1202
91	822	2050
92	584	1638
93	1006	2188
94	1249	2675
95	478	1334
96	857	1095
97	310	1232
98	75	1280
99	644	1941
100	1485	3000
101	989	1810
102	432	959
103	811	2171
104	442	1322
105	53	1910
106	288	942
107	0	1159
108	0	1509
109	964	2454
110	365	819
111	497	1905
112	0	1221
113	1138	1868
114	1244	1950
115	473	2358
116	910	2044
117	1380	2490
118	970	1427
119	174	1865
120	372	954
121	241	1380
122	782	2183
123	1105	2009
124	138	1956
125	445	875
126	1833	2510
127	917	1823
128	1089	1621
129	1236	1665
130	975	1642
131	621	2588
132	996	2137
133	656	1576
134	204	1775
135	626	2414
136	1424	1922
137	55	2050
138	279	851
139	536	2352
140	275	1584
141	0	1389
142	295	1669
143	1102	2433
144	389	2048
145	499	1545
146	962	1853
147	1028	1893
148	234	683
149	1959	2192
150	89	1522
151	2079	3000
152	756	2707
153	430	1304
154	1002	2641
155	901	2564
156	711	1565
157	1085	2642
158	1307	2989
159	287	1491
160	677	1773
161	1538	1844
162	631	1037
163	1291	2598
164	242	1200
165	0	962
166	1162	1752
167	1282	2073
168	693	1183
169	508	2075
170	1158	1968
171	1308	1712
172	1736	2782
173	38	1129
174	131	1423
175	389	1775
176	0	1009
177	1081	2900
178	623	1584
179	349	804
180	0	1348
181	733	1738
182	1142	3000
183	1154	3000
184	474	2212
185	1745	2076
186	171	1764
187	1122	1381
188	523	1400
189	1040	1393
190	1061	1800
191	1812	2130
192	1165	1892
193	1810	2778
194	475	1394
195	1010	2839
196	61	1303
197	194	653
198	1107	1424
199	565	1095
200	1623	2585
201	791	2186
202	1036	2265
203	1985	2282
204	814	2739
205	961	2133
206	0	1320
207	1443	2537
208	263	1025
209	1247	2477
210	829	1936
211	557	850
212	1222	2668
213	992	1316
214	0	1270
215	195	1719
216	758	1641
217	705	1264
218	664	1843
219	1145	1591
220	862	2177
221	221	2044
222	1554	2722
223	88	1829
224	1441	2461
225	0	1045
226	287	1505
227	723	1403
228	529	983
229	1569	3000
230	1078	2174
231	594	2164
232	1709	2423
233	1823	2659
234	942	1652
235	498	1625
236	0	1818
237	1601	1926
238	1641	2295
239	65	1767
240	0	1301
241	579	1990
242	1333	2015
243	1468	2935
244	1725	2619
245	797	2746
246	1154	2005
247	79	1290
248	0	638
249	293	1971
250	0	1627
251	993	1462
252	1101	1953
253	337	698
254	764	2039
255	0	628
256	994	2842
257	978	2207
258	468	1906
259	795	2503
260	912	1617
261	967	2445
262	1717	3000
263	694	2154
264	1937	2790
265	745	2385
266	2101	2791
267	872	2803
268	800	1976
269	1060	1532
270	553	1745
271	175	1552
272	961	2330
273	1524	1814
274	654	988
275	655	2329
276	537	2096
277	1075	1790
278	933	1593
279	537	1777
280	441	2290
281	839	1621
282	296	1573
283	1157	1761
284	451	1837
285	425	1412
286	685	1340
287	900	1431
288	932	1378
289	336	2008
290	1529	2236
291	869	1666
292	434	1710
293	907	1873
294	184	1776
295	2004	2986
296	0	1480
297	1290	2031
298	1440	3000
299	0	1039
300	1271	2521
301	562	1850
302	588	1363
303	294	1288
304	1072	1694
305	1289	2162
306	1067	1726
307	1287	2807
308	751	2339
309	1017	1517
310	219	1336
311	969	2918
312	541	1734
313	150	1354
314	2127	2411
315	1478	2076
316	593	1659
317	459	1958
318	1232	1748
319	1260	2893
320	1013	2587
321	730	2666
322	1091	2113
323	235	1214
324	1067	2704
325	1094	2765
326	1137	2539
327	987	2729
328	1637	2207
329	152	1418
330	1652	2126
331	0	1016
332	612	1061
333	1707	2994
334	1122	2362
335	384	824
336	933	2235
337	1321	2215
338	153	1380
339	721	1696
340	1337	2022
341	1561	2224
342	1757	2543
343	859	1374
344	151	2121
345	621	2069
346	1129	2585
347	1375	2062
348	916	1263
349	32	1351
350	1406	2604
351	213	1751
352	364	1267
353	584	967
354	378	1271
355	2179	2803
356	1001	1553
357	1044	1859
358	1154	1676
359	1552	1888
360	1315	3000
361	713	2451
362	267	2104
363	225	1674
364	173	1644
365	1670	1882
366	0	1060
367	1036	2758
368	745	1433
369	808	1653
370	927	2008
371	1300	2022
372	469	1880
373	1130	1874
374	1042	1820
375	0	1580
376	1005	1896
377	429	1679
378	574	1796
379	1051	1832
380	127	1962
381	527	1211
382	1350	1679
383	1304	2630
384	1164	2423
385	602	2553
386	0	1568
387	1613	2479
388	0	1829
389	454	1128
390	1178	1813
391	1072	2853
392	1236	1488
393	802	1435
394	0	1950
395	864	1957
396	1358	2028
397	408	1321
398	580	2451
399	501	1500
400	940	2242
401	1486	1730
402	180	1527
403	578	2211
404	470	2049
405	1598	2964
406	982	2644
407	890	1255
408	188	1742
409	1120	2726
410	662	1674
411	374	1800
412	1226	2866
413	1284	1826
414	0	1359
415	1024	2593
416	0	1664
417	215	1607
418	1135	1843
419	956	1877
420	506	1784
421	575	2023
422	1097	1800
423	199	2172
424	824	2023
425	410	1768
426	1587	2127
427	1921	2525
428	197	2154
429	302	1578
430	417	1705
431	1307	1971
432	682	1406
433	0	1431
434	432	661
435	398	2355
436	1986	2325
437	889	1944
438	1526	2653
439	1835	3000
440	0	1454
441	1283	1764
442	1433	1910
443	1413	1844
444	819	1331
445	854	2593
446	1230	2333
447	535	2066
448	1643	2013
449	1833	2417
450	1601	2170
451	459	2075
452	857	2750
453	1639	1997
454	1542	2407
455	694	1187
456	906	1724
457	0	1842
458	403	1407
459	1369	2760
460	279	1950
461	1380	2253
462	293	1554
463	0	1577
464	1099	2236
465	1324	1543
466	1032	2771
467	1567	2014
468	580	1841
469	644	1384
470	1074	1375
471	1476	2548
472	1044	1599
473	784	1619
474	0	1212
475	737	1961
476	1081	1906
477	0	1880
478	851	2095
479	9	2006
480	1565	2260
481	236	810
482	687	1399
483	1641	2561
484	55	1427
485	1417	2693
486	402	2157
487	17	1882
488	807	1542
489	906	2798
490	1494	1725
491	544	802
492	1120	2800
493	481	1413
494	651	1924
495	1426	1660
496	237	1481
497	407	1496
498	0	1172
499	1343	2059
500	1509	2730
501	1064	1761
DEPOT_SECTION
1
-1
EOF
