NAME : n501-0027
COMMENT : "Generated by pyvrp_manuel (VRPTW)"
TYPE : VRPTW
DIMENSION : 501
EDGE_WEIGHT_TYPE : EUC_2D
CAPACITY : 100
VEHICLES : 500
SERVICE_TIME : 200
NODE_COORD_SECTION
1	292	577
2	436	524
3	943	666
4	660	107
5	339	763
6	428	748
7	468	580
8	181	958
9	217	773
10	410	833
11	878	967
12	452	792
13	700	43
14	475	588
15	540	501
16	616	292
17	405	922
18	589	527
19	197	186
20	105	711
21	549	522
22	756	390
23	180	416
24	919	937
25	816	333
26	401	183
27	776	968
28	142	188
29	431	230
30	315	914
31	863	11
32	986	109
33	290	349
34	652	75
35	244	263
36	198	349
37	733	678
38	187	458
39	877	311
40	987	514
41	507	426
42	145	67
43	653	17
44	705	276
45	293	219
46	332	748
47	375	408
48	85	724
49	624	739
50	173	37
51	25	769
52	825	463
53	414	734
54	361	367
55	810	236
56	789	949
57	265	199
58	889	11
59	883	690
60	987	835
61	687	127
62	386	977
63	784	6
64	827	888
65	331	286
66	338	411
67	389	552
68	142	53
69	137	25
70	381	334
71	567	233
72	611	966
73	470	68
74	782	747
75	611	806
76	546	268
77	932	644
78	378	878
79	862	356
80	51	63
81	110	46
82	789	784
83	668	612
84	559	372
85	284	675
86	795	867
87	908	218
88	389	741
89	369	398
90	663	301
91	497	113
92	311	292
93	438	576
94	269	704
95	593	358
96	108	109
97	535	67
98	736	877
99	565	672
100	261	532
101	332	413
102	114	161
103	230	360
104	267	589
105	728	109
106	521	985
107	466	770
108	755	982
109	486	984
110	196	147
111	102	592
112	457	437
113	445	342
114	686	589
115	336	128
116	509	459
117	174	107
118	746	918
119	262	85
120	480	666
121	908	832
122	630	635
123	4	922
124	584	385
125	774	403
126	190	742
127	226	196
128	823	833
129	353	670
130	577	352
131	367	140
132	913	579
133	922	423
134	83	846
135	578	681
136	558	995
137	543	453
138	635	94
139	450	59
140	266	42
141	833	355
142	154	302
143	397	661
144	718	109
145	615	939
146	661	524
147	989	76
148	855	427
149	927	341
150	410	569
151	499	764
152	850	678
153	833	750
154	653	783
155	920	236
156	176	278
157	71	343
158	778	440
159	156	620
160	454	374
161	411	800
162	884	965
163	550	427
164	629	908
165	649	25
166	649	347
167	327	589
168	927	399
169	418	952
170	785	185
171	248	209
172	95	663
173	380	490
174	949	147
175	335	831
176	118	162
177	275	370
178	610	568
179	534	621
180	777	378
181	711	456
182	491	13
183	456	182
184	494	715
185	540	719
186	666	206
187	99	648
188	831	898
189	852	14
190	873	942
191	684	79
192	841	757
193	240	616
194	564	420
195	206	667
196	313	293
197	916	389
198	304	980
199	454	330
200	398	734
201	782	984
202	817	585
203	770	901
204	959	38
205	424	17
206	814	61
207	139	792
208	451	176
209	980	954
210	486	958
211	267	983
212	226	100
213	136	456
214	937	954
215	582	632
216	495	667
217	921	556
218	17	331
219	963	800
220	71	669
221	52	795
222	945	267
223	985	79
224	246	987
225	818	191
226	420	930
227	993	72
228	711	852
229	333	704
230	334	487
231	94	850
232	871	684
233	410	177
234	602	601
235	177	903
236	15	198
237	186	608
238	350	927
239	15	76
240	555	969
241	525	410
242	281	844
243	751	71
244	133	193
245	670	555
246	281	262
247	885	6
248	602	130
249	664	56
250	321	453
251	630	635
252	611	322
253	480	327
254	892	13
255	878	862
256	260	251
257	893	120
258	220	620
259	653	987
260	679	722
261	11	468
262	614	87
263	999	590
264	711	311
265	88	137
266	622	881
267	762	163
268	555	430
269	340	191
270	874	376
271	889	76
272	421	250
273	457	531
274	518	968
275	854	281
276	579	199
277	925	486
278	606	18
279	21	7
280	74	66
281	933	997
282	123	152
283	927	82
284	178	337
285	991	189
286	17	625
287	526	933
288	270	351
289	152	179
290	472	7
291	455	485
292	731	852
293	745	136
294	183	625
295	336	429
296	122	996
297	922	519
298	222	567
299	56	338
300	340	572
301	162	501
302	872	129
303	531	709
304	639	57
305	436	902
306	756	688
307	879	567
308	750	886
309	388	24
310	645	569
311	888	284
312	940	326
313	422	563
314	226	555
315	904	274
316	755	392
317	179	308
318	821	708
319	244	307
320	797	907
321	542	130
322	283	814
323	782	413
324	777	821
325	926	7
326	915	590
327	140	196
328	997	636
329	216	304
330	436	802
331	231	420
332	106	812
333	78	130
334	672	145
335	330	470
336	577	717
337	662	886
338	756	413
339	842	370
340	676	301
341	672	519
342	667	792
343	751	810
344	646	360
345	929	181
346	726	918
347	955	122
348	527	117
349	214	786
350	851	484
351	141	594
352	99	978
353	8	136
354	286	766
355	62	576
356	935	267
357	929	721
358	909	511
359	345	306
360	478	917
361	683	394
362	242	708
363	587	326
364	416	106
365	171	342
366	872	647
367	130	529
368	30	651
369	673	803
370	983	804
371	231	255
372	549	495
373	291	310
374	320	633
375	193	118
376	456	584
377	66	805
378	705	737
379	468	638
380	417	304
381	778	584
382	698	989
383	318	783
384	584	966
385	617	877
386	803	759
387	28	260
388	74	20
389	964	414
390	504	482
391	129	190
392	934	67
393	865	824
394	318	652
395	518	15
396	135	716
397	68	807
398	932	944
399	631	910
400	236	717
401	99	348
402	805	141
403	518	750
404	633	873
405	882	10
406	230	622
407	32	165
408	619	383
409	406	524
410	272	933
411	972	773
412	854	972
413	116	482
414	552	55
415	366	953
416	816	173
417	902	756
418	735	308
419	968	672
420	354	856
421	229	775
422	3	800
423	632	277
424	983	653
425	84	198
426	252	376
427	509	446
428	828	558
429	439	830
430	829	253
431	239	953
432	457	136
433	608	296
434	159	740
435	418	469
436	654	639
437	999	787
438	836	208
439	436	744
440	344	139
441	442	839
442	25	85
443	531	935
444	975	888
445	38	908
446	324	471
447	722	459
448	859	77
449	872	667
450	284	390
451	786	579
452	4	432
453	109	574
454	812	96
455	413	98
456	240	801
457	493	698
458	966	355
459	454	962
460	295	339
461	651	169
462	717	357
463	211	301
464	380	874
465	201	859
466	163	969
467	374	592
468	986	363
469	501	546
470	671	610
471	76	288
472	799	338
473	743	894
474	691	797
475	287	652
476	806	563
477	238	426
478	544	287
479	986	852
480	532	332
481	677	812
482	494	382
483	894	615
484	552	65
485	168	227
486	574	356
487	660	544
488	843	592
489	338	485
490	998	821
491	500	124
492	449	13
493	75	348
494	903	131
495	820	385
496	16	185
497	522	230
498	36	686
499	523	801
500	779	41
501	951	712
DEMAND_SECTION
1	0
2	8
3	9
4	8
5	2
6	8
7	3
8	6
9	9
10	3
11	4
12	2
13	5
14	1
15	5
16	7
17	2
18	2
19	1
20	1
21	1
22	5
23	9
24	6
25	4
26	1
27	1
28	2
29	4
30	7
31	6
32	6
33	6
34	8
35	4
36	5
37	5
38	5
39	8
40	7
41	2
42	8
43	4
44	9
45	9
46	5
47	1
48	5
49	8
50	9
51	6
52	2
53	8
54	7
55	1
56	4
57	8
58	4
59	8
60	4
61	3
62	6
63	1
64	6
65	4
66	6
67	5
68	6
69	2
70	6
71	9
72	9
73	8
74	3
75	4
76	2
77	5
78	6
79	1
80	5
81	6
82	1
83	1
84	7
85	5
86	4
87	8
88	9
89	5
90	2
91	2
92	1
93	9
94	8
95	8
96	5
97	1
98	5
99	6
100	7
101	9
102	6
103	1
104	6
105	4
106	2
107	9
108	9
109	3
110	3
111	9
112	5
113	9
114	4
115	4
116	3
117	8
118	3
119	7
120	3
121	6
122	6
123	8
124	3
125	8
126	5
127	5
128	4
129	6
130	7
131	1
132	1
133	5
134	3
135	5
136	6
137	5
138	2
139	5
140	7
141	7
142	5
143	6
144	3
145	6
146	7
147	8
148	5
149	9
150	8
151	2
152	6
153	8
154	6
155	6
156	5
157	1
158	5
159	7
160	2
161	4
162	7
163	2
164	9
165	8
166	7
167	2
168	5
169	1
170	8
171	4
172	3
173	9
174	2
175	7
176	3
177	3
178	6
179	8
180	3
181	4
182	9
183	9
184	4
185	5
186	7
187	9
188	8
189	8
190	6
191	4
192	3
193	8
194	5
195	4
196	1
197	6
198	9
199	7
200	9
201	9
202	7
203	8
204	7
205	6
206	7
207	6
208	6
209	5
210	8
211	9
212	9
213	6
214	6
215	2
216	7
217	5
218	8
219	6
220	8
221	1
222	4
223	5
224	9
225	2
226	9
227	6
228	1
229	6
230	8
231	8
232	9
233	4
234	2
235	9
236	1
237	4
238	9
239	7
240	3
241	4
242	1
243	2
244	9
245	7
246	6
247	9
248	5
249	7
250	3
251	3
252	6
253	2
254	2
255	2
256	5
257	4
258	2
259	7
260	1
261	2
262	6
263	8
264	1
265	7
266	7
267	1
268	7
269	1
270	1
271	5
272	7
273	9
274	3
275	5
276	8
277	7
278	4
279	2
280	4
281	4
282	8
283	6
284	9
285	3
286	6
287	1
288	2
289	4
290	3
291	4
292	5
293	3
294	7
295	2
296	4
297	8
298	9
299	6
300	7
301	3
302	2
303	5
304	9
305	3
306	5
307	3
308	2
309	4
310	9
311	1
312	1
313	2
314	7
315	7
316	6
317	8
318	2
319	4
320	3
321	5
322	2
323	9
324	3
325	3
326	2
327	6
328	2
329	2
330	4
331	2
332	8
333	2
334	6
335	2
336	9
337	7
338	5
339	5
340	4
341	5
342	2
343	5
344	1
345	8
346	1
347	1
348	5
349	8
350	3
351	2
352	7
353	9
354	3
355	4
356	9
357	1
358	7
359	4
360	7
361	5
362	2
363	2
364	3
365	3
366	4
367	1
368	7
369	7
370	1
371	7
372	9
373	5
374	7
375	9
376	8
377	2
378	4
379	8
380	9
381	5
382	7
383	8
384	9
385	4
386	2
387	9
388	9
389	8
390	9
391	8
392	8
393	5
394	4
395	4
396	2
397	9
398	3
399	1
400	9
401	7
402	3
403	1
404	5
405	2
406	6
407	1
408	8
409	5
410	2
411	8
412	9
413	2
414	2
415	6
416	5
417	6
418	8
419	9
420	4
421	2
422	4
423	4
424	7
425	9
426	6
427	6
428	5
429	3
430	5
431	4
432	8
433	3
434	5
435	8
436	9
437	2
438	5
439	3
440	8
441	6
442	8
443	4
444	9
445	4
446	7
447	6
448	8
449	9
450	9
451	3
452	6
453	5
454	1
455	2
456	8
457	9
458	6
459	4
460	5
461	6
462	8
463	8
464	6
465	2
466	4
467	5
468	4
469	3
470	2
471	4
472	9
473	9
474	1
475	9
476	7
477	2
478	5
479	1
480	7
481	3
482	5
483	1
484	9
485	1
486	1
487	8
488	8
489	7
490	1
491	8
492	4
493	7
494	6
495	3
496	7
497	9
498	3
499	7
500	3
501	5
TIME_WINDOW_SECTION
1	0	3000
2	0	1611
3	926	2220
4	409	2219
5	700	1443
6	326	1236
7	1995	3000
8	1634	2441
9	112	787
10	524	1243
11	83	1426
12	856	2144
13	1183	1570
14	650	1910
15	1501	2780
16	0	1696
17	1091	2074
18	0	971
19	2163	2586
20	988	2404
21	354	2017
22	0	1332
23	1942	2654
24	356	1563
25	474	1239
26	148	1499
27	138	1360
28	1418	3000
29	1336	1885
30	566	1896
31	1012	1489
32	218	1649
33	721	2672
34	574	1111
35	662	1222
36	431	1763
37	1383	2850
38	2172	2492
39	1565	1942
40	449	1526
41	42	789
42	1080	2448
43	1544	2059
44	1677	2259
45	193	587
46	1027	1496
47	518	1936
48	0	1319
49	1018	1565
50	985	1454
51	0	1417
52	1796	2235
53	496	1237
54	733	2192
55	587	1459
56	582	2087
57	1210	2948
58	214	1676
59	497	846
60	1268	2734
61	260	2209
62	904	1330
63	735	1510
64	358	1722
65	1710	2948
66	1408	1651
67	0	642
68	886	1205
69	973	2152
70	0	1201
71	1472	3000
72	242	1329
73	809	2454
74	1890	2186
75	0	1502
76	140	1621
77	1154	3000
78	370	1561
79	1808	2340
80	0	1725
81	568	1653
82	0	1336
83	0	1253
84	472	1510
85	298	1314
86	221	1057
87	13	1744
88	0	1524
89	0	1314
90	1199	2067
91	0	1534
92	1104	1410
93	552	1489
94	85	1292
95	1487	2521
96	700	1996
97	1125	1344
98	1193	1993
99	1572	2279
100	135	494
101	696	1443
102	1713	2617
103	457	1782
104	2466	3000
105	1399	2543
106	1032	2318
107	1093	2866
108	868	1707
109	142	1813
110	1708	3000
111	1477	2116
112	464	2202
113	623	2266
114	22	1743
115	82	1308
116	1221	2373
117	757	2542
118	1594	2621
119	51	1497
120	1763	2204
121	972	1788
122	0	1023
123	1118	1737
124	0	1472
125	741	969
126	187	924
127	745	1336
128	786	2730
129	1790	2453
130	808	1474
131	1579	2664
132	760	2665
133	1214	2970
134	328	1904
135	541	2288
136	1485	2606
137	0	1145
138	360	1689
139	1535	2916
140	0	1402
141	69	1994
142	59	1780
143	2086	2361
144	1478	1896
145	0	1278
146	1237	2606
147	1237	2393
148	1588	2170
149	916	1733
150	45	1151
151	534	1539
152	883	1777
153	995	2769
154	1183	2041
155	783	1849
156	1266	2469
157	0	945
158	0	1953
159	1109	1313
160	1946	2556
161	618	1082
162	512	2384
163	0	1505
164	1333	1687
165	176	1437
166	865	1669
167	1402	3000
168	2	1469
169	1321	2113
170	1483	1762
171	84	1427
172	1739	3000
173	155	2138
174	1320	2529
175	414	2135
176	219	1035
177	700	1676
178	257	1292
179	1563	3000
180	0	1199
181	1235	2491
182	904	2495
183	612	2126
184	0	1651
185	151	824
186	886	1119
187	0	1705
188	500	1077
189	840	1322
190	0	1595
191	278	2050
192	1050	1897
193	0	1362
194	707	1565
195	1886	2731
196	1062	1890
197	657	1737
198	179	936
199	0	1614
200	2236	2960
201	1426	2379
202	1369	2925
203	1874	2532
204	1039	1719
205	365	847
206	814	1741
207	1196	2167
208	1711	2629
209	801	2303
210	1395	2269
211	1182	1823
212	465	2003
213	1233	2369
214	697	2088
215	1317	2890
216	1009	1297
217	623	1787
218	1734	2836
219	572	1612
220	935	2471
221	24	1428
222	1617	2152
223	1023	1741
224	125	1042
225	569	1608
226	916	2058
227	1333	1641
228	151	1721
229	382	1278
230	1930	2729
231	0	788
232	1074	2382
233	986	1379
234	420	1191
235	1113	2220
236	700	1464
237	1836	2743
238	672	1083
239	863	2454
240	1906	2265
241	742	2109
242	1380	2916
243	884	1854
244	786	1258
245	76	910
246	1268	2513
247	1231	2158
248	1023	1368
249	440	2333
250	490	1457
251	1761	2830
252	1815	2907
253	1888	2766
254	717	1088
255	381	1457
256	235	1942
257	624	2181
258	0	1754
259	229	1904
260	1137	2563
261	1174	1624
262	951	2162
263	1557	1833
264	1806	2206
265	1347	1549
266	0	1177
267	798	2135
268	1881	2637
269	1529	2893
270	81	1469
271	1199	2138
272	1717	2344
273	927	2055
274	1258	3000
275	965	2701
276	1249	1763
277	1088	2571
278	754	2719
279	1644	2306
280	222	1382
281	217	1618
282	769	1710
283	926	1266
284	528	1100
285	1144	2353
286	953	1391
287	1489	2542
288	2049	2560
289	2034	2321
290	58	1292
291	0	1497
292	585	2112
293	1078	2985
294	0	1057
295	1035	2672
296	1184	1685
297	853	1613
298	2069	2897
299	1383	1819
300	0	811
301	0	496
302	719	1606
303	1491	3000
304	1285	2214
305	292	628
306	1340	3000
307	564	1763
308	602	1986
309	179	2043
310	1497	2866
311	1739	2396
312	1129	1453
313	1964	2772
314	66	888
315	51	1858
316	715	1572
317	993	2280
318	1940	2326
319	1053	2943
320	801	2738
321	1075	3000
322	733	971
323	1501	1718
324	438	1997
325	1376	2173
326	125	2067
327	1227	2784
328	416	1204
329	1309	2526
330	1397	1974
331	1322	2003
332	1559	2165
333	314	1476
334	149	1820
335	1357	1935
336	1889	2898
337	1568	2081
338	653	942
339	1223	1959
340	1355	2194
341	1503	2055
342	883	1406
343	1309	2627
344	0	1685
345	573	2173
346	266	1264
347	939	2021
348	1141	2078
349	0	1346
350	1336	1584
351	617	925
352	1111	3000
353	1536	1774
354	826	2057
355	147	1947
356	1221	1530
357	1435	2638
358	1258	1591
359	1986	2371
360	1658	2466
361	1804	2820
362	784	1792
363	1421	2506
364	165	1087
365	2049	2606
366	1314	2117
367	1019	2700
368	286	1473
369	1787	2770
370	0	1640
371	206	517
372	684	2443
373	1691	2254
374	151	2128
375	0	1270
376	1382	3000
377	55	739
378	755	2012
379	1236	1905
380	0	1527
381	1124	2714
382	1875	2369
383	1601	3000
384	940	2395
385	312	844
386	650	904
387	837	2005
388	431	2300
389	557	940
390	1696	2118
391	1543	1999
392	765	1963
393	685	2495
394	0	1032
395	1282	1530
396	128	927
397	1235	2907
398	58	1710
399	1955	2456
400	662	1545
401	776	2346
402	407	1093
403	767	2239
404	875	1450
405	764	2103
406	1906	3000
407	1637	2337
408	2050	2428
409	1295	2807
410	74	1216
411	44	1614
412	827	2602
413	1070	1403
414	909	1406
415	689	1247
416	504	1168
417	700	2515
418	1480	2203
419	949	2944
420	0	1197
421	0	1333
422	1214	2877
423	1037	1458
424	817	1887
425	4	1952
426	1466	1947
427	1520	3000
428	1247	3000
429	705	1824
430	578	1352
431	594	1404
432	1413	2987
433	341	855
434	241	846
435	0	970
436	36	900
437	361	1667
438	672	2148
439	39	951
440	1723	2873
441	735	1847
442	605	2572
443	0	1586
444	741	2246
445	0	1662
446	1422	2846
447	964	1446
448	779	1977
449	1217	2417
450	879	2665
451	412	1208
452	1522	1824
453	544	1583
454	1194	2803
455	330	1540
456	1719	2594
457	0	854
458	1040	3000
459	1470	2494
460	1437	1765
461	1479	2548
462	1521	2997
463	421	1627
464	0	1234
465	1411	2022
466	1451	2172
467	13	312
468	1244	2292
469	101	505
470	1065	2809
471	503	1074
472	530	951
473	171	1084
474	1320	2254
475	1349	3000
476	1480	2400
477	1708	2033
478	1938	2220
479	107	1796
480	1860	2471
481	140	2139
482	1504	1736
483	1717	1918
484	614	983
485	728	2322
486	1033	1937
487	1942	2501
488	1440	2504
489	0	510
490	549	2400
491	1302	2307
492	1060	2858
493	1507	3000
494	1274	1693
495	1717	2451
496	1592	2981
497	1503	3000
498	985	1925
499	1194	2145
500	0	1522
501	738	1524
DEPOT_SECTION
1
-1
EOF
