NAME : n101-0046
COMMENT : "Generated by pyvrp_manuel (VRPB)"
TYPE : VRPB
DIMENSION : 101
EDGE_WEIGHT_TYPE : EUC_2D
CAPACITY : 50
VEHICLES : 100
NODE_COORD_SECTION
1	365	42
2	156	315
3	378	13
4	831	566
5	711	648
6	407	724
7	406	70
8	351	485
9	108	286
10	336	218
11	826	435
12	6	190
13	405	495
14	781	865
15	601	207
16	845	545
17	520	605
18	40	471
19	301	63
20	621	384
21	783	848
22	471	261
23	755	881
24	624	25
25	865	101
26	646	68
27	921	990
28	977	570
29	518	22
30	680	555
31	793	21
32	528	632
33	697	960
34	219	978
35	165	901
36	853	341
37	107	990
38	600	689
39	886	571
40	585	129
41	597	26
42	119	91
43	694	746
44	434	638
45	24	980
46	737	574
47	767	430
48	25	126
49	398	713
50	747	772
51	266	681
52	951	773
53	822	421
54	403	278
55	835	609
56	986	999
57	533	431
58	37	735
59	265	716
60	692	503
61	735	203
62	2	761
63	452	274
64	62	393
65	734	663
66	318	708
67	587	594
68	226	421
69	447	737
70	766	128
71	487	635
72	312	557
73	716	520
74	32	167
75	17	617
76	884	473
77	144	303
78	737	158
79	276	508
80	768	699
81	225	129
82	167	364
83	581	371
84	639	602
85	297	395
86	621	939
87	15	674
88	388	676
89	112	961
90	558	207
91	905	244
92	401	588
93	828	627
94	204	414
95	573	242
96	170	133
97	305	393
98	756	447
99	322	720
100	638	874
101	786	724
DEMAND_SECTION
1	0
2	1
3	6
4	9
5	5
6	1
7	7
8	9
9	8
10	8
11	5
12	7
13	3
14	5
15	3
16	4
17	7
18	3
19	2
20	7
21	6
22	4
23	1
24	3
25	3
26	1
27	2
28	4
29	7
30	6
31	1
32	8
33	1
34	7
35	1
36	2
37	8
38	6
39	6
40	4
41	3
42	3
43	8
44	4
45	7
46	4
47	8
48	4
49	4
50	3
51	3
52	3
53	6
54	4
55	1
56	8
57	7
58	7
59	3
60	9
61	1
62	6
63	6
64	8
65	6
66	1
67	4
68	8
69	3
70	9
71	2
72	9
73	9
74	6
75	5
76	3
77	5
78	4
79	3
80	5
81	4
82	3
83	8
84	4
85	5
86	6
87	2
88	2
89	3
90	3
91	7
92	5
93	7
94	1
95	1
96	3
97	1
98	2
99	8
100	8
101	8
BACKHAUL_SECTION
14	15	17	20	22	27	28	32	33	35	38	66	67	70	72	81	82	91	96	97	-1
DEPOT_SECTION
1
-1
EOF
