NAME : n101-0048
COMMENT : "Generated by pyvrp_manuel (VRPB)"
TYPE : VRPB
DIMENSION : 101
EDGE_WEIGHT_TYPE : EUC_2D
CAPACITY : 50
VEHICLES : 100
NODE_COORD_SECTION
1	70	675
2	860	806
3	613	968
4	671	32
5	114	709
6	948	373
7	28	760
8	212	480
9	38	966
10	592	173
11	436	436
12	945	346
13	275	744
14	413	651
15	273	399
16	472	858
17	833	145
18	521	317
19	137	834
20	694	930
21	887	215
22	579	324
23	683	606
24	903	386
25	441	377
26	995	140
27	70	314
28	163	861
29	253	859
30	416	309
31	349	72
32	137	13
33	658	641
34	905	112
35	116	910
36	363	684
37	27	256
38	823	420
39	295	207
40	981	721
41	895	385
42	667	65
43	401	441
44	161	771
45	604	722
46	240	323
47	641	467
48	518	698
49	450	971
50	940	274
51	50	282
52	956	450
53	718	80
54	921	898
55	526	94
56	675	37
57	203	294
58	609	928
59	387	700
60	500	910
61	281	929
62	437	602
63	583	923
64	341	405
65	590	213
66	6	209
67	531	681
68	131	294
69	498	983
70	530	789
71	733	755
72	615	361
73	657	497
74	360	562
75	497	539
76	752	958
77	971	49
78	124	715
79	415	828
80	928	502
81	11	769
82	734	497
83	387	700
84	655	608
85	688	716
86	811	210
87	529	481
88	945	406
89	798	82
90	986	87
91	514	936
92	480	184
93	161	418
94	76	169
95	697	182
96	506	304
97	53	481
98	634	846
99	879	755
100	40	323
101	306	328
DEMAND_SECTION
1	0
2	6
3	8
4	4
5	9
6	9
7	9
8	4
9	1
10	6
11	7
12	5
13	9
14	9
15	7
16	5
17	6
18	8
19	2
20	4
21	2
22	1
23	2
24	1
25	2
26	4
27	1
28	9
29	6
30	1
31	8
32	4
33	1
34	6
35	1
36	3
37	4
38	8
39	4
40	5
41	8
42	6
43	2
44	3
45	5
46	9
47	1
48	1
49	6
50	5
51	5
52	1
53	9
54	5
55	1
56	6
57	5
58	7
59	6
60	1
61	5
62	1
63	3
64	9
65	3
66	9
67	6
68	8
69	8
70	4
71	5
72	4
73	9
74	2
75	4
76	7
77	1
78	8
79	5
80	1
81	3
82	7
83	1
84	3
85	4
86	2
87	1
88	6
89	7
90	5
91	5
92	8
93	2
94	6
95	3
96	1
97	6
98	7
99	4
100	3
101	9
BACKHAUL_SECTION
14	15	17	20	22	27	28	32	33	35	38	66	67	70	72	81	82	91	96	97	-1
DEPOT_SECTION
1
-1
EOF
