NAME : n101-0016
COMMENT : "Generated by pyvrp_manuel (VRPB)"
TYPE : VRPB
DIMENSION : 101
EDGE_WEIGHT_TYPE : EUC_2D
CAPACITY : 50
VEHICLES : 100
NODE_COORD_SECTION
1	250	709
2	863	681
3	390	510
4	597	380
5	885	778
6	101	740
7	778	116
8	503	620
9	441	567
10	633	65
11	127	694
12	773	137
13	845	415
14	839	336
15	657	879
16	759	25
17	380	77
18	605	506
19	707	320
20	431	941
21	724	436
22	417	303
23	936	455
24	540	116
25	903	314
26	831	49
27	210	607
28	61	990
29	811	965
30	607	31
31	549	182
32	827	99
33	404	129
34	229	618
35	193	891
36	62	360
37	35	963
38	491	785
39	360	325
40	776	663
41	539	66
42	486	256
43	919	733
44	582	22
45	982	556
46	99	434
47	832	549
48	207	267
49	993	398
50	569	49
51	577	844
52	721	942
53	640	900
54	228	457
55	481	114
56	356	165
57	573	211
58	550	194
59	877	801
60	868	767
61	116	166
62	725	134
63	838	713
64	130	654
65	737	813
66	65	376
67	454	314
68	557	122
69	720	758
70	553	266
71	602	477
72	139	979
73	28	865
74	361	948
75	975	627
76	394	841
77	869	127
78	152	939
79	405	18
80	195	367
81	33	317
82	663	168
83	410	620
84	968	269
85	828	411
86	756	938
87	105	964
88	207	55
89	291	370
90	569	325
91	4	619
92	129	390
93	750	573
94	344	126
95	998	143
96	541	827
97	388	288
98	988	73
99	380	119
100	127	957
101	149	873
DEMAND_SECTION
1	0
2	4
3	1
4	7
5	2
6	7
7	2
8	7
9	7
10	7
11	7
12	5
13	9
14	4
15	1
16	1
17	8
18	4
19	2
20	4
21	7
22	7
23	4
24	5
25	7
26	2
27	5
28	2
29	6
30	4
31	3
32	3
33	3
34	9
35	1
36	2
37	6
38	5
39	1
40	7
41	3
42	6
43	8
44	3
45	2
46	2
47	9
48	6
49	7
50	4
51	9
52	4
53	9
54	4
55	5
56	3
57	9
58	5
59	4
60	6
61	2
62	7
63	6
64	3
65	8
66	1
67	1
68	9
69	8
70	5
71	6
72	2
73	1
74	9
75	5
76	5
77	9
78	1
79	8
80	6
81	2
82	4
83	2
84	5
85	2
86	2
87	7
88	7
89	2
90	4
91	8
92	5
93	4
94	7
95	6
96	4
97	6
98	5
99	2
100	7
101	4
BACKHAUL_SECTION
14	15	17	20	22	27	28	32	33	35	38	66	67	70	72	81	82	91	96	97	-1
DEPOT_SECTION
1
-1
EOF
