NAME : n101-0039
COMMENT : "Generated by pyvrp_manuel (VRPB)"
TYPE : VRPB
DIMENSION : 101
EDGE_WEIGHT_TYPE : EUC_2D
CAPACITY : 50
VEHICLES : 100
NODE_COORD_SECTION
1	709	861
2	988	854
3	506	132
4	139	783
5	484	926
6	128	200
7	131	281
8	93	371
9	339	206
10	454	318
11	931	898
12	51	25
13	253	681
14	111	941
15	822	267
16	759	770
17	831	561
18	457	765
19	962	953
20	162	958
21	240	351
22	879	45
23	378	946
24	38	441
25	483	3
26	719	400
27	263	303
28	643	281
29	719	404
30	90	484
31	66	646
32	703	11
33	167	822
34	998	705
35	264	208
36	790	809
37	881	857
38	725	605
39	594	470
40	757	581
41	624	907
42	993	505
43	918	568
44	559	609
45	791	201
46	548	830
47	22	787
48	801	882
49	600	687
50	815	949
51	229	171
52	72	992
53	966	132
54	955	802
55	604	299
56	11	235
57	892	53
58	380	527
59	170	690
60	571	541
61	326	205
62	202	977
63	520	78
64	517	984
65	999	449
66	217	263
67	928	365
68	468	543
69	143	80
70	883	835
71	153	779
72	967	487
73	303	967
74	501	454
75	933	124
76	693	116
77	879	419
78	233	456
79	190	714
80	962	343
81	934	520
82	533	377
83	888	686
84	613	955
85	147	180
86	947	887
87	685	786
88	366	368
89	863	444
90	777	848
91	400	857
92	963	523
93	625	68
94	268	252
95	375	543
96	653	994
97	442	130
98	461	85
99	280	555
100	453	191
101	478	787
DEMAND_SECTION
1	0
2	4
3	2
4	1
5	1
6	9
7	4
8	8
9	1
10	2
11	3
12	8
13	9
14	1
15	8
16	6
17	5
18	6
19	3
20	5
21	7
22	9
23	9
24	8
25	4
26	5
27	6
28	2
29	6
30	6
31	1
32	4
33	4
34	3
35	4
36	2
37	8
38	1
39	4
40	2
41	7
42	2
43	8
44	5
45	9
46	8
47	6
48	8
49	6
50	3
51	3
52	2
53	3
54	5
55	2
56	3
57	6
58	6
59	6
60	2
61	4
62	5
63	9
64	8
65	8
66	1
67	7
68	2
69	4
70	1
71	5
72	1
73	9
74	7
75	6
76	1
77	6
78	4
79	9
80	4
81	1
82	3
83	8
84	5
85	7
86	8
87	4
88	2
89	2
90	6
91	7
92	7
93	6
94	4
95	6
96	5
97	8
98	9
99	6
100	2
101	5
BACKHAUL_SECTION
14	15	17	20	22	27	28	32	33	35	38	66	67	70	72	81	82	91	96	97	-1
DEPOT_SECTION
1
-1
EOF
