NAME : n101-0011
COMMENT : "Generated by pyvrp_manuel (VRPB)"
TYPE : VRPB
DIMENSION : 101
EDGE_WEIGHT_TYPE : EUC_2D
CAPACITY : 50
VEHICLES : 100
NODE_COORD_SECTION
1	406	461
2	868	93
3	591	767
4	829	643
5	600	844
6	175	151
7	486	605
8	199	323
9	339	678
10	87	928
11	15	529
12	2	736
13	600	650
14	525	979
15	745	819
16	573	23
17	165	154
18	422	385
19	593	330
20	666	957
21	585	90
22	683	563
23	322	92
24	556	233
25	133	64
26	691	537
27	929	480
28	569	491
29	221	216
30	328	667
31	803	898
32	337	107
33	196	60
34	996	844
35	819	502
36	897	583
37	532	740
38	378	354
39	131	917
40	632	203
41	67	638
42	383	937
43	714	388
44	860	338
45	358	126
46	637	365
47	443	274
48	887	950
49	641	494
50	648	181
51	337	51
52	506	131
53	440	684
54	907	431
55	455	687
56	142	124
57	971	333
58	159	866
59	712	734
60	672	908
61	892	228
62	986	549
63	770	323
64	676	818
65	674	261
66	733	166
67	784	585
68	34	444
69	263	116
70	687	755
71	147	604
72	806	349
73	342	656
74	716	439
75	239	517
76	336	107
77	154	124
78	209	205
79	229	201
80	966	901
81	960	773
82	495	315
83	458	151
84	538	589
85	65	514
86	193	385
87	685	725
88	625	293
89	729	392
90	709	852
91	485	286
92	714	385
93	164	459
94	839	835
95	10	376
96	195	828
97	757	635
98	908	541
99	231	409
100	297	726
101	92	436
DEMAND_SECTION
1	0
2	8
3	2
4	3
5	8
6	1
7	3
8	8
9	8
10	5
11	3
12	2
13	6
14	8
15	2
16	7
17	9
18	1
19	8
20	9
21	9
22	4
23	8
24	2
25	6
26	5
27	7
28	5
29	4
30	1
31	6
32	6
33	5
34	4
35	7
36	1
37	9
38	8
39	5
40	3
41	7
42	3
43	1
44	9
45	4
46	1
47	8
48	1
49	2
50	8
51	6
52	2
53	9
54	8
55	8
56	4
57	7
58	8
59	4
60	3
61	9
62	5
63	7
64	4
65	8
66	5
67	9
68	2
69	2
70	2
71	7
72	4
73	1
74	6
75	3
76	6
77	5
78	1
79	5
80	6
81	4
82	5
83	6
84	7
85	4
86	1
87	1
88	7
89	5
90	9
91	5
92	9
93	5
94	1
95	5
96	1
97	5
98	6
99	3
100	8
101	8
BACKHAUL_SECTION
14	15	17	20	22	27	28	32	33	35	38	66	67	70	72	81	82	91	96	97	-1
DEPOT_SECTION
1
-1
EOF
