NAME : n401-0023
COMMENT : "Generated by pyvrp_manuel (VRPTW)"
TYPE : VRPTW
DIMENSION : 401
EDGE_WEIGHT_TYPE : EUC_2D
CAPACITY : 100
VEHICLES : 400
SERVICE_TIME : 200
NODE_COORD_SECTION
1	786	796
2	103	911
3	501	190
4	869	596
5	20	906
6	330	586
7	247	516
8	876	235
9	493	252
10	348	495
11	76	122
12	428	355
13	371	194
14	987	244
15	968	982
16	994	374
17	595	467
18	206	955
19	785	764
20	230	491
21	4	742
22	807	771
23	738	357
24	676	363
25	561	288
26	662	836
27	149	168
28	450	980
29	898	881
30	91	788
31	594	736
32	636	603
33	822	918
34	278	82
35	162	80
36	783	518
37	81	797
38	624	217
39	274	725
40	584	142
41	215	452
42	877	874
43	668	428
44	622	768
45	268	382
46	770	149
47	540	478
48	831	143
49	882	161
50	867	404
51	468	68
52	453	40
53	998	397
54	330	290
55	593	694
56	916	943
57	876	296
58	405	831
59	406	889
60	439	959
61	992	456
62	744	889
63	579	910
64	878	169
65	447	106
66	648	700
67	180	955
68	173	66
69	117	956
70	657	9
71	54	843
72	193	740
73	70	123
74	482	155
75	625	957
76	914	565
77	898	410
78	901	540
79	514	213
80	26	834
81	458	931
82	445	554
83	271	599
84	781	142
85	167	817
86	735	242
87	147	18
88	299	946
89	553	115
90	735	771
91	939	372
92	126	112
93	532	943
94	517	809
95	886	638
96	603	899
97	610	766
98	915	237
99	198	193
100	924	878
101	221	708
102	391	551
103	347	905
104	357	518
105	60	282
106	942	580
107	483	215
108	700	79
109	794	159
110	174	303
111	318	286
112	792	469
113	200	416
114	634	449
115	269	60
116	141	399
117	834	724
118	353	556
119	403	311
120	43	13
121	149	672
122	824	322
123	694	514
124	67	467
125	846	890
126	822	570
127	94	811
128	921	143
129	983	193
130	611	117
131	470	664
132	665	454
133	861	593
134	690	102
135	428	716
136	222	810
137	175	572
138	325	316
139	907	153
140	291	178
141	284	478
142	82	437
143	456	764
144	722	784
145	234	218
146	206	586
147	290	246
148	202	665
149	608	849
150	561	52
151	545	910
152	796	753
153	850	357
154	363	259
155	437	728
156	705	656
157	639	772
158	531	787
159	523	455
160	500	126
161	519	774
162	59	393
163	686	599
164	665	735
165	854	519
166	147	407
167	119	952
168	628	61
169	688	374
170	188	184
171	200	412
172	439	476
173	514	704
174	54	323
175	156	952
176	110	83
177	829	735
178	171	794
179	375	198
180	761	252
181	71	566
182	398	901
183	709	599
184	539	245
185	133	471
186	992	809
187	892	93
188	91	63
189	311	671
190	247	601
191	509	867
192	842	435
193	960	845
194	365	233
195	108	144
196	775	51
197	340	113
198	279	873
199	178	288
200	159	953
201	629	464
202	671	213
203	472	77
204	53	779
205	936	449
206	742	405
207	258	796
208	782	320
209	155	774
210	120	906
211	201	20
212	494	970
213	559	584
214	349	2
215	645	632
216	79	299
217	786	395
218	142	390
219	459	60
220	763	953
221	48	676
222	356	773
223	144	78
224	748	239
225	984	876
226	875	293
227	622	806
228	601	328
229	387	62
230	124	849
231	943	263
232	343	579
233	565	808
234	933	41
235	826	250
236	214	725
237	712	608
238	666	487
239	47	345
240	320	943
241	641	771
242	106	486
243	917	631
244	639	154
245	664	483
246	180	212
247	800	782
248	914	199
249	830	936
250	697	885
251	554	372
252	195	375
253	631	788
254	744	315
255	517	479
256	852	17
257	149	878
258	419	639
259	225	665
260	670	263
261	182	839
262	614	780
263	525	197
264	515	462
265	780	518
266	427	151
267	880	587
268	638	730
269	0	770
270	437	719
271	577	112
272	802	179
273	130	816
274	997	328
275	396	448
276	996	104
277	336	494
278	567	192
279	57	937
280	966	529
281	919	465
282	422	739
283	601	801
284	872	101
285	188	133
286	633	28
287	765	88
288	678	984
289	915	598
290	679	794
291	753	535
292	716	548
293	996	418
294	173	359
295	698	164
296	546	828
297	278	354
298	529	507
299	665	644
300	15	516
301	144	292
302	948	238
303	315	291
304	839	849
305	989	115
306	583	399
307	56	371
308	986	285
309	101	356
310	777	120
311	42	497
312	263	316
313	528	728
314	496	392
315	197	789
316	498	212
317	254	758
318	200	791
319	130	619
320	410	566
321	15	457
322	374	119
323	757	653
324	767	361
325	126	371
326	448	917
327	959	330
328	243	942
329	114	561
330	12	493
331	635	961
332	821	726
333	28	442
334	114	238
335	890	864
336	585	803
337	241	238
338	74	263
339	863	901
340	438	192
341	203	303
342	139	550
343	262	219
344	933	388
345	558	121
346	49	154
347	356	366
348	250	968
349	647	849
350	462	116
351	519	902
352	349	970
353	695	80
354	611	320
355	918	292
356	773	173
357	526	344
358	685	88
359	510	157
360	412	873
361	118	791
362	604	814
363	933	983
364	904	789
365	10	114
366	747	6
367	24	604
368	171	627
369	0	483
370	565	118
371	388	139
372	569	661
373	992	773
374	920	50
375	487	226
376	70	461
377	592	546
378	609	482
379	509	421
380	330	909
381	314	833
382	658	54
383	959	593
384	83	41
385	159	901
386	382	259
387	917	155
388	925	938
389	815	619
390	159	113
391	216	46
392	675	206
393	423	756
394	14	675
395	90	571
396	936	324
397	284	970
398	266	889
399	937	415
400	214	816
401	334	860
DEMAND_SECTION
1	0
2	4
3	8
4	4
5	2
6	7
7	6
8	3
9	6
10	2
11	6
12	4
13	3
14	2
15	5
16	3
17	1
18	3
19	5
20	7
21	4
22	9
23	2
24	8
25	1
26	9
27	8
28	9
29	4
30	4
31	8
32	5
33	3
34	1
35	3
36	6
37	3
38	9
39	4
40	7
41	4
42	8
43	5
44	3
45	2
46	2
47	3
48	7
49	2
50	3
51	3
52	4
53	1
54	7
55	6
56	8
57	9
58	7
59	6
60	8
61	5
62	2
63	6
64	2
65	8
66	5
67	1
68	5
69	3
70	3
71	7
72	6
73	8
74	3
75	5
76	1
77	4
78	7
79	7
80	7
81	1
82	7
83	5
84	5
85	3
86	3
87	4
88	1
89	2
90	9
91	9
92	3
93	2
94	1
95	8
96	4
97	3
98	1
99	6
100	5
101	7
102	7
103	8
104	9
105	3
106	7
107	8
108	8
109	6
110	5
111	2
112	9
113	3
114	1
115	8
116	2
117	6
118	7
119	9
120	9
121	7
122	4
123	6
124	2
125	3
126	7
127	5
128	6
129	7
130	2
131	1
132	9
133	5
134	5
135	8
136	9
137	4
138	1
139	4
140	6
141	2
142	4
143	2
144	3
145	6
146	7
147	9
148	2
149	1
150	5
151	8
152	5
153	8
154	2
155	4
156	6
157	2
158	9
159	2
160	1
161	5
162	2
163	7
164	2
165	1
166	8
167	3
168	5
169	9
170	6
171	4
172	1
173	2
174	9
175	9
176	1
177	9
178	2
179	5
180	5
181	8
182	5
183	7
184	3
185	6
186	7
187	3
188	7
189	5
190	5
191	8
192	4
193	1
194	3
195	5
196	3
197	4
198	2
199	3
200	5
201	7
202	1
203	4
204	3
205	5
206	7
207	7
208	8
209	1
210	2
211	5
212	1
213	7
214	7
215	5
216	5
217	2
218	5
219	7
220	9
221	5
222	1
223	9
224	8
225	6
226	8
227	8
228	9
229	9
230	2
231	6
232	6
233	5
234	8
235	8
236	5
237	4
238	8
239	7
240	7
241	8
242	7
243	4
244	7
245	2
246	1
247	9
248	5
249	3
250	9
251	7
252	7
253	1
254	6
255	8
256	5
257	1
258	5
259	8
260	8
261	4
262	1
263	5
264	1
265	1
266	1
267	9
268	4
269	5
270	9
271	6
272	3
273	5
274	8
275	8
276	4
277	7
278	5
279	3
280	6
281	9
282	6
283	7
284	3
285	6
286	7
287	4
288	7
289	8
290	6
291	3
292	5
293	8
294	8
295	6
296	5
297	3
298	6
299	2
300	4
301	4
302	9
303	3
304	3
305	4
306	8
307	4
308	8
309	7
310	3
311	8
312	4
313	3
314	5
315	9
316	7
317	8
318	2
319	8
320	1
321	5
322	5
323	8
324	4
325	2
326	8
327	5
328	3
329	2
330	9
331	4
332	3
333	2
334	5
335	1
336	2
337	4
338	6
339	8
340	1
341	5
342	9
343	5
344	2
345	7
346	2
347	4
348	3
349	9
350	5
351	7
352	2
353	6
354	3
355	4
356	5
357	7
358	4
359	6
360	8
361	7
362	2
363	3
364	2
365	1
366	1
367	2
368	4
369	1
370	6
371	1
372	8
373	5
374	7
375	6
376	3
377	9
378	3
379	1
380	3
381	1
382	3
383	1
384	9
385	3
386	7
387	8
388	1
389	8
390	9
391	2
392	3
393	8
394	4
395	2
396	2
397	1
398	4
399	8
400	6
401	1
TIME_WINDOW_SECTION
1	0	3000
2	1175	2441
3	821	1917
4	499	916
5	650	1722
6	895	2750
7	721	2004
8	1108	2304
9	166	1315
10	333	1617
11	146	1961
12	825	2067
13	1681	1987
14	83	1412
15	728	1757
16	1033	1318
17	55	1887
18	665	1988
19	1182	3000
20	208	1496
21	925	2555
22	0	1380
23	614	2151
24	1050	1379
25	772	1091
26	145	904
27	712	1639
28	112	1553
29	485	2062
30	1473	2088
31	1629	3000
32	142	699
33	688	2037
34	583	2578
35	1244	2170
36	804	2695
37	674	1297
38	602	2516
39	853	2605
40	1882	2138
41	0	1705
42	424	2341
43	1072	1486
44	11	1304
45	240	1208
46	437	915
47	2087	2386
48	348	2022
49	1438	2635
50	70	973
51	8	1619
52	589	1819
53	454	1541
54	454	2189
55	386	1485
56	0	1362
57	1690	2796
58	612	2487
59	887	1734
60	280	685
61	0	1344
62	0	770
63	1640	2293
64	225	1431
65	0	1969
66	319	573
67	1557	1953
68	1142	1841
69	1161	3000
70	0	1662
71	1211	2474
72	930	2794
73	1370	2150
74	1565	2599
75	824	2538
76	593	1369
77	66	1686
78	173	1440
79	1047	1289
80	1221	1923
81	172	2077
82	1353	1891
83	1314	2006
84	1618	2120
85	438	1221
86	509	970
87	811	2227
88	481	1004
89	1230	2556
90	398	2122
91	1284	2235
92	1170	2477
93	463	1038
94	309	1261
95	566	2481
96	0	1744
97	663	956
98	435	1255
99	581	2457
100	491	2128
101	1448	1856
102	27	1812
103	1377	3000
104	479	1176
105	1513	2306
106	1756	2177
107	1610	1940
108	339	1798
109	501	1628
110	447	1601
111	214	1654
112	1585	1861
113	1085	2644
114	1113	3000
115	717	1906
116	140	1583
117	0	663
118	619	2383
119	1095	1381
120	620	2186
121	1099	2168
122	376	1076
123	855	2532
124	1192	1641
125	2005	2981
126	220	2037
127	106	1622
128	784	2646
129	1617	2116
130	924	2724
131	2173	2563
132	0	1804
133	947	1327
134	534	2021
135	0	1377
136	1188	1831
137	883	1713
138	50	1425
139	1421	2445
140	567	1502
141	0	1389
142	613	1217
143	112	1722
144	515	1648
145	1192	1978
146	1252	1814
147	531	1348
148	444	1896
149	1255	1477
150	103	1537
151	2212	2689
152	1782	2935
153	133	1924
154	1064	2471
155	1108	1565
156	1413	3000
157	1725	2190
158	546	1079
159	0	1615
160	291	1508
161	892	2686
162	558	2271
163	0	1287
164	955	2041
165	2211	2583
166	401	1261
167	977	2913
168	315	1985
169	963	1645
170	530	1961
171	840	2061
172	1908	2403
173	109	685
174	958	2686
175	68	1283
176	1402	2167
177	543	1432
178	331	1990
179	675	1691
180	1775	2640
181	1020	2723
182	200	612
183	1360	2218
184	1100	2243
185	453	1926
186	1804	3000
187	796	1257
188	905	1513
189	204	2096
190	1336	1912
191	131	1648
192	2023	2376
193	417	1796
194	968	2082
195	1117	1941
196	127	2046
197	1155	2550
198	899	2044
199	1673	2193
200	1022	1855
201	1600	2522
202	1223	2304
203	1259	2332
204	855	2219
205	566	1575
206	341	2300
207	1280	2466
208	1757	1989
209	782	1953
210	289	1314
211	1016	1335
212	637	1005
213	1444	2043
214	1315	1639
215	115	1186
216	429	1420
217	420	1382
218	602	1576
219	663	2479
220	0	791
221	230	1294
222	1092	2897
223	1296	2210
224	0	1676
225	1909	2370
226	706	1469
227	0	1512
228	480	1154
229	493	1183
230	1761	2167
231	934	2350
232	1555	2319
233	446	1512
234	0	1661
235	1194	2493
236	1403	2678
237	801	1636
238	136	1109
239	1076	2259
240	589	1243
241	253	1457
242	628	1635
243	1526	1976
244	1066	2665
245	0	833
246	504	2303
247	1993	2238
248	595	1346
249	779	2069
250	2225	2671
251	1573	2896
252	356	1836
253	1407	2863
254	600	2389
255	772	2237
256	667	1729
257	387	2193
258	836	1747
259	709	2371
260	1796	2046
261	929	2683
262	1021	2932
263	1448	2601
264	1243	2738
265	1966	3000
266	1507	2252
267	0	1845
268	2283	2657
269	1217	1894
270	1266	2869
271	1321	1746
272	1395	2336
273	541	2289
274	20	1870
275	0	1403
276	558	1737
277	1096	2314
278	211	1352
279	1346	2413
280	585	857
281	0	1086
282	313	697
283	479	1007
284	862	2070
285	0	1870
286	1530	1976
287	202	1621
288	984	2402
289	0	1281
290	993	1329
291	604	2233
292	919	1264
293	0	1213
294	581	1448
295	949	1186
296	2219	2833
297	1512	2337
298	860	2488
299	716	1483
300	983	1420
301	660	1651
302	227	2121
303	298	1260
304	799	1629
305	1044	2323
306	0	1864
307	528	1261
308	1188	1742
309	1121	1764
310	634	2114
311	1182	2766
312	1840	2100
313	922	1375
314	1495	2415
315	670	1010
316	456	2414
317	296	1892
318	1005	1210
319	0	1668
320	1192	1702
321	912	2352
322	302	1491
323	1060	1643
324	437	1610
325	857	2654
326	651	2268
327	83	1776
328	213	1168
329	429	1119
330	1052	1307
331	1736	2085
332	945	1615
333	1275	2167
334	804	2796
335	520	1154
336	357	2023
337	994	2384
338	873	1134
339	806	2567
340	1252	1890
341	754	2315
342	724	1496
343	1516	1944
344	1356	1660
345	348	2125
346	1286	1694
347	1331	1647
348	220	1805
349	1139	2363
350	764	2619
351	2048	2890
352	677	2636
353	1435	1762
354	53	1153
355	1159	2783
356	693	1673
357	870	1124
358	86	1391
359	731	966
360	1679	2808
361	690	2238
362	0	950
363	1908	2866
364	603	825
365	995	1671
366	890	1867
367	1652	1937
368	777	2030
369	778	2139
370	703	2069
371	831	2564
372	1680	2574
373	653	2049
374	920	1792
375	1303	1693
376	1084	2921
377	1080	1863
378	1413	2313
379	1087	1668
380	1730	2169
381	941	2503
382	526	1581
383	99	666
384	928	1649
385	1712	2197
386	1671	2109
387	1450	1863
388	1642	2142
389	1293	2481
390	471	1603
391	452	2024
392	1557	2656
393	992	1211
394	1818	2130
395	1282	2047
396	787	1608
397	1494	2372
398	266	1823
399	801	1432
400	1148	2279
401	0	1537
DEPOT_SECTION
1
-1
EOF
