NAME : n401-0006
COMMENT : "Generated by pyvrp_manuel (VRPTW)"
TYPE : VRPTW
DIMENSION : 401
EDGE_WEIGHT_TYPE : EUC_2D
CAPACITY : 100
VEHICLES : 400
SERVICE_TIME : 200
NODE_COORD_SECTION
1	763	832
2	232	990
3	399	934
4	926	611
5	610	417
6	332	720
7	934	738
8	64	452
9	440	227
10	266	551
11	607	738
12	42	567
13	637	265
14	566	635
15	442	634
16	971	101
17	534	389
18	140	252
19	126	744
20	290	912
21	453	147
22	276	270
23	316	795
24	802	73
25	877	771
26	287	68
27	890	182
28	587	480
29	474	264
30	992	769
31	86	292
32	842	529
33	393	424
34	445	941
35	984	591
36	620	30
37	718	929
38	415	195
39	687	429
40	856	678
41	478	442
42	893	753
43	566	665
44	601	294
45	448	325
46	282	409
47	317	100
48	71	688
49	504	817
50	955	178
51	571	755
52	908	263
53	143	894
54	649	316
55	117	401
56	565	607
57	43	607
58	748	400
59	264	608
60	465	660
61	291	122
62	891	574
63	172	528
64	557	712
65	754	775
66	319	610
67	393	671
68	364	63
69	43	529
70	730	232
71	311	383
72	497	813
73	125	63
74	937	61
75	781	804
76	125	965
77	209	580
78	581	272
79	635	936
80	641	124
81	863	398
82	221	243
83	405	899
84	332	446
85	260	191
86	498	668
87	749	260
88	796	916
89	442	998
90	146	896
91	203	368
92	805	397
93	384	153
94	743	576
95	792	160
96	108	331
97	525	454
98	7	771
99	964	384
100	775	790
101	47	551
102	37	100
103	908	70
104	396	553
105	634	862
106	362	840
107	207	765
108	689	954
109	585	613
110	911	863
111	326	228
112	594	959
113	268	99
114	28	445
115	212	264
116	671	537
117	681	595
118	222	328
119	102	234
120	145	35
121	451	879
122	509	835
123	761	194
124	995	278
125	267	576
126	891	259
127	583	272
128	206	972
129	675	777
130	584	933
131	45	146
132	451	50
133	538	637
134	894	829
135	41	87
136	80	200
137	676	494
138	176	987
139	560	418
140	839	291
141	452	705
142	657	192
143	589	322
144	276	439
145	975	173
146	635	464
147	779	309
148	530	506
149	825	992
150	41	754
151	267	5
152	249	971
153	213	734
154	183	466
155	671	842
156	119	921
157	774	972
158	807	386
159	261	984
160	426	457
161	259	529
162	285	57
163	573	2
164	489	598
165	931	11
166	549	110
167	795	297
168	792	535
169	939	763
170	445	758
171	486	788
172	268	441
173	744	23
174	436	770
175	772	219
176	56	811
177	483	455
178	958	927
179	232	754
180	15	842
181	46	560
182	791	767
183	23	457
184	9	274
185	975	281
186	322	472
187	457	424
188	734	182
189	351	717
190	268	514
191	678	370
192	601	972
193	867	279
194	542	702
195	61	309
196	145	468
197	460	418
198	928	968
199	606	197
200	153	387
201	882	622
202	847	648
203	12	535
204	831	953
205	698	872
206	743	446
207	989	92
208	293	835
209	816	713
210	141	687
211	800	551
212	277	256
213	880	89
214	914	874
215	296	795
216	130	82
217	154	286
218	797	604
219	490	224
220	498	375
221	898	367
222	524	514
223	905	986
224	118	336
225	757	620
226	45	139
227	576	710
228	370	231
229	950	578
230	267	439
231	212	146
232	229	179
233	402	153
234	841	434
235	640	862
236	345	412
237	634	452
238	758	879
239	556	234
240	641	891
241	91	224
242	79	202
243	504	462
244	878	609
245	632	299
246	180	665
247	982	709
248	458	695
249	700	871
250	752	261
251	816	478
252	474	543
253	984	600
254	236	470
255	432	679
256	778	423
257	45	842
258	487	979
259	761	749
260	49	293
261	204	740
262	985	310
263	398	978
264	367	218
265	511	496
266	167	957
267	683	679
268	660	543
269	607	567
270	729	920
271	639	833
272	391	311
273	78	111
274	882	370
275	667	109
276	467	223
277	309	10
278	113	585
279	438	973
280	13	625
281	682	329
282	553	273
283	806	365
284	917	876
285	5	104
286	515	244
287	322	37
288	639	940
289	550	647
290	628	920
291	975	668
292	455	858
293	406	919
294	848	925
295	782	528
296	101	780
297	213	170
298	677	203
299	641	634
300	407	344
301	806	911
302	199	946
303	114	950
304	559	692
305	978	716
306	408	602
307	173	125
308	774	283
309	409	766
310	485	64
311	936	540
312	386	419
313	452	621
314	361	671
315	857	992
316	757	797
317	366	583
318	729	688
319	870	524
320	62	135
321	505	154
322	402	156
323	895	909
324	693	358
325	976	116
326	781	558
327	861	419
328	486	889
329	838	397
330	547	549
331	513	671
332	799	483
333	72	332
334	471	420
335	815	503
336	91	485
337	951	601
338	972	718
339	928	461
340	221	954
341	135	482
342	713	567
343	444	965
344	103	214
345	155	152
346	962	375
347	689	967
348	580	308
349	447	276
350	67	540
351	668	572
352	631	70
353	441	559
354	624	498
355	741	810
356	209	335
357	965	681
358	150	254
359	544	269
360	891	663
361	922	249
362	953	113
363	934	586
364	153	712
365	645	986
366	123	72
367	300	328
368	39	881
369	328	660
370	231	696
371	204	602
372	489	874
373	737	372
374	897	605
375	642	796
376	136	150
377	961	456
378	291	310
379	270	192
380	357	555
381	997	672
382	287	757
383	861	673
384	433	412
385	884	485
386	213	829
387	463	196
388	804	812
389	854	504
390	66	145
391	624	831
392	125	459
393	478	601
394	487	154
395	621	601
396	174	341
397	495	824
398	936	781
399	991	567
400	341	494
401	264	341
DEMAND_SECTION
1	0
2	8
3	3
4	5
5	3
6	4
7	9
8	5
9	8
10	8
11	2
12	9
13	8
14	4
15	6
16	2
17	3
18	7
19	6
20	7
21	8
22	5
23	1
24	4
25	6
26	8
27	4
28	8
29	2
30	5
31	8
32	1
33	2
34	1
35	9
36	1
37	6
38	2
39	4
40	8
41	7
42	3
43	8
44	4
45	8
46	1
47	3
48	4
49	5
50	1
51	8
52	2
53	4
54	1
55	7
56	5
57	3
58	5
59	6
60	7
61	6
62	9
63	6
64	2
65	4
66	6
67	4
68	7
69	3
70	1
71	8
72	2
73	8
74	5
75	4
76	4
77	6
78	1
79	4
80	1
81	2
82	3
83	6
84	3
85	1
86	5
87	9
88	7
89	1
90	1
91	1
92	9
93	7
94	8
95	3
96	8
97	6
98	5
99	5
100	1
101	3
102	7
103	3
104	5
105	7
106	1
107	7
108	5
109	7
110	9
111	7
112	3
113	5
114	3
115	8
116	6
117	2
118	1
119	5
120	7
121	2
122	7
123	8
124	5
125	6
126	2
127	7
128	8
129	6
130	3
131	4
132	5
133	7
134	4
135	8
136	5
137	7
138	7
139	3
140	6
141	8
142	4
143	4
144	5
145	6
146	3
147	1
148	1
149	5
150	1
151	7
152	9
153	8
154	4
155	2
156	2
157	7
158	4
159	8
160	5
161	3
162	4
163	7
164	1
165	3
166	8
167	6
168	6
169	3
170	4
171	5
172	1
173	8
174	2
175	2
176	8
177	6
178	8
179	3
180	6
181	2
182	8
183	3
184	4
185	9
186	9
187	8
188	1
189	6
190	5
191	3
192	1
193	1
194	3
195	1
196	9
197	2
198	2
199	9
200	3
201	9
202	3
203	6
204	2
205	5
206	3
207	7
208	3
209	4
210	7
211	3
212	9
213	3
214	6
215	3
216	1
217	1
218	5
219	4
220	8
221	6
222	3
223	1
224	1
225	3
226	3
227	6
228	4
229	4
230	5
231	3
232	8
233	7
234	9
235	7
236	9
237	6
238	2
239	6
240	2
241	2
242	4
243	8
244	6
245	6
246	6
247	4
248	7
249	1
250	3
251	1
252	5
253	1
254	2
255	7
256	8
257	8
258	7
259	2
260	6
261	7
262	4
263	9
264	4
265	4
266	4
267	3
268	3
269	6
270	7
271	2
272	3
273	8
274	5
275	1
276	4
277	8
278	2
279	9
280	4
281	8
282	4
283	8
284	9
285	3
286	2
287	1
288	7
289	6
290	5
291	6
292	2
293	6
294	9
295	1
296	5
297	6
298	8
299	2
300	2
301	8
302	6
303	1
304	9
305	7
306	4
307	1
308	5
309	4
310	9
311	1
312	8
313	4
314	8
315	5
316	4
317	1
318	7
319	8
320	5
321	7
322	2
323	8
324	3
325	1
326	3
327	9
328	9
329	4
330	4
331	7
332	4
333	8
334	1
335	3
336	2
337	8
338	6
339	6
340	7
341	9
342	8
343	3
344	2
345	4
346	8
347	4
348	3
349	2
350	8
351	5
352	2
353	2
354	9
355	1
356	5
357	2
358	4
359	2
360	4
361	8
362	4
363	4
364	8
365	9
366	2
367	2
368	8
369	5
370	7
371	3
372	4
373	6
374	4
375	9
376	5
377	4
378	2
379	7
380	9
381	5
382	1
383	4
384	1
385	9
386	6
387	8
388	3
389	1
390	1
391	8
392	2
393	5
394	3
395	7
396	8
397	7
398	4
399	1
400	9
401	7
TIME_WINDOW_SECTION
1	0	3000
2	0	1594
3	1098	1425
4	70	516
5	444	1720
6	172	1333
7	0	1116
8	1001	1256
9	1847	2377
10	624	1361
11	261	1408
12	939	1843
13	989	1557
14	0	1119
15	828	1459
16	1536	1779
17	715	2501
18	886	1980
19	538	2334
20	595	1712
21	1050	1340
22	662	1128
23	929	2289
24	650	2129
25	124	1666
26	801	2277
27	714	2373
28	0	1392
29	1741	2480
30	631	1900
31	1344	2107
32	226	2132
33	653	1583
34	467	2121
35	258	1401
36	765	1476
37	1713	2505
38	823	2611
39	174	1512
40	51	1980
41	1967	2250
42	0	1059
43	141	552
44	371	2067
45	758	1352
46	1274	1558
47	1035	1277
48	1391	1872
49	1860	2288
50	1029	2361
51	1805	2028
52	697	2019
53	283	1950
54	0	1947
55	1008	2989
56	1284	2660
57	459	1658
58	1160	1855
59	1451	1968
60	930	1517
61	954	1359
62	0	1371
63	1526	1820
64	1780	3000
65	442	805
66	1367	1841
67	418	1332
68	483	1304
69	1227	2049
70	0	1516
71	392	1971
72	785	1699
73	800	1930
74	1088	2059
75	313	1803
76	808	2529
77	879	1295
78	0	1778
79	587	1417
80	1635	2226
81	1583	2905
82	877	1439
83	1452	2940
84	525	939
85	145	2061
86	258	1293
87	1163	2924
88	1201	2885
89	21	913
90	1424	2643
91	287	1439
92	107	1328
93	891	2259
94	875	1228
95	739	1391
96	1374	1825
97	1363	2775
98	193	1334
99	642	2440
100	202	1564
101	842	1265
102	243	1843
103	0	1698
104	2097	2325
105	1507	2264
106	1292	1707
107	1535	2116
108	0	529
109	1532	2863
110	1393	2519
111	1462	1694
112	1834	2499
113	778	1204
114	1274	2341
115	1757	2132
116	877	2199
117	1742	2718
118	1306	2735
119	887	2723
120	772	2565
121	0	1353
122	1041	1563
123	1313	2395
124	705	1159
125	593	1063
126	305	2158
127	1082	2716
128	377	1159
129	0	944
130	526	759
131	823	1533
132	876	2558
133	95	520
134	707	1850
135	870	2385
136	899	1688
137	541	928
138	468	1496
139	1136	2774
140	1258	1545
141	1022	1861
142	1474	2060
143	494	1993
144	728	2692
145	801	1502
146	814	2011
147	712	1429
148	1095	2372
149	1969	2802
150	213	2207
151	741	1603
152	540	2501
153	679	2330
154	1665	2405
155	128	361
156	983	2004
157	1113	2635
158	844	1203
159	1521	1878
160	918	2297
161	886	1966
162	592	1501
163	957	1243
164	291	604
165	803	1465
166	610	945
167	1868	2288
168	1838	2084
169	41	388
170	254	603
171	1328	2405
172	542	2039
173	366	2273
174	1138	1608
175	1139	1827
176	1249	2189
177	840	1114
178	0	1035
179	1169	2682
180	971	2265
181	341	1784
182	662	1687
183	821	1241
184	678	2440
185	1054	2288
186	306	1824
187	1398	2747
188	1084	1630
189	0	1025
190	1279	2726
191	1849	2091
192	419	1798
193	981	1813
194	0	1168
195	1689	2090
196	491	1740
197	532	822
198	95	1344
199	1030	2231
200	675	2269
201	1182	1416
202	1213	2871
203	1211	1712
204	1962	2835
205	344	2171
206	1552	1873
207	865	2851
208	1034	1763
209	1042	2406
210	1183	1465
211	1186	2680
212	392	1969
213	1512	1874
214	1492	1977
215	334	1361
216	1472	1844
217	815	1054
218	2400	2614
219	367	1193
220	1449	2164
221	1223	1907
222	670	2393
223	1338	2852
224	776	1911
225	854	1525
226	884	1655
227	1301	1656
228	761	1012
229	1008	1887
230	1349	2494
231	878	2656
232	1299	1825
233	1064	1587
234	1153	1449
235	1171	2456
236	50	1214
237	915	2800
238	263	2164
239	594	1880
240	1153	2303
241	896	1547
242	169	1926
243	929	2486
244	0	799
245	361	1526
246	244	1568
247	838	1968
248	869	1300
249	382	1425
250	265	1240
251	1014	1667
252	1379	2913
253	1073	1317
254	756	2197
255	1382	2136
256	0	1238
257	826	1256
258	1301	1579
259	819	1835
260	864	1327
261	0	1544
262	240	1500
263	233	1687
264	754	1755
265	985	1915
266	1176	2783
267	895	2098
268	123	2101
269	1549	3000
270	288	1202
271	1594	3000
272	1877	2150
273	624	1660
274	479	1566
275	1523	2548
276	1499	2482
277	275	1881
278	482	1769
279	1719	3000
280	632	1488
281	1350	1598
282	661	1786
283	131	1143
284	178	582
285	1577	1815
286	1816	2272
287	1091	1375
288	258	540
289	79	885
290	1690	2744
291	2269	2765
292	950	2157
293	1847	2506
294	1176	1485
295	675	1695
296	1385	1913
297	1742	2032
298	142	1640
299	0	1792
300	1170	2024
301	1224	1615
302	610	2221
303	1062	2452
304	631	1918
305	2152	2723
306	1591	2780
307	399	2398
308	1256	2653
309	1129	2935
310	244	2029
311	1304	3000
312	732	1600
313	771	1368
314	1397	2990
315	0	1034
316	0	1685
317	1884	2363
318	1899	2540
319	1605	2086
320	878	2554
321	1283	2648
322	1447	2469
323	0	817
324	0	1674
325	1262	1783
326	0	1391
327	613	1339
328	224	1923
329	1383	2812
330	1190	2018
331	974	2715
332	1626	2594
333	585	1651
334	1094	2817
335	443	1719
336	607	1773
337	1179	1902
338	213	1777
339	123	2008
340	908	2640
341	1079	2307
342	0	1424
343	204	1816
344	529	1702
345	998	1579
346	0	1464
347	1639	3000
348	982	2679
349	596	2148
350	1364	2085
351	427	1430
352	877	2185
353	1819	2892
354	0	1107
355	0	1217
356	1081	1650
357	314	1808
358	692	1255
359	49	1509
360	0	1429
361	318	1804
362	1050	2383
363	1523	2586
364	638	2191
365	0	1030
366	944	1338
367	550	2488
368	1147	2784
369	847	1493
370	157	2154
371	1391	2211
372	440	2000
373	848	1239
374	35	1620
375	1112	2896
376	983	1213
377	858	1663
378	460	1833
379	786	1686
380	1683	2791
381	1366	2572
382	1108	2055
383	1456	2747
384	186	1568
385	132	1436
386	1640	2172
387	461	1372
388	1028	1893
389	0	1148
390	829	2300
391	243	813
392	974	1783
393	1877	2930
394	127	1408
395	0	1818
396	1173	1521
397	1889	2299
398	0	1482
399	0	1192
400	1193	2738
401	1110	1947
DEPOT_SECTION
1
-1
EOF
