NAME : n401-0034
COMMENT : "Generated by pyvrp_manuel (VRPTW)"
TYPE : VRPTW
DIMENSION : 401
EDGE_WEIGHT_TYPE : EUC_2D
CAPACITY : 100
VEHICLES : 400
SERVICE_TIME : 200
NODE_COORD_SECTION
1	616	358
2	307	10
3	745	896
4	223	991
5	406	714
6	348	718
7	489	779
8	340	449
9	199	490
10	579	710
11	751	366
12	182	575
13	352	398
14	688	10
15	389	97
16	370	822
17	964	41
18	99	24
19	542	599
20	966	885
21	321	514
22	561	313
23	510	840
24	221	863
25	607	128
26	605	450
27	423	268
28	340	804
29	722	462
30	638	293
31	830	963
32	549	821
33	48	147
34	778	374
35	100	244
36	595	508
37	401	652
38	9	227
39	630	469
40	389	37
41	691	146
42	377	103
43	640	829
44	494	671
45	546	935
46	411	444
47	794	278
48	450	47
49	163	203
50	509	510
51	922	137
52	181	905
53	941	821
54	766	632
55	209	521
56	42	18
57	893	867
58	502	671
59	392	539
60	279	805
61	540	551
62	566	835
63	937	94
64	954	815
65	146	376
66	50	55
67	403	203
68	158	255
69	856	638
70	16	434
71	786	134
72	596	787
73	208	289
74	708	631
75	929	499
76	14	125
77	92	128
78	897	349
79	42	455
80	297	913
81	113	212
82	725	947
83	665	124
84	234	8
85	460	333
86	235	571
87	822	421
88	530	173
89	825	601
90	270	692
91	206	447
92	742	966
93	340	780
94	566	379
95	288	818
96	8	36
97	658	487
98	274	459
99	894	353
100	841	616
101	794	178
102	101	150
103	410	114
104	254	7
105	106	62
106	828	753
107	329	53
108	781	122
109	115	427
110	840	788
111	29	749
112	929	869
113	931	823
114	909	175
115	241	428
116	684	183
117	521	225
118	522	603
119	73	233
120	320	276
121	906	442
122	526	146
123	322	550
124	835	103
125	489	584
126	689	826
127	787	750
128	336	43
129	117	678
130	329	707
131	815	892
132	131	327
133	182	566
134	797	932
135	572	232
136	861	1
137	820	415
138	617	782
139	277	396
140	959	807
141	324	680
142	932	608
143	193	86
144	25	551
145	993	696
146	603	999
147	862	932
148	481	651
149	613	855
150	988	184
151	6	530
152	846	263
153	631	822
154	639	648
155	334	223
156	45	970
157	252	882
158	258	179
159	854	826
160	12	866
161	591	520
162	725	16
163	855	613
164	278	840
165	909	612
166	667	64
167	370	610
168	713	689
169	194	420
170	261	172
171	960	387
172	861	683
173	531	750
174	827	999
175	610	186
176	218	963
177	786	728
178	367	355
179	965	860
180	99	303
181	721	729
182	442	494
183	112	348
184	352	637
185	585	600
186	981	705
187	299	983
188	696	551
189	606	884
190	273	63
191	561	596
192	288	61
193	545	276
194	841	536
195	531	945
196	305	255
197	445	225
198	178	949
199	470	416
200	334	608
201	795	474
202	717	260
203	324	449
204	970	476
205	913	160
206	73	534
207	311	515
208	980	698
209	933	420
210	519	307
211	297	524
212	181	429
213	812	886
214	883	471
215	667	608
216	172	696
217	581	806
218	820	277
219	426	198
220	87	169
221	1000	669
222	761	372
223	967	883
224	114	239
225	151	367
226	330	996
227	135	847
228	674	405
229	497	97
230	416	374
231	218	736
232	780	247
233	283	367
234	759	728
235	826	420
236	93	226
237	236	803
238	915	858
239	252	433
240	488	1
241	632	5
242	949	634
243	156	202
244	538	489
245	995	799
246	983	898
247	30	119
248	312	487
249	127	661
250	384	424
251	941	36
252	405	626
253	682	368
254	331	46
255	722	264
256	374	962
257	295	775
258	760	166
259	84	63
260	250	692
261	134	642
262	312	922
263	53	563
264	281	42
265	655	607
266	608	646
267	191	36
268	815	455
269	297	720
270	384	996
271	285	560
272	20	230
273	388	372
274	939	575
275	782	367
276	691	129
277	497	514
278	539	503
279	718	512
280	257	355
281	594	412
282	459	267
283	633	444
284	12	455
285	28	501
286	83	659
287	713	407
288	332	662
289	894	726
290	839	964
291	384	315
292	41	693
293	901	407
294	565	601
295	48	476
296	217	825
297	684	192
298	318	666
299	942	403
300	385	425
301	534	548
302	386	592
303	500	564
304	123	697
305	865	623
306	241	752
307	965	312
308	654	338
309	433	778
310	519	379
311	826	157
312	307	850
313	983	266
314	989	945
315	693	250
316	597	216
317	905	680
318	515	943
319	563	177
320	850	10
321	118	889
322	257	419
323	66	235
324	834	739
325	292	546
326	999	790
327	854	185
328	670	247
329	395	405
330	253	721
331	998	225
332	264	322
333	899	392
334	227	448
335	282	124
336	369	773
337	861	250
338	340	254
339	530	491
340	957	729
341	546	881
342	441	89
343	522	576
344	319	443
345	543	244
346	157	567
347	344	365
348	296	254
349	288	964
350	299	65
351	866	760
352	793	53
353	922	159
354	324	96
355	692	846
356	553	874
357	261	957
358	118	278
359	963	968
360	520	760
361	785	507
362	115	11
363	516	515
364	633	963
365	731	340
366	621	255
367	430	736
368	467	447
369	406	575
370	634	853
371	98	424
372	878	460
373	289	10
374	928	927
375	543	239
376	66	931
377	174	159
378	464	472
379	765	406
380	804	426
381	120	398
382	250	931
383	360	803
384	796	509
385	992	54
386	549	517
387	181	390
388	400	826
389	806	487
390	949	661
391	318	238
392	717	513
393	729	847
394	697	242
395	877	679
396	206	670
397	657	560
398	134	843
399	676	32
400	62	616
401	363	510
DEMAND_SECTION
1	0
2	1
3	5
4	9
5	8
6	6
7	4
8	2
9	9
10	5
11	6
12	4
13	2
14	7
15	1
16	3
17	9
18	5
19	2
20	9
21	7
22	8
23	9
24	8
25	6
26	3
27	1
28	7
29	4
30	7
31	9
32	9
33	4
34	4
35	7
36	3
37	8
38	2
39	3
40	5
41	7
42	1
43	1
44	3
45	9
46	5
47	3
48	5
49	7
50	1
51	1
52	7
53	8
54	2
55	6
56	4
57	5
58	2
59	3
60	2
61	3
62	6
63	2
64	5
65	4
66	5
67	9
68	7
69	7
70	4
71	1
72	7
73	6
74	9
75	1
76	7
77	9
78	1
79	1
80	8
81	3
82	5
83	9
84	4
85	3
86	8
87	7
88	5
89	7
90	7
91	5
92	8
93	4
94	8
95	3
96	4
97	4
98	7
99	4
100	3
101	1
102	5
103	8
104	4
105	3
106	1
107	9
108	8
109	6
110	4
111	8
112	8
113	1
114	6
115	1
116	2
117	6
118	4
119	7
120	9
121	3
122	8
123	3
124	4
125	4
126	8
127	3
128	4
129	8
130	2
131	2
132	3
133	3
134	6
135	8
136	3
137	6
138	7
139	7
140	4
141	2
142	1
143	3
144	1
145	9
146	6
147	5
148	9
149	8
150	8
151	1
152	7
153	6
154	5
155	4
156	5
157	6
158	3
159	3
160	5
161	8
162	3
163	1
164	4
165	5
166	6
167	6
168	3
169	3
170	9
171	4
172	6
173	6
174	6
175	7
176	1
177	5
178	2
179	1
180	8
181	9
182	1
183	9
184	2
185	7
186	6
187	1
188	3
189	1
190	5
191	1
192	2
193	6
194	4
195	2
196	3
197	5
198	4
199	6
200	3
201	6
202	1
203	5
204	6
205	9
206	7
207	5
208	5
209	3
210	1
211	6
212	2
213	9
214	6
215	5
216	6
217	7
218	6
219	1
220	9
221	7
222	1
223	8
224	7
225	2
226	8
227	8
228	2
229	7
230	8
231	6
232	5
233	8
234	5
235	9
236	3
237	6
238	4
239	5
240	2
241	8
242	3
243	6
244	3
245	2
246	3
247	4
248	9
249	3
250	7
251	1
252	4
253	4
254	5
255	4
256	3
257	5
258	2
259	3
260	8
261	9
262	8
263	1
264	5
265	7
266	4
267	6
268	9
269	9
270	1
271	5
272	3
273	8
274	1
275	2
276	7
277	6
278	4
279	3
280	2
281	6
282	5
283	8
284	7
285	1
286	5
287	6
288	3
289	1
290	3
291	5
292	4
293	9
294	3
295	5
296	3
297	3
298	4
299	4
300	2
301	6
302	4
303	6
304	7
305	1
306	9
307	4
308	8
309	7
310	1
311	3
312	1
313	7
314	2
315	1
316	6
317	4
318	1
319	6
320	9
321	6
322	5
323	6
324	5
325	2
326	2
327	3
328	5
329	5
330	8
331	7
332	8
333	4
334	5
335	4
336	9
337	8
338	2
339	5
340	2
341	9
342	6
343	5
344	7
345	5
346	3
347	5
348	6
349	9
350	1
351	4
352	7
353	1
354	1
355	9
356	7
357	5
358	4
359	5
360	1
361	2
362	9
363	9
364	5
365	3
366	5
367	9
368	9
369	4
370	7
371	4
372	3
373	6
374	6
375	8
376	9
377	5
378	5
379	3
380	1
381	1
382	6
383	4
384	5
385	4
386	2
387	9
388	9
389	4
390	5
391	2
392	7
393	3
394	7
395	6
396	3
397	5
398	1
399	6
400	9
401	3
TIME_WINDOW_SECTION
1	0	3000
2	1398	2085
3	1328	1855
4	771	2713
5	990	2603
6	235	1568
7	1660	2367
8	846	2347
9	722	2152
10	1362	1813
11	355	672
12	0	1156
13	1699	2320
14	2161	2713
15	1167	2829
16	778	2118
17	1361	1683
18	1478	1901
19	1694	2654
20	708	1316
21	547	2263
22	608	1906
23	1135	2673
24	674	955
25	217	1386
26	1289	2324
27	0	1550
28	1373	2279
29	796	1264
30	1173	2354
31	853	2406
32	1766	2132
33	1049	2497
34	135	2133
35	987	1980
36	1797	3000
37	1264	1943
38	689	2474
39	245	1972
40	821	1743
41	1923	2838
42	1666	2546
43	285	1055
44	1519	2604
45	0	1924
46	1587	2399
47	73	1629
48	1825	2612
49	1048	1934
50	10	652
51	2042	2420
52	334	1414
53	1625	2021
54	1126	2110
55	98	1879
56	466	1848
57	363	1273
58	1521	2280
59	0	1282
60	568	2217
61	0	1345
62	1149	2282
63	763	2362
64	815	2484
65	625	1750
66	1326	1864
67	936	1257
68	865	2507
69	1308	2900
70	1284	2773
71	1624	3000
72	1621	2944
73	1401	2768
74	2234	2782
75	0	1583
76	767	1652
77	1408	2041
78	990	2028
79	1330	2783
80	524	2136
81	1348	3000
82	334	1361
83	1280	3000
84	704	1624
85	1863	2309
86	753	1422
87	639	1046
88	510	1572
89	1592	2779
90	1539	2167
91	1502	1971
92	1148	2489
93	433	1207
94	2114	3000
95	1449	2608
96	598	2013
97	40	788
98	151	1907
99	116	1031
100	607	1204
101	332	918
102	346	1463
103	1017	1650
104	896	1396
105	1394	2109
106	1432	2774
107	282	1608
108	1129	1562
109	261	989
110	243	756
111	527	1360
112	0	1499
113	1261	1605
114	0	1400
115	0	1413
116	340	2318
117	234	1020
118	879	2736
119	1173	3000
120	418	2321
121	1598	2016
122	1826	2269
123	2079	2489
124	548	1932
125	824	1190
126	609	1096
127	669	1164
128	633	1398
129	692	2415
130	653	982
131	625	1746
132	753	1957
133	0	1660
134	1218	1512
135	982	1286
136	0	1574
137	1816	3000
138	0	1327
139	0	1652
140	1158	1801
141	1230	1765
142	187	824
143	1247	2804
144	367	950
145	144	1500
146	87	1443
147	611	1659
148	0	1301
149	0	1281
150	1535	1746
151	1285	2783
152	1930	2976
153	1146	1620
154	0	1318
155	1837	2497
156	1282	1506
157	1223	1918
158	319	1044
159	0	1585
160	420	1358
161	64	1051
162	0	1502
163	1344	1553
164	760	2515
165	0	1441
166	914	2381
167	1960	2211
168	780	1994
169	890	1955
170	198	2190
171	921	1566
172	0	1397
173	15	828
174	757	2285
175	1042	1438
176	166	1698
177	587	1056
178	24	1879
179	109	1152
180	624	1832
181	306	1805
182	1154	2813
183	1184	1858
184	540	1349
185	1322	2123
186	1360	2578
187	827	1985
188	0	1697
189	989	1476
190	1191	2217
191	0	1187
192	0	1349
193	1011	1271
194	1031	1384
195	1384	1758
196	0	1560
197	231	2057
198	667	1441
199	1353	2472
200	774	1723
201	1288	2383
202	690	1264
203	88	1636
204	1142	2408
205	261	1132
206	1476	2046
207	98	2057
208	1130	2301
209	513	734
210	1859	2474
211	979	2963
212	1273	1929
213	0	1286
214	1289	2893
215	1480	2836
216	728	1304
217	906	1877
218	2024	2667
219	0	970
220	1618	1965
221	878	1379
222	1865	3000
223	1116	1513
224	792	1112
225	0	1598
226	650	2183
227	204	1225
228	1054	2123
229	1511	1928
230	1201	2948
231	1235	2284
232	946	2349
233	1348	1978
234	1326	1576
235	311	1728
236	407	1797
237	648	1575
238	826	2380
239	1830	2973
240	1330	3000
241	1044	1749
242	437	915
243	867	1078
244	566	794
245	1281	3000
246	964	1423
247	780	2113
248	51	993
249	0	1363
250	1286	1548
251	1221	2446
252	1019	1369
253	630	1042
254	1569	1815
255	1078	3000
256	655	2436
257	863	2697
258	234	1985
259	0	1643
260	1370	2602
261	556	1088
262	525	1714
263	462	2266
264	757	1945
265	1283	2723
266	891	1197
267	558	1162
268	0	958
269	410	2383
270	641	2236
271	63	1242
272	22	1225
273	0	1007
274	499	1067
275	0	1421
276	463	2324
277	645	2015
278	1768	1981
279	470	2027
280	1664	3000
281	1367	2370
282	1652	3000
283	1490	2340
284	1602	2072
285	886	2212
286	1305	2024
287	869	2591
288	2000	2765
289	783	1718
290	430	2013
291	539	868
292	1325	2939
293	6	1496
294	1273	3000
295	1757	2125
296	647	2287
297	2219	2648
298	1057	1336
299	1129	1895
300	464	1600
301	466	2202
302	1302	1989
303	767	2340
304	1309	1893
305	422	1163
306	62	1649
307	442	1292
308	1544	3000
309	1554	2294
310	0	1001
311	1714	3000
312	205	1803
313	54	2025
314	535	2232
315	467	1357
316	0	1778
317	1499	2756
318	88	1106
319	0	884
320	1736	2384
321	752	2262
322	0	1071
323	271	1183
324	679	2454
325	1152	1883
326	840	1383
327	11	1180
328	1508	3000
329	1170	2037
330	552	1034
331	1110	1912
332	1384	3000
333	0	1046
334	684	2568
335	314	1993
336	0	1534
337	0	1082
338	1342	3000
339	0	1047
340	1038	1497
341	739	1616
342	1130	1792
343	584	1868
344	1684	2035
345	1332	2495
346	1335	1557
347	1548	2763
348	1419	2332
349	1505	1733
350	794	1054
351	887	2825
352	126	2054
353	0	1518
354	0	1703
355	458	963
356	1795	2036
357	638	2158
358	891	1206
359	1194	2306
360	1234	3000
361	760	1406
362	1314	2564
363	495	1302
364	1	1379
365	0	845
366	1965	2645
367	435	2175
368	1372	1919
369	558	1045
370	1187	2008
371	349	896
372	253	1889
373	414	1866
374	516	1419
375	1272	1581
376	864	2125
377	2050	2286
378	1708	3000
379	1295	2564
380	1344	1632
381	1239	1646
382	0	1821
383	1337	1853
384	0	1569
385	144	1417
386	714	1086
387	1800	2259
388	2012	2398
389	1621	1946
390	2125	2404
391	968	2104
392	1850	3000
393	702	1607
394	299	1481
395	705	1683
396	1710	1959
397	314	1302
398	608	1633
399	2272	2590
400	913	1717
401	900	2259
DEPOT_SECTION
1
-1
EOF
