NAME : n401-0025
COMMENT : "Generated by pyvrp_manuel (VRPTW)"
TYPE : VRPTW
DIMENSION : 401
EDGE_WEIGHT_TYPE : EUC_2D
CAPACITY : 100
VEHICLES : 400
SERVICE_TIME : 200
NODE_COORD_SECTION
1	235	596
2	919	853
3	402	393
4	976	362
5	580	817
6	350	640
7	376	972
8	509	360
9	591	320
10	552	166
11	180	150
12	23	390
13	775	7
14	645	928
15	721	649
16	276	317
17	80	721
18	448	912
19	95	679
20	190	480
21	488	320
22	445	219
23	148	256
24	633	842
25	108	664
26	174	517
27	695	557
28	100	237
29	937	959
30	540	677
31	418	92
32	960	160
33	946	389
34	590	732
35	207	362
36	162	47
37	819	387
38	76	255
39	996	743
40	92	378
41	937	536
42	391	248
43	307	741
44	115	3
45	592	355
46	533	708
47	538	477
48	493	494
49	363	610
50	327	460
51	383	572
52	234	983
53	517	618
54	580	523
55	168	595
56	862	537
57	454	101
58	256	901
59	859	33
60	922	37
61	941	869
62	480	645
63	393	560
64	383	903
65	904	550
66	665	264
67	996	773
68	821	332
69	951	786
70	386	612
71	736	691
72	111	479
73	124	373
74	314	352
75	244	531
76	182	840
77	676	177
78	732	22
79	859	261
80	443	518
81	796	70
82	57	885
83	275	709
84	856	580
85	734	260
86	31	301
87	19	131
88	167	886
89	763	614
90	221	847
91	4	499
92	407	535
93	597	960
94	859	831
95	917	332
96	559	669
97	634	136
98	662	378
99	580	888
100	849	278
101	284	160
102	789	718
103	590	509
104	267	207
105	387	742
106	651	199
107	211	284
108	925	741
109	946	595
110	896	614
111	578	310
112	751	98
113	976	372
114	148	242
115	839	166
116	125	871
117	795	718
118	13	339
119	194	448
120	217	461
121	476	219
122	549	730
123	437	754
124	364	525
125	725	889
126	163	856
127	21	492
128	571	826
129	281	86
130	603	128
131	659	783
132	604	175
133	505	418
134	557	133
135	950	635
136	347	817
137	494	586
138	892	492
139	822	348
140	482	632
141	142	45
142	716	804
143	598	152
144	821	371
145	108	925
146	46	100
147	734	661
148	836	923
149	955	8
150	871	264
151	502	911
152	288	711
153	417	209
154	820	899
155	918	754
156	698	442
157	832	177
158	592	603
159	175	924
160	380	579
161	18	719
162	83	556
163	994	669
164	427	89
165	255	519
166	138	554
167	772	443
168	369	89
169	88	528
170	361	292
171	78	768
172	342	671
173	21	326
174	738	538
175	777	741
176	174	80
177	105	719
178	943	451
179	519	541
180	941	334
181	152	467
182	523	861
183	938	643
184	373	181
185	627	890
186	356	563
187	371	814
188	803	249
189	722	495
190	216	811
191	475	426
192	512	679
193	295	877
194	803	423
195	728	271
196	438	676
197	743	857
198	782	833
199	307	860
200	117	750
201	252	276
202	356	485
203	165	907
204	921	721
205	265	61
206	775	901
207	798	533
208	736	530
209	47	715
210	732	444
211	304	992
212	945	979
213	486	814
214	117	576
215	335	780
216	260	132
217	905	776
218	494	78
219	621	764
220	239	503
221	813	265
222	881	216
223	848	684
224	571	985
225	457	536
226	834	242
227	849	891
228	787	601
229	564	976
230	500	369
231	470	242
232	922	251
233	227	993
234	698	32
235	871	989
236	478	31
237	946	589
238	334	272
239	141	444
240	719	145
241	481	672
242	928	297
243	265	509
244	399	729
245	299	266
246	506	324
247	523	947
248	408	883
249	28	286
250	844	635
251	3	137
252	647	463
253	850	450
254	228	871
255	837	343
256	291	286
257	27	536
258	263	475
259	902	494
260	567	874
261	845	325
262	28	228
263	615	572
264	443	445
265	924	137
266	27	787
267	789	446
268	559	997
269	108	980
270	747	672
271	331	559
272	111	545
273	782	909
274	410	168
275	190	843
276	143	35
277	171	353
278	772	250
279	616	754
280	787	299
281	902	147
282	322	136
283	398	436
284	338	100
285	169	252
286	911	806
287	247	953
288	961	560
289	270	892
290	400	95
291	288	610
292	600	44
293	287	322
294	282	869
295	952	898
296	538	528
297	901	51
298	93	582
299	893	5
300	676	358
301	64	365
302	741	310
303	198	359
304	822	79
305	138	589
306	413	610
307	165	291
308	9	498
309	372	792
310	773	567
311	290	373
312	353	291
313	573	808
314	229	519
315	701	597
316	503	887
317	72	488
318	154	920
319	720	552
320	53	414
321	964	651
322	17	206
323	207	896
324	575	321
325	308	93
326	866	402
327	428	621
328	400	608
329	379	388
330	307	388
331	297	360
332	965	120
333	848	529
334	521	684
335	540	765
336	607	359
337	722	70
338	163	837
339	518	919
340	83	552
341	193	945
342	406	171
343	673	850
344	767	234
345	942	504
346	51	185
347	196	963
348	94	198
349	396	339
350	824	497
351	932	606
352	474	599
353	140	806
354	283	922
355	254	716
356	995	181
357	610	946
358	58	617
359	658	807
360	648	246
361	60	209
362	940	412
363	328	117
364	288	504
365	28	645
366	640	336
367	774	250
368	913	447
369	584	24
370	752	768
371	817	489
372	433	248
373	596	744
374	107	298
375	745	702
376	146	427
377	845	864
378	16	118
379	434	922
380	515	489
381	366	965
382	635	437
383	540	263
384	459	495
385	254	73
386	684	828
387	206	96
388	729	23
389	170	891
390	889	778
391	558	681
392	783	404
393	130	736
394	303	910
395	77	119
396	114	792
397	54	21
398	610	818
399	919	445
400	904	909
401	442	459
DEMAND_SECTION
1	0
2	8
3	5
4	7
5	7
6	3
7	8
8	4
9	5
10	9
11	7
12	3
13	9
14	5
15	4
16	5
17	9
18	1
19	9
20	1
21	4
22	7
23	4
24	9
25	8
26	9
27	4
28	3
29	6
30	9
31	8
32	3
33	6
34	5
35	1
36	4
37	6
38	5
39	5
40	2
41	5
42	2
43	3
44	3
45	7
46	2
47	7
48	8
49	9
50	4
51	3
52	4
53	3
54	8
55	1
56	1
57	6
58	9
59	7
60	8
61	8
62	9
63	9
64	7
65	8
66	2
67	8
68	9
69	9
70	8
71	2
72	7
73	3
74	7
75	2
76	5
77	7
78	6
79	3
80	3
81	8
82	7
83	3
84	5
85	1
86	9
87	1
88	9
89	4
90	9
91	9
92	1
93	5
94	5
95	7
96	8
97	1
98	7
99	8
100	7
101	2
102	7
103	6
104	2
105	6
106	3
107	5
108	7
109	4
110	8
111	3
112	9
113	4
114	5
115	5
116	1
117	6
118	9
119	7
120	9
121	4
122	3
123	6
124	3
125	1
126	8
127	1
128	9
129	1
130	3
131	8
132	5
133	9
134	7
135	4
136	3
137	9
138	7
139	9
140	9
141	1
142	2
143	6
144	4
145	1
146	6
147	6
148	1
149	3
150	2
151	8
152	7
153	5
154	1
155	3
156	5
157	1
158	5
159	7
160	3
161	1
162	7
163	1
164	9
165	4
166	2
167	6
168	4
169	3
170	1
171	3
172	7
173	5
174	5
175	9
176	1
177	7
178	6
179	6
180	8
181	9
182	5
183	6
184	7
185	4
186	8
187	6
188	5
189	7
190	2
191	2
192	7
193	9
194	3
195	5
196	2
197	2
198	4
199	5
200	8
201	3
202	5
203	5
204	4
205	2
206	4
207	6
208	1
209	2
210	6
211	5
212	5
213	2
214	6
215	2
216	8
217	3
218	5
219	7
220	7
221	7
222	6
223	7
224	9
225	1
226	6
227	4
228	2
229	8
230	5
231	2
232	5
233	3
234	5
235	3
236	9
237	9
238	5
239	7
240	4
241	8
242	2
243	1
244	9
245	6
246	2
247	3
248	2
249	6
250	4
251	1
252	3
253	4
254	2
255	5
256	3
257	4
258	5
259	2
260	5
261	7
262	8
263	1
264	3
265	7
266	6
267	1
268	9
269	5
270	2
271	2
272	7
273	1
274	5
275	7
276	1
277	4
278	1
279	6
280	6
281	8
282	3
283	5
284	4
285	4
286	8
287	7
288	2
289	9
290	8
291	2
292	9
293	9
294	3
295	8
296	3
297	9
298	4
299	7
300	1
301	6
302	7
303	3
304	1
305	8
306	4
307	7
308	4
309	8
310	7
311	8
312	3
313	3
314	3
315	5
316	9
317	2
318	4
319	2
320	3
321	1
322	2
323	6
324	2
325	4
326	6
327	1
328	6
329	2
330	5
331	4
332	3
333	7
334	3
335	4
336	9
337	3
338	4
339	9
340	5
341	3
342	9
343	6
344	2
345	5
346	2
347	3
348	7
349	9
350	1
351	8
352	3
353	5
354	6
355	7
356	9
357	9
358	1
359	8
360	6
361	6
362	8
363	7
364	2
365	5
366	2
367	8
368	4
369	3
370	2
371	2
372	1
373	7
374	4
375	9
376	1
377	4
378	1
379	7
380	2
381	9
382	8
383	6
384	1
385	2
386	7
387	3
388	3
389	7
390	3
391	3
392	4
393	2
394	4
395	8
396	9
397	5
398	7
399	3
400	9
401	8
TIME_WINDOW_SECTION
1	0	3000
2	1157	1996
3	1147	1476
4	1099	1653
5	34	1815
6	1724	2332
7	748	1522
8	1380	3000
9	919	1418
10	802	2195
11	1263	2689
12	1894	2838
13	1339	1827
14	1427	2091
15	952	2874
16	1988	2486
17	289	1813
18	1040	2238
19	1585	2935
20	1976	2590
21	1719	2576
22	1240	1681
23	1198	2803
24	0	1144
25	2378	2728
26	2112	2700
27	1249	2091
28	1034	2941
29	700	1054
30	1245	3000
31	1217	2172
32	210	1579
33	571	1112
34	1903	2534
35	2135	2578
36	1268	2626
37	613	1858
38	10	1907
39	1618	1906
40	273	1436
41	309	1280
42	892	2255
43	722	2477
44	1211	1703
45	1452	2470
46	1908	2172
47	0	1910
48	153	945
49	730	2725
50	754	2236
51	88	762
52	1207	1952
53	789	1501
54	1774	2722
55	246	874
56	1129	3000
57	0	1595
58	0	1574
59	869	1843
60	316	1987
61	555	1994
62	1704	2250
63	498	1636
64	0	1132
65	381	2097
66	679	1569
67	1049	1676
68	1101	2698
69	1308	1603
70	905	1586
71	356	1365
72	226	770
73	246	1460
74	280	2271
75	763	2190
76	1496	2982
77	274	2226
78	1544	1938
79	796	1900
80	475	2349
81	1049	2584
82	406	1115
83	33	302
84	0	1646
85	581	2092
86	715	1305
87	0	1659
88	1515	1884
89	1316	2905
90	665	2089
91	11	515
92	1648	3000
93	689	2630
94	1082	1461
95	1148	2318
96	5	1953
97	439	1799
98	0	1370
99	1926	2474
100	756	2641
101	845	1734
102	445	1326
103	833	2630
104	1255	3000
105	1043	1494
106	1004	2534
107	484	1889
108	790	1105
109	1432	2164
110	583	1484
111	2000	2541
112	1684	2421
113	788	1219
114	1652	2516
115	1470	2056
116	0	1876
117	699	1950
118	1013	1798
119	229	1157
120	1376	2860
121	1559	2683
122	1163	1910
123	0	1103
124	1588	2846
125	765	2496
126	1171	2555
127	657	1034
128	890	1814
129	912	1854
130	220	1796
131	905	1616
132	298	1139
133	0	1248
134	715	1037
135	1077	3000
136	1568	3000
137	1108	1448
138	1002	1954
139	0	1781
140	308	1656
141	0	1536
142	0	1427
143	0	1409
144	929	2926
145	761	2697
146	1634	2321
147	1967	2259
148	1097	2759
149	100	2077
150	1168	1885
151	219	1611
152	1358	1859
153	1419	2674
154	1180	2931
155	1170	1705
156	267	1426
157	631	1103
158	1393	2733
159	579	842
160	918	1928
161	1908	2471
162	1406	3000
163	1428	1942
164	1111	2554
165	1816	2637
166	1399	3000
167	1633	2497
168	147	1222
169	669	1976
170	524	1037
171	0	785
172	313	1329
173	1637	2887
174	736	1195
175	1257	1514
176	493	1910
177	126	779
178	1400	2275
179	757	1026
180	217	1721
181	0	548
182	217	1942
183	1519	2144
184	1696	2895
185	58	964
186	1271	2953
187	0	1345
188	443	1833
189	648	1803
190	957	2888
191	0	1359
192	1624	1852
193	1319	2786
194	195	1686
195	651	2301
196	862	2541
197	317	884
198	1853	2260
199	2378	2584
200	1592	1846
201	520	2445
202	773	2265
203	751	1987
204	107	1600
205	1700	2243
206	1460	2733
207	496	2409
208	1216	2104
209	151	1202
210	460	1349
211	1769	2871
212	317	2011
213	200	745
214	684	1603
215	0	845
216	0	1297
217	1795	2076
218	381	1729
219	243	1794
220	1282	2624
221	1583	2605
222	682	1671
223	1055	2946
224	1104	1972
225	1443	2771
226	952	2523
227	672	2371
228	0	1381
229	974	1794
230	1924	2193
231	1309	3000
232	828	2720
233	480	1333
234	1040	2544
235	1579	1799
236	1394	2570
237	929	2105
238	384	2158
239	1150	2337
240	511	2049
241	623	2446
242	365	1279
243	1019	2901
244	1979	2685
245	1002	1473
246	769	1562
247	1502	2963
248	1290	1807
249	673	1153
250	1115	2836
251	1782	2228
252	1272	2139
253	933	2774
254	1424	2949
255	1235	2534
256	2021	2281
257	1183	2721
258	1415	2119
259	1142	2207
260	2084	2309
261	1015	2872
262	1468	2292
263	0	947
264	1159	1441
265	48	1667
266	1081	2300
267	1409	2691
268	1425	2036
269	1413	2093
270	1467	2981
271	0	802
272	250	1208
273	132	1982
274	812	1291
275	247	1805
276	1673	2200
277	1557	1882
278	1212	1938
279	1121	2537
280	353	1721
281	187	1698
282	831	2492
283	0	1301
284	308	2092
285	985	2594
286	848	1992
287	1803	2334
288	152	1844
289	1604	2030
290	1147	2379
291	1775	2078
292	1105	3000
293	0	1596
294	1259	2947
295	852	1409
296	710	2473
297	1180	2625
298	458	2212
299	828	1774
300	1666	2315
301	107	1683
302	2068	2323
303	1570	2026
304	161	1883
305	635	1844
306	15	1010
307	1882	2773
308	731	2713
309	455	2211
310	1164	2891
311	627	2585
312	1147	2607
313	1403	1844
314	723	1519
315	512	1797
316	941	2257
317	2347	2680
318	660	1458
319	434	1232
320	1368	2161
321	162	1434
322	1234	2080
323	613	1150
324	1189	2916
325	1871	2098
326	644	2400
327	1896	3000
328	176	1292
329	1217	1999
330	366	1418
331	505	1566
332	174	1998
333	283	2256
334	1786	2563
335	938	2677
336	0	1431
337	664	1454
338	0	1394
339	0	1311
340	1296	3000
341	0	1088
342	1376	2829
343	1600	1895
344	688	2184
345	1223	2416
346	1963	2622
347	1575	1799
348	415	1593
349	1002	2248
350	1273	2346
351	401	2252
352	1113	1350
353	230	816
354	1633	2981
355	1879	3000
356	1295	2424
357	1998	2343
358	1170	2779
359	808	2328
360	400	1507
361	1775	2337
362	1592	2541
363	539	759
364	2423	2709
365	2197	2972
366	931	2677
367	712	1172
368	1435	2727
369	1016	1361
370	967	1207
371	828	1183
372	1508	3000
373	960	1834
374	0	1154
375	0	1517
376	2307	2648
377	1088	2770
378	1598	2707
379	434	854
380	2159	2445
381	548	1806
382	1710	2807
383	388	1160
384	0	1052
385	900	1336
386	585	2329
387	777	1331
388	980	1212
389	573	1416
390	904	1995
391	0	1928
392	11	1692
393	718	2038
394	0	1154
395	1609	1990
396	1118	2734
397	525	1272
398	2089	2385
399	711	2012
400	1005	2552
401	1729	2503
DEPOT_SECTION
1
-1
EOF
