NAME : n401-0020
COMMENT : "Generated by pyvrp_manuel (VRPTW)"
TYPE : VRPTW
DIMENSION : 401
EDGE_WEIGHT_TYPE : EUC_2D
CAPACITY : 100
VEHICLES : 400
SERVICE_TIME : 200
NODE_COORD_SECTION
1	560	183
2	154	517
3	410	598
4	372	302
5	301	303
6	166	895
7	763	582
8	286	838
9	641	231
10	745	659
11	7	840
12	310	494
13	132	941
14	4	43
15	803	621
16	594	818
17	516	517
18	642	200
19	56	467
20	345	388
21	417	424
22	132	874
23	31	92
24	159	863
25	647	114
26	655	522
27	924	606
28	720	179
29	758	357
30	576	29
31	695	790
32	215	309
33	172	974
34	494	451
35	388	119
36	956	200
37	600	748
38	699	169
39	502	896
40	771	787
41	649	997
42	531	933
43	996	0
44	806	393
45	804	329
46	205	192
47	505	538
48	944	598
49	183	923
50	626	921
51	823	726
52	822	160
53	965	790
54	321	648
55	361	920
56	545	61
57	987	551
58	649	903
59	499	828
60	433	348
61	15	810
62	277	664
63	762	643
64	864	958
65	867	643
66	163	95
67	301	845
68	33	592
69	724	233
70	721	649
71	903	460
72	491	253
73	295	136
74	756	992
75	168	258
76	881	498
77	132	16
78	496	184
79	162	673
80	852	865
81	874	993
82	522	490
83	398	529
84	573	201
85	801	866
86	864	741
87	169	174
88	351	854
89	645	583
90	418	161
91	746	830
92	247	68
93	525	566
94	697	796
95	444	113
96	440	183
97	784	814
98	686	290
99	503	411
100	574	340
101	259	894
102	980	81
103	635	157
104	387	941
105	197	719
106	230	688
107	859	34
108	779	913
109	945	760
110	500	771
111	444	422
112	778	314
113	707	905
114	587	470
115	780	884
116	884	981
117	66	942
118	986	905
119	768	259
120	924	674
121	851	999
122	738	817
123	305	496
124	570	987
125	752	629
126	625	532
127	795	654
128	907	256
129	429	855
130	649	396
131	327	871
132	890	497
133	473	930
134	806	702
135	684	847
136	612	461
137	597	479
138	1000	934
139	484	8
140	907	281
141	418	780
142	836	802
143	175	323
144	663	460
145	799	165
146	250	938
147	539	509
148	799	569
149	85	710
150	169	971
151	959	174
152	392	512
153	722	780
154	8	780
155	867	131
156	162	269
157	657	434
158	106	136
159	70	241
160	966	12
161	336	941
162	284	488
163	168	494
164	228	851
165	816	131
166	907	804
167	359	298
168	19	583
169	820	133
170	342	918
171	940	600
172	496	698
173	469	729
174	432	845
175	483	947
176	105	858
177	359	535
178	3	106
179	350	636
180	682	179
181	22	746
182	151	735
183	734	223
184	509	177
185	156	310
186	145	185
187	957	455
188	223	414
189	556	55
190	665	470
191	215	755
192	530	834
193	695	247
194	877	719
195	893	797
196	716	10
197	393	330
198	791	872
199	804	529
200	667	812
201	492	919
202	74	519
203	252	871
204	440	336
205	613	542
206	980	507
207	324	814
208	564	635
209	732	563
210	185	665
211	286	906
212	316	609
213	324	156
214	718	724
215	740	377
216	333	1
217	447	570
218	757	299
219	559	489
220	493	865
221	529	87
222	430	699
223	426	846
224	791	770
225	140	499
226	744	626
227	883	198
228	120	906
229	171	333
230	1000	295
231	979	34
232	874	729
233	331	273
234	357	624
235	931	571
236	471	555
237	447	836
238	848	473
239	422	979
240	266	21
241	928	832
242	365	414
243	200	533
244	789	678
245	609	874
246	836	414
247	684	577
248	895	844
249	725	301
250	680	711
251	609	281
252	727	728
253	203	746
254	592	443
255	578	923
256	835	106
257	15	358
258	542	968
259	145	653
260	184	685
261	676	288
262	592	328
263	600	811
264	307	260
265	784	236
266	151	488
267	232	539
268	452	680
269	239	1
270	420	747
271	310	841
272	925	394
273	843	360
274	644	352
275	66	176
276	683	965
277	948	194
278	940	7
279	487	601
280	638	354
281	963	825
282	997	118
283	705	102
284	116	779
285	863	140
286	26	585
287	3	7
288	121	793
289	902	855
290	146	959
291	471	529
292	920	853
293	189	776
294	343	751
295	793	947
296	141	951
297	180	497
298	104	341
299	933	873
300	704	786
301	38	72
302	331	409
303	25	667
304	214	329
305	256	391
306	378	754
307	249	81
308	298	180
309	348	448
310	387	499
311	89	927
312	611	578
313	560	643
314	601	931
315	631	283
316	644	478
317	279	706
318	320	443
319	195	308
320	516	434
321	9	772
322	494	666
323	265	94
324	851	227
325	736	952
326	466	71
327	441	374
328	651	590
329	683	291
330	20	406
331	167	549
332	271	442
333	184	275
334	725	276
335	737	971
336	990	459
337	547	365
338	780	72
339	706	356
340	126	65
341	821	919
342	555	385
343	830	571
344	573	894
345	93	34
346	750	346
347	99	344
348	748	526
349	917	171
350	66	238
351	537	593
352	782	427
353	218	403
354	538	29
355	137	384
356	912	225
357	416	251
358	388	319
359	938	31
360	571	48
361	781	427
362	558	561
363	221	823
364	35	414
365	312	701
366	799	251
367	737	341
368	289	555
369	691	30
370	271	978
371	296	491
372	758	379
373	943	488
374	385	520
375	841	431
376	350	228
377	151	491
378	791	492
379	628	65
380	710	157
381	439	320
382	179	51
383	441	761
384	201	557
385	896	594
386	889	174
387	847	965
388	463	191
389	625	365
390	277	882
391	472	525
392	574	474
393	125	273
394	190	349
395	110	65
396	926	30
397	870	845
398	702	875
399	151	577
400	560	517
401	568	825
DEMAND_SECTION
1	0
2	5
3	1
4	3
5	5
6	5
7	6
8	6
9	4
10	1
11	4
12	5
13	9
14	7
15	1
16	5
17	3
18	9
19	8
20	5
21	5
22	6
23	6
24	5
25	1
26	9
27	1
28	4
29	4
30	4
31	1
32	2
33	3
34	5
35	7
36	4
37	8
38	4
39	5
40	9
41	6
42	1
43	3
44	1
45	6
46	5
47	2
48	5
49	1
50	7
51	4
52	7
53	5
54	8
55	6
56	2
57	6
58	1
59	3
60	4
61	9
62	4
63	7
64	4
65	5
66	3
67	5
68	7
69	5
70	8
71	9
72	7
73	8
74	5
75	4
76	8
77	7
78	1
79	1
80	5
81	3
82	3
83	3
84	5
85	6
86	8
87	1
88	1
89	3
90	3
91	3
92	1
93	3
94	9
95	7
96	4
97	6
98	7
99	8
100	1
101	2
102	6
103	5
104	9
105	9
106	3
107	9
108	3
109	8
110	9
111	1
112	1
113	8
114	5
115	2
116	2
117	7
118	8
119	4
120	6
121	8
122	7
123	5
124	2
125	1
126	5
127	5
128	8
129	9
130	1
131	8
132	7
133	9
134	4
135	8
136	4
137	2
138	2
139	8
140	8
141	6
142	6
143	9
144	2
145	7
146	3
147	2
148	6
149	1
150	9
151	9
152	2
153	7
154	4
155	2
156	2
157	7
158	9
159	3
160	8
161	1
162	5
163	2
164	3
165	9
166	5
167	1
168	9
169	1
170	5
171	4
172	5
173	4
174	7
175	6
176	8
177	7
178	6
179	7
180	1
181	3
182	8
183	6
184	5
185	7
186	8
187	3
188	3
189	7
190	8
191	7
192	2
193	2
194	4
195	9
196	1
197	2
198	7
199	4
200	9
201	3
202	6
203	1
204	3
205	5
206	9
207	3
208	6
209	3
210	5
211	7
212	3
213	1
214	9
215	8
216	6
217	7
218	2
219	8
220	2
221	6
222	8
223	5
224	7
225	2
226	7
227	3
228	9
229	3
230	6
231	3
232	9
233	9
234	1
235	1
236	8
237	4
238	9
239	4
240	5
241	4
242	4
243	8
244	6
245	6
246	3
247	9
248	8
249	4
250	4
251	6
252	9
253	1
254	7
255	8
256	9
257	6
258	2
259	4
260	4
261	3
262	7
263	7
264	7
265	2
266	7
267	2
268	8
269	6
270	6
271	9
272	1
273	3
274	2
275	3
276	4
277	6
278	6
279	9
280	8
281	9
282	3
283	2
284	4
285	2
286	8
287	2
288	5
289	9
290	9
291	6
292	3
293	6
294	5
295	2
296	1
297	2
298	5
299	6
300	2
301	2
302	7
303	3
304	5
305	2
306	1
307	5
308	5
309	8
310	2
311	1
312	2
313	7
314	8
315	4
316	1
317	8
318	5
319	2
320	9
321	2
322	2
323	7
324	7
325	9
326	9
327	3
328	3
329	6
330	5
331	5
332	8
333	4
334	9
335	3
336	5
337	9
338	7
339	9
340	6
341	2
342	9
343	1
344	8
345	3
346	6
347	3
348	3
349	2
350	8
351	5
352	4
353	2
354	8
355	3
356	4
357	2
358	8
359	6
360	3
361	4
362	3
363	5
364	3
365	5
366	3
367	6
368	8
369	1
370	1
371	8
372	2
373	9
374	6
375	8
376	4
377	4
378	4
379	4
380	8
381	9
382	6
383	4
384	6
385	6
386	5
387	4
388	5
389	8
390	9
391	9
392	2
393	2
394	3
395	6
396	9
397	4
398	5
399	7
400	2
401	8
TIME_WINDOW_SECTION
1	0	3000
2	1503	2320
3	0	1125
4	465	2048
5	638	2481
6	901	1230
7	140	970
8	150	1434
9	630	1881
10	487	897
11	1048	2487
12	1452	2628
13	1526	2088
14	639	1061
15	574	1522
16	739	1680
17	1197	2812
18	1719	2822
19	1085	2804
20	2109	2740
21	319	1137
22	1203	2286
23	481	970
24	137	1681
25	2386	2590
26	1165	1490
27	311	927
28	195	1974
29	896	1432
30	515	1781
31	1214	3000
32	0	1095
33	1251	1834
34	1516	2066
35	1398	3000
36	1899	2549
37	820	1278
38	0	1645
39	560	1986
40	681	1720
41	766	1962
42	358	1382
43	120	1794
44	627	837
45	1670	2513
46	2113	2678
47	299	1861
48	853	1427
49	692	2504
50	825	2569
51	870	2128
52	0	1643
53	580	2234
54	471	865
55	1262	2223
56	945	1460
57	456	1119
58	1402	1787
59	0	1501
60	386	2382
61	750	2203
62	1451	2539
63	1072	1759
64	370	2176
65	1099	1529
66	1300	1921
67	751	2292
68	1287	2008
69	1812	3000
70	984	2967
71	656	1932
72	589	1854
73	0	1060
74	543	1174
75	278	1125
76	1575	2116
77	434	2378
78	0	1490
79	1442	2841
80	1005	1445
81	1293	2246
82	0	1154
83	584	2387
84	1779	3000
85	92	1471
86	532	1389
87	644	1758
88	178	2158
89	1618	3000
90	0	766
91	1557	2393
92	310	724
93	1719	2172
94	809	2616
95	0	1411
96	126	534
97	894	1275
98	0	892
99	1114	1636
100	1445	2023
101	611	1664
102	1559	2095
103	97	1742
104	1021	2323
105	601	969
106	407	1516
107	211	1623
108	23	2004
109	737	1246
110	329	1423
111	1573	2507
112	1332	2864
113	1403	1831
114	445	1261
115	851	2523
116	1776	2005
117	495	2483
118	878	1776
119	106	505
120	1362	2737
121	755	2111
122	773	2748
123	1097	1868
124	1145	1697
125	756	2506
126	287	1674
127	619	1347
128	843	1775
129	1058	2783
130	0	1192
131	1613	2069
132	318	1185
133	1842	2144
134	4	1241
135	939	2661
136	449	916
137	1162	1734
138	1512	2266
139	2359	2621
140	484	1466
141	364	1141
142	731	2654
143	1401	2356
144	1672	2664
145	1586	1836
146	1340	2468
147	1096	2709
148	227	851
149	514	1698
150	705	1509
151	254	1783
152	2111	2559
153	592	2551
154	1764	2095
155	103	1788
156	1145	1957
157	1019	1770
158	0	1491
159	0	1226
160	320	1542
161	714	2355
162	1456	2081
163	1243	1526
164	0	1882
165	841	1321
166	1321	1982
167	15	1296
168	695	2325
169	1500	3000
170	919	1457
171	1675	2738
172	1139	1520
173	538	2076
174	785	1311
175	780	1665
176	122	1676
177	1292	2820
178	0	1586
179	1056	2235
180	1254	2171
181	1338	1878
182	1495	2170
183	0	777
184	350	1923
185	1081	2185
186	1199	2043
187	1503	2408
188	1744	2560
189	1010	1250
190	624	2544
191	1473	2019
192	879	2007
193	0	449
194	519	1353
195	1318	2502
196	1050	1721
197	0	772
198	166	1690
199	0	1413
200	434	1578
201	721	1975
202	981	1423
203	1409	2276
204	1488	3000
205	1750	2605
206	1174	1605
207	676	1334
208	1514	2355
209	1594	1914
210	1258	1697
211	1222	2194
212	190	2000
213	1394	3000
214	1555	1864
215	1664	2996
216	569	863
217	1203	2763
218	0	1212
219	1082	2640
220	12	1941
221	0	1504
222	24	1795
223	1589	2589
224	137	1840
225	301	1468
226	1914	2474
227	1347	1938
228	749	1109
229	0	1263
230	512	1102
231	1169	2194
232	373	2315
233	725	1159
234	788	1646
235	388	960
236	0	1401
237	378	2303
238	772	1130
239	960	1444
240	932	1628
241	251	1869
242	0	1166
243	87	1843
244	713	2377
245	671	2569
246	0	1039
247	1076	1402
248	330	1805
249	31	1470
250	1974	2525
251	2359	2851
252	300	2020
253	347	1435
254	1497	2403
255	1104	1948
256	0	1097
257	1663	2360
258	939	2445
259	1158	2669
260	1801	2375
261	720	1192
262	1249	1632
263	877	1941
264	811	2593
265	248	1236
266	837	1519
267	601	2078
268	701	1049
269	826	1555
270	495	727
271	458	1574
272	113	1151
273	16	1403
274	0	845
275	587	1269
276	1243	2140
277	1038	2615
278	647	2010
279	1551	2322
280	1654	1972
281	621	1811
282	294	1112
283	522	964
284	337	1896
285	493	1137
286	852	1382
287	1804	2590
288	690	2131
289	363	2246
290	634	1356
291	544	1531
292	121	1469
293	1367	1907
294	738	2223
295	711	2494
296	1502	1950
297	403	1858
298	1596	2512
299	641	2183
300	765	2203
301	539	1752
302	2021	2472
303	887	1652
304	1822	2964
305	1498	3000
306	902	1804
307	0	1653
308	1260	1538
309	45	951
310	683	2580
311	1189	2303
312	1435	2294
313	1799	2161
314	914	1735
315	1622	2237
316	1396	2213
317	791	2123
318	0	787
319	881	2455
320	79	525
321	161	1592
322	937	2790
323	471	866
324	784	1073
325	1121	1487
326	2430	2782
327	2199	2873
328	1493	2500
329	144	1373
330	895	2388
331	810	2594
332	2192	2561
333	0	1420
334	275	1186
335	1214	2483
336	398	1218
337	2205	2756
338	781	1579
339	244	783
340	1306	3000
341	224	1859
342	2303	2678
343	826	1766
344	1525	2350
345	398	2152
346	0	784
347	726	2682
348	1065	2972
349	0	949
350	799	2127
351	1499	2371
352	0	1512
353	719	1377
354	628	1670
355	353	1537
356	0	1429
357	2144	2912
358	182	1967
359	76	1836
360	0	715
361	1671	2028
362	790	2767
363	149	1407
364	584	1600
365	649	1419
366	1431	1985
367	1326	1542
368	493	1541
369	13	612
370	455	1816
371	494	2491
372	369	1093
373	974	2108
374	504	2465
375	497	1678
376	553	2330
377	0	1530
378	930	1585
379	0	945
380	766	1339
381	1006	2104
382	1574	2941
383	1164	1372
384	1450	1821
385	1073	2774
386	351	1683
387	798	1208
388	871	2781
389	1154	2228
390	1158	1765
391	1643	2626
392	405	1174
393	904	1765
394	1395	3000
395	1207	1895
396	1352	3000
397	232	1662
398	1070	2448
399	715	1412
400	703	2014
401	249	1377
DEPOT_SECTION
1
-1
EOF
