NAME : n201-0017
COMMENT : "Generated by pyvrp_manuel (CVRP)"
TYPE : CVRP
DIMENSION : 201
EDGE_WEIGHT_TYPE : EUC_2D
CAPACITY : 80
NODE_COORD_SECTION
1	176	270
2	638	619
3	597	110
4	981	931
5	744	609
6	221	537
7	143	960
8	56	926
9	971	258
10	54	676
11	116	39
12	199	853
13	187	300
14	297	855
15	694	787
16	407	204
17	680	702
18	914	31
19	133	828
20	629	832
21	374	999
22	695	306
23	258	631
24	488	258
25	232	668
26	747	976
27	289	205
28	185	161
29	994	255
30	265	867
31	898	42
32	445	650
33	576	216
34	97	139
35	667	267
36	45	993
37	729	351
38	580	322
39	170	38
40	826	38
41	123	917
42	185	332
43	502	6
44	46	94
45	425	319
46	871	822
47	986	67
48	262	841
49	673	174
50	875	245
51	975	101
52	759	472
53	67	759
54	316	509
55	347	388
56	372	724
57	460	842
58	702	497
59	700	332
60	115	171
61	158	96
62	580	456
63	50	759
64	810	925
65	521	463
66	794	66
67	531	827
68	846	559
69	459	679
70	606	483
71	896	927
72	216	950
73	369	608
74	945	264
75	733	432
76	217	470
77	927	779
78	241	953
79	602	927
80	976	354
81	899	426
82	579	516
83	507	461
84	42	544
85	959	664
86	38	593
87	419	647
88	41	584
89	143	571
90	801	850
91	417	944
92	471	212
93	734	522
94	106	818
95	982	774
96	420	81
97	928	234
98	575	48
99	808	600
100	976	743
101	22	895
102	96	261
103	758	228
104	631	551
105	535	228
106	850	572
107	686	558
108	251	312
109	833	63
110	327	42
111	201	567
112	386	667
113	881	605
114	975	499
115	982	581
116	487	640
117	106	908
118	957	60
119	202	895
120	626	319
121	251	385
122	406	961
123	196	570
124	642	252
125	469	410
126	881	858
127	476	244
128	213	287
129	934	906
130	599	34
131	660	407
132	780	760
133	919	536
134	538	504
135	845	878
136	736	400
137	355	963
138	241	586
139	657	759
140	197	403
141	485	454
142	71	716
143	118	374
144	653	893
145	413	223
146	277	495
147	227	624
148	726	972
149	920	398
150	713	566
151	737	273
152	970	503
153	817	871
154	394	883
155	371	749
156	422	105
157	373	690
158	899	92
159	210	761
160	245	526
161	151	532
162	258	612
163	697	596
164	107	875
165	921	52
166	910	69
167	735	470
168	460	257
169	894	581
170	465	482
171	862	995
172	215	57
173	162	229
174	92	320
175	307	496
176	643	821
177	170	142
178	282	132
179	527	121
180	477	432
181	113	274
182	719	357
183	59	907
184	344	560
185	902	749
186	96	942
187	361	628
188	723	675
189	842	274
190	872	818
191	61	314
192	932	129
193	48	809
194	676	555
195	899	525
196	988	168
197	70	391
198	986	73
199	706	628
200	288	90
201	709	688
DEMAND_SECTION
1	0
2	7
3	2
4	1
5	1
6	1
7	3
8	4
9	2
10	7
11	5
12	1
13	9
14	9
15	7
16	5
17	6
18	6
19	8
20	8
21	4
22	6
23	6
24	5
25	1
26	6
27	7
28	8
29	1
30	9
31	1
32	8
33	9
34	9
35	5
36	1
37	4
38	7
39	9
40	4
41	5
42	5
43	5
44	2
45	4
46	9
47	9
48	4
49	3
50	2
51	5
52	8
53	7
54	9
55	1
56	2
57	2
58	4
59	8
60	9
61	5
62	7
63	3
64	7
65	1
66	1
67	3
68	1
69	6
70	1
71	5
72	8
73	8
74	2
75	9
76	7
77	6
78	2
79	6
80	5
81	3
82	7
83	2
84	2
85	8
86	6
87	5
88	2
89	6
90	8
91	9
92	3
93	5
94	8
95	3
96	9
97	3
98	2
99	9
100	8
101	2
102	4
103	6
104	9
105	2
106	4
107	2
108	3
109	8
110	6
111	9
112	6
113	4
114	3
115	6
116	5
117	9
118	2
119	1
120	9
121	9
122	5
123	1
124	5
125	3
126	8
127	5
128	5
129	6
130	7
131	4
132	8
133	1
134	5
135	5
136	6
137	9
138	6
139	7
140	2
141	5
142	6
143	4
144	7
145	9
146	8
147	5
148	8
149	9
150	2
151	5
152	6
153	6
154	4
155	9
156	4
157	6
158	4
159	5
160	7
161	2
162	8
163	7
164	6
165	3
166	4
167	6
168	9
169	4
170	2
171	7
172	8
173	9
174	2
175	8
176	4
177	8
178	5
179	2
180	2
181	9
182	3
183	1
184	9
185	6
186	6
187	4
188	1
189	2
190	8
191	5
192	5
193	5
194	5
195	6
196	7
197	9
198	5
199	5
200	8
201	8
DEPOT_SECTION
1
-1
EOF
