NAME : n1001-0016
COMMENT : "Generated by pyvrp_manuel (CVRP)"
TYPE : CVRP
DIMENSION : 1001
EDGE_WEIGHT_TYPE : EUC_2D
CAPACITY : 150
NODE_COORD_SECTION
1	305	932
2	538	205
3	819	87
4	537	425
5	589	439
6	555	786
7	98	552
8	767	655
9	394	864
10	767	589
11	750	898
12	226	723
13	734	527
14	953	717
15	16	331
16	148	588
17	457	733
18	136	665
19	614	180
20	44	496
21	554	440
22	481	718
23	760	682
24	605	152
25	407	435
26	398	111
27	671	302
28	674	69
29	287	355
30	790	740
31	9	264
32	314	262
33	572	351
34	523	857
35	984	810
36	207	970
37	14	953
38	355	799
39	507	774
40	422	801
41	132	484
42	275	632
43	756	512
44	8	431
45	663	737
46	998	289
47	671	95
48	726	349
49	769	777
50	70	405
51	157	942
52	453	103
53	306	782
54	59	909
55	991	379
56	696	727
57	376	728
58	713	781
59	494	273
60	74	179
61	122	876
62	622	151
63	560	639
64	458	509
65	822	771
66	229	688
67	119	917
68	389	921
69	694	885
70	119	180
71	358	322
72	499	172
73	261	779
74	321	514
75	127	14
76	881	417
77	723	607
78	848	545
79	872	366
80	561	689
81	322	849
82	414	398
83	481	85
84	449	71
85	64	506
86	320	368
87	433	989
88	386	909
89	688	829
90	896	811
91	184	309
92	10	427
93	340	660
94	52	215
95	621	779
96	835	471
97	340	81
98	338	785
99	840	534
100	50	959
101	124	843
102	542	994
103	690	85
104	272	957
105	493	829
106	972	524
107	841	125
108	240	851
109	34	996
110	943	42
111	478	531
112	140	254
113	819	575
114	160	983
115	800	178
116	567	153
117	58	707
118	408	779
119	26	170
120	598	846
121	316	724
122	394	409
123	599	321
124	211	124
125	12	138
126	709	34
127	995	511
128	555	401
129	94	660
130	599	580
131	915	173
132	196	940
133	277	212
134	46	607
135	974	118
136	698	960
137	989	630
138	87	900
139	503	89
140	483	481
141	454	954
142	958	951
143	292	827
144	251	505
145	128	277
146	545	291
147	54	139
148	883	313
149	934	864
150	21	859
151	831	581
152	956	323
153	824	269
154	340	117
155	937	774
156	653	408
157	706	336
158	892	669
159	520	298
160	372	925
161	476	115
162	274	254
163	721	931
164	984	77
165	785	467
166	193	892
167	357	506
168	821	356
169	16	485
170	459	84
171	74	848
172	964	278
173	37	742
174	632	504
175	203	632
176	264	431
177	723	846
178	553	62
179	944	193
180	334	273
181	609	898
182	217	629
183	628	90
184	612	901
185	928	869
186	263	392
187	621	712
188	582	838
189	942	177
190	119	617
191	209	471
192	18	865
193	863	659
194	7	646
195	446	766
196	796	304
197	958	876
198	68	927
199	928	927
200	770	541
201	409	497
202	538	657
203	442	179
204	718	215
205	241	230
206	563	890
207	151	943
208	457	155
209	867	395
210	917	598
211	398	834
212	600	409
213	170	729
214	444	998
215	920	76
216	360	307
217	428	90
218	987	993
219	241	424
220	90	660
221	59	929
222	681	782
223	324	862
224	265	267
225	740	336
226	129	959
227	424	88
228	32	350
229	513	116
230	311	431
231	939	3
232	108	219
233	169	852
234	969	973
235	356	751
236	610	538
237	674	672
238	240	601
239	942	282
240	492	710
241	36	262
242	282	591
243	680	221
244	34	999
245	269	329
246	83	53
247	715	231
248	935	363
249	529	55
250	26	765
251	75	6
252	896	562
253	945	469
254	958	288
255	729	61
256	615	834
257	862	97
258	743	545
259	669	717
260	528	259
261	215	148
262	316	316
263	360	916
264	498	516
265	669	843
266	373	59
267	476	153
268	425	366
269	489	36
270	27	853
271	883	608
272	715	801
273	867	206
274	205	269
275	160	378
276	766	579
277	47	635
278	542	309
279	788	115
280	198	293
281	616	143
282	935	908
283	319	641
284	878	794
285	877	94
286	950	261
287	646	686
288	969	621
289	337	313
290	305	911
291	879	48
292	343	290
293	278	211
294	986	972
295	576	842
296	632	614
297	285	504
298	655	865
299	163	233
300	737	333
301	954	200
302	660	914
303	790	370
304	584	860
305	30	219
306	378	132
307	406	252
308	645	349
309	392	421
310	591	397
311	612	732
312	147	710
313	70	250
314	562	679
315	383	60
316	629	198
317	721	116
318	138	512
319	72	705
320	0	183
321	746	185
322	778	430
323	800	483
324	170	546
325	809	976
326	200	102
327	234	667
328	800	183
329	473	556
330	446	539
331	555	542
332	767	675
333	501	29
334	379	790
335	511	652
336	349	783
337	164	579
338	735	439
339	17	609
340	298	901
341	117	558
342	166	362
343	810	100
344	394	10
345	427	36
346	130	788
347	62	142
348	402	935
349	139	385
350	149	938
351	621	840
352	522	119
353	355	269
354	940	937
355	671	920
356	207	189
357	961	595
358	730	700
359	589	751
360	905	339
361	18	18
362	711	577
363	20	92
364	983	801
365	760	683
366	930	342
367	591	676
368	976	35
369	744	919
370	560	713
371	776	609
372	140	241
373	932	222
374	576	967
375	842	766
376	775	113
377	878	612
378	805	230
379	555	582
380	63	103
381	839	57
382	725	230
383	460	902
384	371	384
385	163	955
386	58	754
387	931	941
388	720	633
389	128	846
390	693	334
391	680	541
392	393	546
393	721	844
394	831	404
395	422	281
396	472	848
397	484	266
398	40	41
399	235	954
400	617	577
401	10	476
402	606	43
403	580	954
404	454	244
405	389	372
406	892	844
407	869	120
408	483	122
409	946	63
410	502	911
411	232	590
412	323	554
413	719	707
414	333	951
415	688	773
416	833	694
417	741	516
418	446	181
419	722	420
420	994	666
421	72	932
422	290	814
423	542	174
424	551	977
425	276	845
426	235	514
427	190	703
428	613	818
429	831	377
430	328	243
431	626	891
432	737	904
433	254	892
434	52	336
435	895	522
436	769	565
437	906	402
438	517	74
439	281	370
440	118	12
441	565	685
442	389	977
443	258	330
444	506	639
445	157	844
446	664	587
447	808	35
448	67	186
449	342	176
450	76	181
451	274	722
452	728	683
453	153	301
454	169	879
455	831	328
456	652	6
457	554	826
458	105	620
459	351	336
460	152	701
461	500	836
462	72	71
463	451	662
464	755	172
465	50	386
466	554	504
467	431	616
468	808	368
469	557	738
470	876	182
471	309	865
472	646	256
473	401	677
474	842	100
475	193	96
476	11	660
477	720	422
478	243	507
479	489	636
480	996	3
481	39	946
482	519	573
483	720	897
484	311	813
485	230	192
486	559	842
487	397	171
488	916	426
489	803	554
490	784	436
491	868	994
492	18	35
493	66	10
494	619	877
495	897	383
496	781	316
497	71	174
498	584	970
499	859	396
500	35	84
501	498	330
502	732	941
503	255	401
504	842	646
505	801	37
506	319	666
507	377	116
508	300	198
509	363	266
510	867	461
511	544	791
512	816	675
513	350	348
514	530	108
515	616	121
516	700	154
517	431	419
518	647	177
519	986	125
520	0	865
521	199	950
522	832	257
523	60	31
524	430	787
525	896	216
526	74	292
527	979	83
528	141	775
529	328	222
530	8	334
531	587	441
532	676	241
533	571	285
534	166	407
535	709	42
536	727	584
537	456	252
538	612	803
539	714	609
540	449	376
541	468	124
542	500	524
543	457	944
544	814	642
545	306	828
546	804	471
547	450	789
548	578	971
549	944	791
550	277	676
551	628	678
552	995	63
553	400	132
554	473	787
555	222	939
556	181	978
557	906	393
558	392	397
559	215	451
560	147	193
561	340	801
562	25	834
563	307	444
564	751	185
565	71	550
566	839	617
567	209	911
568	962	455
569	15	989
570	942	767
571	930	162
572	35	279
573	227	743
574	75	816
575	49	291
576	420	115
577	983	70
578	315	344
579	492	469
580	963	431
581	593	966
582	296	162
583	599	525
584	522	609
585	480	289
586	243	965
587	459	934
588	853	365
589	8	266
590	654	397
591	895	60
592	18	110
593	826	208
594	615	725
595	357	24
596	735	439
597	302	162
598	45	789
599	142	349
600	735	785
601	12	95
602	876	376
603	757	299
604	908	195
605	866	647
606	59	219
607	626	907
608	194	384
609	937	480
610	853	779
611	435	555
612	533	968
613	142	291
614	636	118
615	241	149
616	466	831
617	670	727
618	223	682
619	678	127
620	922	719
621	856	722
622	949	726
623	402	730
624	139	153
625	316	503
626	943	917
627	385	487
628	822	365
629	746	483
630	480	876
631	25	985
632	846	179
633	369	605
634	579	117
635	527	413
636	64	908
637	546	431
638	304	136
639	141	259
640	419	315
641	371	866
642	738	237
643	778	640
644	262	770
645	986	856
646	946	275
647	491	936
648	741	260
649	480	511
650	841	792
651	12	408
652	904	713
653	442	503
654	118	665
655	533	571
656	316	133
657	454	786
658	5	510
659	127	554
660	152	700
661	532	583
662	909	505
663	141	455
664	538	564
665	53	624
666	541	994
667	107	142
668	510	604
669	431	291
670	546	454
671	335	729
672	261	20
673	74	675
674	139	112
675	335	850
676	826	909
677	159	152
678	749	949
679	481	25
680	998	869
681	874	692
682	695	467
683	785	676
684	212	306
685	403	467
686	859	851
687	416	334
688	451	995
689	979	552
690	484	796
691	135	286
692	912	998
693	525	93
694	844	732
695	542	979
696	120	470
697	803	311
698	98	483
699	857	583
700	637	199
701	282	562
702	938	734
703	738	537
704	883	862
705	950	554
706	445	198
707	68	348
708	636	497
709	258	814
710	965	75
711	466	809
712	432	107
713	692	771
714	181	75
715	797	27
716	691	949
717	856	501
718	322	659
719	321	201
720	264	298
721	673	908
722	558	148
723	623	873
724	779	396
725	445	79
726	573	703
727	627	659
728	629	483
729	341	264
730	404	778
731	187	24
732	414	284
733	62	185
734	416	233
735	842	416
736	386	818
737	50	655
738	420	942
739	557	304
740	150	170
741	270	952
742	881	975
743	315	668
744	156	360
745	938	147
746	6	502
747	605	891
748	690	592
749	999	910
750	229	42
751	49	609
752	637	367
753	860	600
754	571	432
755	800	666
756	142	369
757	721	673
758	401	982
759	908	271
760	890	871
761	845	340
762	739	218
763	771	497
764	776	819
765	664	655
766	256	115
767	119	400
768	96	355
769	474	25
770	971	541
771	807	77
772	813	210
773	624	874
774	907	26
775	303	281
776	696	229
777	848	139
778	497	548
779	170	469
780	103	219
781	8	642
782	329	423
783	720	781
784	736	607
785	968	410
786	935	227
787	22	519
788	286	186
789	220	437
790	540	480
791	378	908
792	783	242
793	150	534
794	717	891
795	813	858
796	543	135
797	806	635
798	815	235
799	31	727
800	368	220
801	981	692
802	909	911
803	118	951
804	942	98
805	543	826
806	682	189
807	197	175
808	744	118
809	587	237
810	247	940
811	116	527
812	858	212
813	344	372
814	960	669
815	774	243
816	3	806
817	793	849
818	710	686
819	663	279
820	368	998
821	521	517
822	153	914
823	466	574
824	498	853
825	973	971
826	186	371
827	287	723
828	715	17
829	90	373
830	452	845
831	632	846
832	116	923
833	935	779
834	539	978
835	479	439
836	435	652
837	680	918
838	839	732
839	626	635
840	862	328
841	827	247
842	289	685
843	192	291
844	635	487
845	806	192
846	71	542
847	718	536
848	155	175
849	686	578
850	788	243
851	871	480
852	626	190
853	437	375
854	113	815
855	667	184
856	634	378
857	11	602
858	417	806
859	471	216
860	336	673
861	139	543
862	127	118
863	410	895
864	271	220
865	297	157
866	443	70
867	702	23
868	28	37
869	201	617
870	873	225
871	802	84
872	128	673
873	430	261
874	547	508
875	886	679
876	474	88
877	334	107
878	404	381
879	394	120
880	697	694
881	442	310
882	622	799
883	685	559
884	562	589
885	549	369
886	151	819
887	786	28
888	564	161
889	956	470
890	232	221
891	771	371
892	444	952
893	338	198
894	619	596
895	161	656
896	176	187
897	123	355
898	505	292
899	198	300
900	616	537
901	9	85
902	867	555
903	774	487
904	16	27
905	805	389
906	296	5
907	776	565
908	143	579
909	175	368
910	219	331
911	393	107
912	159	34
913	813	204
914	867	829
915	215	825
916	525	455
917	779	838
918	466	981
919	195	837
920	771	924
921	465	966
922	905	166
923	979	105
924	995	143
925	558	90
926	709	225
927	281	300
928	85	395
929	343	113
930	246	322
931	991	700
932	469	541
933	644	519
934	235	94
935	158	614
936	461	189
937	790	825
938	605	899
939	192	232
940	694	969
941	570	127
942	441	367
943	211	330
944	363	575
945	429	967
946	220	574
947	894	487
948	55	482
949	684	155
950	776	494
951	188	562
952	258	999
953	68	166
954	513	566
955	415	345
956	210	881
957	978	283
958	509	46
959	935	221
960	249	244
961	628	673
962	79	374
963	766	573
964	56	771
965	911	469
966	991	846
967	98	289
968	954	348
969	934	136
970	925	638
971	84	34
972	124	949
973	638	657
974	349	26
975	906	244
976	431	458
977	921	695
978	464	927
979	920	453
980	917	256
981	59	930
982	474	445
983	174	286
984	242	506
985	78	745
986	608	443
987	167	49
988	272	795
989	877	722
990	277	254
991	601	6
992	797	875
993	699	969
994	94	344
995	625	374
996	431	925
997	74	685
998	615	699
999	57	820
1000	907	97
1001	182	689
DEMAND_SECTION
1	0
2	3
3	4
4	7
5	5
6	9
7	2
8	2
9	4
10	9
11	7
12	4
13	9
14	2
15	8
16	5
17	1
18	5
19	6
20	6
21	7
22	7
23	2
24	4
25	9
26	3
27	8
28	5
29	5
30	4
31	5
32	2
33	8
34	3
35	3
36	5
37	3
38	4
39	6
40	9
41	5
42	7
43	7
44	1
45	4
46	5
47	3
48	4
49	7
50	8
51	6
52	6
53	6
54	2
55	8
56	6
57	1
58	6
59	4
60	3
61	9
62	5
63	1
64	6
65	5
66	8
67	4
68	5
69	7
70	8
71	8
72	5
73	8
74	6
75	2
76	5
77	5
78	4
79	1
80	8
81	7
82	7
83	7
84	9
85	5
86	5
87	7
88	5
89	1
90	1
91	4
92	1
93	4
94	1
95	2
96	7
97	2
98	3
99	9
100	9
101	1
102	1
103	1
104	9
105	4
106	1
107	3
108	6
109	8
110	9
111	5
112	8
113	3
114	6
115	5
116	6
117	3
118	1
119	5
120	6
121	5
122	8
123	9
124	2
125	7
126	3
127	6
128	2
129	6
130	8
131	6
132	6
133	1
134	5
135	2
136	8
137	7
138	8
139	2
140	9
141	4
142	6
143	6
144	7
145	5
146	5
147	4
148	2
149	5
150	1
151	9
152	3
153	6
154	9
155	7
156	4
157	2
158	3
159	3
160	7
161	3
162	7
163	7
164	1
165	1
166	2
167	1
168	5
169	3
170	4
171	7
172	5
173	1
174	1
175	1
176	7
177	2
178	8
179	5
180	4
181	9
182	1
183	6
184	6
185	6
186	3
187	2
188	7
189	7
190	1
191	6
192	5
193	1
194	1
195	1
196	5
197	8
198	1
199	9
200	6
201	4
202	6
203	7
204	9
205	6
206	3
207	5
208	5
209	6
210	5
211	8
212	9
213	5
214	3
215	8
216	9
217	7
218	1
219	4
220	7
221	5
222	4
223	3
224	8
225	8
226	5
227	4
228	7
229	4
230	2
231	6
232	3
233	6
234	5
235	3
236	7
237	2
238	8
239	8
240	6
241	9
242	2
243	9
244	4
245	1
246	9
247	7
248	4
249	7
250	8
251	5
252	9
253	6
254	9
255	1
256	9
257	5
258	5
259	6
260	6
261	4
262	3
263	1
264	6
265	6
266	5
267	7
268	6
269	9
270	7
271	4
272	7
273	3
274	8
275	3
276	9
277	3
278	4
279	8
280	8
281	4
282	7
283	3
284	9
285	3
286	1
287	1
288	5
289	7
290	3
291	7
292	5
293	1
294	6
295	4
296	2
297	9
298	8
299	1
300	6
301	1
302	2
303	5
304	6
305	5
306	4
307	2
308	3
309	4
310	2
311	3
312	6
313	9
314	3
315	1
316	8
317	7
318	1
319	6
320	9
321	8
322	7
323	1
324	7
325	7
326	3
327	6
328	6
329	7
330	8
331	5
332	1
333	6
334	5
335	2
336	4
337	7
338	8
339	2
340	7
341	7
342	8
343	4
344	8
345	3
346	5
347	2
348	6
349	2
350	1
351	8
352	7
353	5
354	4
355	2
356	7
357	6
358	4
359	3
360	5
361	5
362	6
363	4
364	5
365	2
366	6
367	9
368	2
369	5
370	7
371	2
372	7
373	8
374	7
375	5
376	4
377	4
378	4
379	4
380	7
381	5
382	7
383	7
384	9
385	1
386	9
387	9
388	6
389	7
390	6
391	4
392	4
393	5
394	2
395	6
396	8
397	6
398	9
399	7
400	6
401	7
402	9
403	8
404	1
405	6
406	8
407	9
408	6
409	7
410	2
411	4
412	3
413	5
414	3
415	8
416	5
417	9
418	7
419	9
420	6
421	3
422	2
423	9
424	3
425	9
426	3
427	1
428	9
429	3
430	6
431	4
432	5
433	5
434	2
435	6
436	3
437	3
438	6
439	8
440	2
441	3
442	1
443	2
444	6
445	5
446	5
447	2
448	9
449	2
450	9
451	3
452	4
453	3
454	6
455	8
456	9
457	2
458	1
459	3
460	8
461	4
462	5
463	1
464	1
465	7
466	2
467	5
468	9
469	1
470	7
471	5
472	8
473	5
474	2
475	5
476	2
477	4
478	3
479	1
480	7
481	9
482	1
483	5
484	9
485	7
486	1
487	9
488	8
489	2
490	3
491	4
492	3
493	7
494	6
495	3
496	3
497	4
498	4
499	7
500	1
501	6
502	2
503	5
504	9
505	2
506	9
507	7
508	7
509	8
510	1
511	8
512	8
513	5
514	1
515	6
516	2
517	3
518	7
519	7
520	3
521	6
522	9
523	3
524	2
525	4
526	7
527	1
528	4
529	5
530	9
531	2
532	3
533	9
534	9
535	9
536	4
537	7
538	3
539	4
540	3
541	9
542	8
543	7
544	5
545	3
546	1
547	5
548	5
549	7
550	6
551	4
552	3
553	2
554	7
555	5
556	2
557	2
558	1
559	3
560	5
561	4
562	7
563	4
564	4
565	8
566	5
567	6
568	8
569	6
570	3
571	8
572	3
573	7
574	1
575	9
576	5
577	1
578	4
579	3
580	5
581	8
582	8
583	7
584	3
585	9
586	3
587	9
588	4
589	4
590	1
591	2
592	9
593	4
594	5
595	9
596	1
597	9
598	6
599	1
600	8
601	5
602	3
603	6
604	6
605	1
606	2
607	9
608	3
609	9
610	4
611	1
612	1
613	7
614	7
615	3
616	2
617	2
618	7
619	3
620	6
621	3
622	2
623	1
624	8
625	7
626	9
627	4
628	8
629	4
630	2
631	4
632	9
633	8
634	4
635	7
636	1
637	8
638	3
639	5
640	1
641	4
642	8
643	8
644	1
645	7
646	3
647	6
648	6
649	7
650	2
651	5
652	5
653	8
654	6
655	4
656	2
657	5
658	7
659	8
660	9
661	3
662	3
663	1
664	9
665	5
666	7
667	3
668	7
669	2
670	9
671	2
672	8
673	3
674	5
675	5
676	7
677	9
678	6
679	6
680	3
681	1
682	1
683	3
684	7
685	1
686	4
687	9
688	3
689	9
690	9
691	4
692	7
693	3
694	9
695	9
696	2
697	2
698	1
699	1
700	6
701	6
702	6
703	6
704	3
705	7
706	1
707	7
708	1
709	4
710	1
711	3
712	3
713	6
714	8
715	3
716	6
717	6
718	3
719	1
720	8
721	2
722	4
723	3
724	8
725	9
726	7
727	9
728	1
729	6
730	1
731	3
732	4
733	8
734	3
735	5
736	2
737	4
738	1
739	4
740	4
741	5
742	9
743	5
744	3
745	7
746	5
747	3
748	4
749	6
750	8
751	1
752	2
753	8
754	3
755	8
756	6
757	4
758	1
759	2
760	1
761	9
762	4
763	7
764	9
765	6
766	7
767	9
768	2
769	4
770	4
771	9
772	8
773	4
774	5
775	8
776	1
777	5
778	6
779	6
780	1
781	3
782	4
783	1
784	7
785	4
786	1
787	3
788	2
789	2
790	4
791	6
792	9
793	5
794	4
795	7
796	6
797	2
798	9
799	4
800	3
801	6
802	6
803	7
804	9
805	7
806	3
807	3
808	4
809	3
810	5
811	9
812	9
813	6
814	2
815	6
816	3
817	6
818	4
819	7
820	1
821	5
822	2
823	4
824	8
825	7
826	1
827	1
828	1
829	8
830	1
831	1
832	6
833	8
834	1
835	2
836	3
837	7
838	3
839	1
840	8
841	4
842	1
843	2
844	7
845	6
846	2
847	3
848	9
849	7
850	5
851	3
852	3
853	7
854	1
855	5
856	3
857	3
858	7
859	5
860	9
861	4
862	1
863	5
864	5
865	3
866	6
867	9
868	3
869	3
870	2
871	6
872	7
873	1
874	9
875	3
876	6
877	9
878	7
879	8
880	6
881	1
882	6
883	4
884	1
885	4
886	2
887	9
888	1
889	7
890	2
891	7
892	6
893	6
894	1
895	2
896	2
897	3
898	7
899	6
900	3
901	1
902	1
903	5
904	2
905	9
906	8
907	2
908	9
909	5
910	1
911	2
912	2
913	7
914	8
915	3
916	2
917	5
918	5
919	3
920	5
921	7
922	4
923	3
924	5
925	5
926	3
927	1
928	9
929	3
930	1
931	1
932	6
933	6
934	9
935	9
936	9
937	9
938	4
939	2
940	5
941	9
942	4
943	1
944	5
945	7
946	3
947	7
948	5
949	6
950	3
951	3
952	2
953	1
954	6
955	5
956	9
957	1
958	3
959	1
960	4
961	9
962	7
963	8
964	2
965	4
966	1
967	8
968	6
969	3
970	6
971	3
972	5
973	5
974	4
975	5
976	6
977	8
978	8
979	2
980	4
981	7
982	3
983	4
984	5
985	3
986	5
987	6
988	2
989	8
990	8
991	6
992	8
993	4
994	8
995	5
996	2
997	7
998	3
999	7
1000	1
1001	3
DEPOT_SECTION
1
-1
EOF
