NAME : n1001-0002
COMMENT : "Generated by pyvrp_manuel (CVRP)"
TYPE : CVRP
DIMENSION : 1001
EDGE_WEIGHT_TYPE : EUC_2D
CAPACITY : 150
NODE_COORD_SECTION
1	88	132
2	2	549
3	458	384
4	841	922
5	565	323
6	872	814
7	590	363
8	521	946
9	554	401
10	77	232
11	861	482
12	467	695
13	171	466
14	359	762
15	907	814
16	873	53
17	322	559
18	75	636
19	172	714
20	905	72
21	919	733
22	170	979
23	67	163
24	251	475
25	590	353
26	26	442
27	879	885
28	750	573
29	624	115
30	702	2
31	294	369
32	867	485
33	272	587
34	85	368
35	638	467
36	447	806
37	120	248
38	984	599
39	419	759
40	801	416
41	292	418
42	682	436
43	791	92
44	255	881
45	566	601
46	664	382
47	300	643
48	367	293
49	566	621
50	455	162
51	424	217
52	763	169
53	899	699
54	72	871
55	6	471
56	188	70
57	550	258
58	861	107
59	915	802
60	938	354
61	194	168
62	916	251
63	438	423
64	586	90
65	903	130
66	992	304
67	277	431
68	648	407
69	1	852
70	995	752
71	989	636
72	461	102
73	63	156
74	373	791
75	294	481
76	493	173
77	486	983
78	900	881
79	451	509
80	773	334
81	297	928
82	529	162
83	921	583
84	768	66
85	593	806
86	428	216
87	900	733
88	642	618
89	511	787
90	391	206
91	691	633
92	690	444
93	434	460
94	632	116
95	34	687
96	226	458
97	639	570
98	822	566
99	624	455
100	574	683
101	841	26
102	292	51
103	301	805
104	26	52
105	790	205
106	865	656
107	626	897
108	37	866
109	662	165
110	622	361
111	299	446
112	264	937
113	930	447
114	57	469
115	533	834
116	516	646
117	633	216
118	190	53
119	496	655
120	464	985
121	405	174
122	583	359
123	431	984
124	486	937
125	567	314
126	867	215
127	517	612
128	724	39
129	525	371
130	824	668
131	700	801
132	388	468
133	901	97
134	154	537
135	302	529
136	942	442
137	74	273
138	959	390
139	281	725
140	562	59
141	916	782
142	935	719
143	331	337
144	742	403
145	598	16
146	253	686
147	475	260
148	64	818
149	399	9
150	982	743
151	201	135
152	983	502
153	199	788
154	396	534
155	240	77
156	168	445
157	138	993
158	505	309
159	698	57
160	244	688
161	75	749
162	542	83
163	4	658
164	736	400
165	58	212
166	553	518
167	628	588
168	474	764
169	985	916
170	954	331
171	329	445
172	648	702
173	455	177
174	123	981
175	366	432
176	194	252
177	610	711
178	302	316
179	896	242
180	127	422
181	976	609
182	569	438
183	812	252
184	839	618
185	556	569
186	192	871
187	763	109
188	34	371
189	832	254
190	963	249
191	48	720
192	198	421
193	344	460
194	64	41
195	715	443
196	198	487
197	44	633
198	737	985
199	93	439
200	771	958
201	144	712
202	706	801
203	155	857
204	282	192
205	599	924
206	169	767
207	443	660
208	890	636
209	85	349
210	599	78
211	583	232
212	401	679
213	98	179
214	728	5
215	844	114
216	492	603
217	697	190
218	567	715
219	929	124
220	251	646
221	484	163
222	79	56
223	150	287
224	153	61
225	539	793
226	264	550
227	494	734
228	153	524
229	967	857
230	4	425
231	505	335
232	172	152
233	832	338
234	468	647
235	193	545
236	797	208
237	645	483
238	775	832
239	633	515
240	70	699
241	805	318
242	4	905
243	383	600
244	359	819
245	988	813
246	341	850
247	744	549
248	97	285
249	5	834
250	994	791
251	660	618
252	981	247
253	332	51
254	450	534
255	637	152
256	442	88
257	93	565
258	12	633
259	39	152
260	396	23
261	904	910
262	239	605
263	756	659
264	433	28
265	864	61
266	407	531
267	335	317
268	68	528
269	443	936
270	335	886
271	524	275
272	381	443
273	505	418
274	648	912
275	579	681
276	809	608
277	730	762
278	968	44
279	671	477
280	410	307
281	801	957
282	92	770
283	845	587
284	506	885
285	515	375
286	463	660
287	625	473
288	658	635
289	95	625
290	806	557
291	454	883
292	63	272
293	274	932
294	16	550
295	16	484
296	686	383
297	985	502
298	245	629
299	760	499
300	928	184
301	713	784
302	748	500
303	643	108
304	108	469
305	437	871
306	863	839
307	271	107
308	31	681
309	49	1
310	247	78
311	303	185
312	243	975
313	406	915
314	511	436
315	354	143
316	98	846
317	346	13
318	959	509
319	165	107
320	80	62
321	952	845
322	541	74
323	369	30
324	672	367
325	393	344
326	734	771
327	610	437
328	451	491
329	128	988
330	284	791
331	220	503
332	671	41
333	729	117
334	570	401
335	787	986
336	613	486
337	252	686
338	259	707
339	283	839
340	884	807
341	505	732
342	44	905
343	370	682
344	415	332
345	265	823
346	228	412
347	752	550
348	79	3
349	257	961
350	144	776
351	858	293
352	279	140
353	578	430
354	524	717
355	710	342
356	534	619
357	511	600
358	297	910
359	449	436
360	51	138
361	516	423
362	249	762
363	455	676
364	921	270
365	254	400
366	458	250
367	380	486
368	724	963
369	870	553
370	468	628
371	480	434
372	672	93
373	75	502
374	348	253
375	35	835
376	480	231
377	296	631
378	137	532
379	494	670
380	698	173
381	716	878
382	532	755
383	311	599
384	646	269
385	809	27
386	312	206
387	203	197
388	29	586
389	401	79
390	500	417
391	706	108
392	359	603
393	712	538
394	635	1000
395	327	841
396	931	58
397	621	783
398	422	776
399	517	881
400	511	180
401	880	649
402	925	624
403	766	812
404	584	384
405	603	151
406	517	339
407	532	104
408	806	39
409	714	829
410	42	952
411	128	402
412	759	341
413	946	279
414	433	173
415	268	988
416	876	537
417	541	76
418	877	425
419	291	102
420	911	737
421	801	552
422	161	705
423	558	668
424	375	264
425	910	668
426	297	545
427	391	457
428	780	102
429	953	837
430	500	295
431	602	169
432	825	236
433	596	8
434	739	838
435	875	541
436	795	670
437	835	782
438	63	553
439	330	261
440	850	428
441	578	815
442	837	767
443	413	54
444	20	657
445	494	184
446	718	954
447	789	429
448	568	181
449	736	113
450	845	272
451	302	81
452	379	452
453	270	856
454	787	59
455	450	668
456	982	380
457	807	472
458	308	806
459	54	919
460	999	363
461	698	999
462	651	696
463	684	295
464	622	234
465	927	286
466	614	355
467	750	508
468	775	365
469	207	692
470	219	89
471	693	199
472	312	375
473	536	327
474	320	374
475	850	650
476	259	154
477	512	660
478	490	793
479	921	647
480	665	790
481	329	589
482	904	261
483	539	305
484	116	765
485	900	230
486	687	653
487	695	775
488	967	880
489	62	304
490	766	215
491	598	286
492	599	744
493	657	863
494	440	771
495	662	342
496	147	957
497	351	877
498	815	480
499	87	540
500	258	630
501	301	885
502	49	365
503	579	548
504	911	342
505	101	831
506	640	829
507	204	206
508	298	536
509	669	213
510	453	414
511	956	320
512	985	193
513	294	124
514	868	156
515	707	316
516	998	571
517	66	586
518	561	16
519	600	977
520	644	497
521	396	633
522	277	992
523	932	734
524	314	31
525	212	986
526	41	23
527	464	659
528	2	36
529	503	332
530	848	644
531	66	49
532	843	411
533	281	657
534	402	739
535	627	284
536	99	771
537	200	445
538	568	209
539	772	148
540	623	553
541	683	9
542	529	744
543	180	624
544	502	924
545	394	503
546	283	377
547	643	18
548	879	860
549	712	874
550	344	614
551	525	154
552	308	322
553	376	56
554	148	453
555	424	46
556	607	772
557	916	921
558	151	340
559	263	592
560	634	611
561	792	764
562	232	843
563	837	566
564	65	193
565	639	673
566	966	754
567	681	483
568	841	318
569	704	262
570	495	795
571	729	388
572	494	222
573	732	836
574	672	16
575	142	835
576	428	807
577	869	354
578	207	30
579	691	756
580	413	15
581	178	473
582	728	332
583	177	152
584	947	681
585	94	191
586	76	572
587	297	498
588	421	62
589	53	112
590	291	578
591	265	482
592	440	957
593	272	970
594	116	83
595	663	209
596	756	223
597	894	984
598	532	607
599	966	796
600	64	484
601	49	882
602	408	497
603	193	228
604	565	913
605	249	547
606	953	948
607	402	969
608	682	955
609	515	76
610	364	650
611	767	2
612	889	51
613	793	993
614	623	406
615	775	352
616	130	145
617	735	882
618	520	15
619	9	387
620	770	167
621	635	227
622	907	369
623	396	61
624	52	534
625	581	770
626	63	588
627	428	793
628	273	649
629	701	751
630	329	661
631	402	635
632	193	103
633	91	186
634	288	574
635	391	215
636	504	342
637	808	88
638	315	179
639	562	527
640	471	996
641	309	428
642	629	917
643	879	557
644	311	664
645	815	489
646	775	909
647	232	389
648	50	615
649	856	403
650	580	660
651	489	889
652	573	9
653	87	5
654	521	770
655	434	950
656	410	602
657	951	753
658	484	982
659	201	686
660	816	190
661	30	660
662	310	248
663	599	137
664	950	455
665	340	918
666	639	595
667	261	977
668	348	916
669	463	751
670	852	128
671	167	6
672	861	930
673	317	255
674	584	769
675	623	396
676	182	928
677	176	17
678	300	600
679	686	693
680	210	308
681	278	258
682	79	602
683	355	19
684	208	200
685	284	191
686	413	679
687	95	457
688	356	244
689	389	288
690	516	139
691	595	959
692	914	276
693	654	27
694	921	2
695	53	51
696	36	568
697	368	620
698	469	489
699	319	203
700	81	752
701	242	398
702	743	376
703	374	167
704	72	740
705	387	814
706	533	499
707	49	511
708	387	215
709	384	526
710	123	583
711	848	599
712	977	733
713	106	303
714	380	650
715	486	902
716	558	183
717	317	84
718	362	746
719	505	23
720	67	681
721	61	101
722	202	977
723	358	294
724	162	820
725	419	596
726	619	641
727	820	526
728	552	468
729	111	386
730	976	146
731	184	4
732	530	32
733	244	961
734	707	766
735	586	75
736	267	95
737	191	670
738	361	989
739	136	73
740	994	68
741	925	635
742	44	935
743	364	294
744	110	77
745	611	9
746	705	376
747	675	378
748	673	486
749	647	297
750	156	564
751	181	190
752	19	341
753	166	889
754	860	619
755	906	741
756	29	450
757	419	196
758	642	344
759	261	494
760	168	914
761	816	973
762	411	663
763	480	86
764	726	151
765	320	276
766	12	518
767	582	463
768	868	524
769	409	227
770	203	429
771	207	170
772	434	412
773	195	792
774	924	159
775	719	268
776	448	967
777	564	23
778	960	479
779	250	236
780	929	508
781	776	829
782	306	542
783	177	918
784	236	832
785	627	808
786	148	484
787	759	480
788	493	744
789	126	400
790	728	745
791	964	401
792	618	254
793	416	249
794	871	503
795	703	775
796	593	553
797	463	76
798	581	389
799	80	966
800	447	250
801	13	39
802	690	272
803	284	211
804	904	380
805	824	897
806	112	873
807	405	979
808	755	16
809	593	676
810	319	879
811	86	341
812	976	988
813	750	202
814	70	93
815	375	783
816	658	439
817	950	893
818	266	283
819	494	604
820	496	693
821	845	410
822	746	568
823	692	706
824	366	277
825	714	180
826	763	179
827	843	701
828	378	786
829	335	607
830	647	551
831	600	490
832	356	779
833	697	686
834	838	238
835	384	486
836	903	102
837	213	381
838	73	105
839	843	523
840	98	417
841	484	322
842	82	772
843	438	988
844	117	226
845	474	152
846	864	887
847	953	184
848	856	847
849	301	555
850	738	858
851	33	998
852	374	704
853	189	115
854	161	795
855	253	791
856	651	699
857	389	342
858	266	221
859	961	473
860	286	35
861	522	4
862	494	816
863	212	775
864	341	115
865	5	748
866	117	744
867	572	772
868	124	937
869	2	120
870	800	517
871	219	395
872	55	65
873	393	881
874	649	594
875	367	955
876	505	669
877	508	578
878	667	884
879	788	564
880	700	350
881	842	640
882	877	422
883	92	599
884	703	904
885	694	685
886	898	328
887	941	756
888	834	857
889	92	760
890	966	149
891	457	195
892	379	575
893	767	355
894	27	770
895	781	409
896	928	885
897	390	519
898	588	402
899	377	274
900	216	750
901	352	260
902	940	580
903	861	956
904	430	575
905	964	156
906	350	571
907	466	633
908	763	294
909	539	952
910	217	161
911	117	799
912	41	257
913	838	200
914	907	266
915	579	565
916	488	811
917	925	188
918	780	634
919	491	150
920	648	863
921	71	38
922	8	616
923	356	345
924	966	372
925	182	545
926	226	354
927	764	615
928	157	976
929	838	159
930	718	705
931	141	149
932	86	723
933	587	711
934	280	876
935	564	101
936	374	755
937	610	424
938	151	189
939	931	214
940	854	333
941	505	13
942	337	921
943	51	752
944	79	573
945	47	104
946	96	327
947	568	133
948	627	801
949	908	943
950	829	353
951	454	942
952	749	367
953	877	63
954	928	780
955	133	92
956	891	993
957	544	305
958	785	726
959	438	900
960	824	625
961	760	32
962	266	555
963	636	432
964	689	652
965	38	658
966	459	156
967	517	377
968	234	44
969	918	196
970	567	901
971	437	172
972	16	583
973	249	536
974	660	358
975	839	435
976	300	169
977	652	191
978	605	437
979	844	255
980	254	435
981	195	691
982	317	705
983	790	792
984	408	773
985	235	2
986	452	137
987	113	627
988	927	303
989	472	138
990	587	643
991	423	880
992	98	433
993	222	939
994	924	992
995	960	698
996	117	161
997	620	54
998	817	717
999	619	64
1000	864	447
1001	290	761
DEMAND_SECTION
1	0
2	7
3	5
4	3
5	4
6	7
7	4
8	4
9	9
10	2
11	4
12	4
13	2
14	6
15	4
16	7
17	5
18	9
19	6
20	8
21	2
22	9
23	3
24	1
25	1
26	5
27	3
28	2
29	3
30	3
31	4
32	5
33	8
34	6
35	2
36	4
37	2
38	1
39	2
40	5
41	1
42	3
43	2
44	4
45	2
46	5
47	8
48	6
49	7
50	3
51	6
52	3
53	3
54	2
55	4
56	9
57	4
58	1
59	8
60	4
61	9
62	3
63	5
64	4
65	2
66	7
67	6
68	9
69	5
70	4
71	7
72	6
73	4
74	8
75	9
76	9
77	4
78	8
79	9
80	6
81	8
82	3
83	8
84	9
85	1
86	8
87	5
88	9
89	5
90	5
91	1
92	5
93	9
94	1
95	1
96	5
97	8
98	4
99	8
100	8
101	3
102	3
103	2
104	8
105	1
106	8
107	6
108	8
109	2
110	2
111	3
112	5
113	2
114	5
115	6
116	9
117	3
118	2
119	7
120	4
121	1
122	4
123	6
124	2
125	4
126	8
127	2
128	2
129	8
130	5
131	3
132	1
133	4
134	3
135	5
136	1
137	1
138	4
139	9
140	4
141	1
142	5
143	5
144	1
145	3
146	6
147	6
148	9
149	3
150	8
151	4
152	7
153	2
154	1
155	3
156	3
157	6
158	6
159	2
160	3
161	9
162	8
163	4
164	8
165	4
166	2
167	1
168	2
169	1
170	9
171	9
172	6
173	4
174	4
175	2
176	1
177	7
178	2
179	7
180	6
181	8
182	1
183	2
184	5
185	6
186	2
187	7
188	6
189	5
190	5
191	5
192	8
193	3
194	3
195	7
196	6
197	4
198	1
199	9
200	9
201	2
202	9
203	8
204	6
205	8
206	5
207	1
208	8
209	3
210	4
211	6
212	5
213	1
214	5
215	6
216	9
217	2
218	5
219	9
220	1
221	2
222	2
223	9
224	5
225	1
226	4
227	1
228	8
229	1
230	9
231	2
232	3
233	9
234	6
235	9
236	3
237	2
238	4
239	6
240	1
241	3
242	6
243	9
244	7
245	3
246	8
247	8
248	2
249	9
250	5
251	4
252	4
253	3
254	1
255	5
256	7
257	5
258	4
259	3
260	4
261	2
262	2
263	3
264	8
265	3
266	8
267	1
268	2
269	9
270	1
271	6
272	3
273	9
274	1
275	5
276	1
277	4
278	9
279	2
280	7
281	5
282	7
283	7
284	5
285	8
286	3
287	9
288	1
289	9
290	7
291	3
292	7
293	6
294	4
295	8
296	9
297	4
298	9
299	9
300	5
301	5
302	2
303	1
304	8
305	7
306	3
307	2
308	1
309	7
310	2
311	7
312	8
313	2
314	6
315	3
316	1
317	3
318	7
319	7
320	4
321	6
322	5
323	8
324	4
325	3
326	7
327	2
328	6
329	2
330	4
331	2
332	1
333	8
334	4
335	7
336	5
337	5
338	4
339	6
340	5
341	5
342	1
343	1
344	6
345	1
346	7
347	4
348	9
349	7
350	3
351	2
352	8
353	8
354	7
355	8
356	6
357	9
358	9
359	2
360	5
361	7
362	5
363	3
364	8
365	9
366	6
367	8
368	7
369	4
370	4
371	8
372	3
373	9
374	2
375	4
376	3
377	2
378	8
379	9
380	8
381	6
382	8
383	8
384	2
385	6
386	7
387	6
388	9
389	9
390	2
391	6
392	3
393	6
394	2
395	9
396	2
397	8
398	9
399	6
400	1
401	2
402	6
403	2
404	5
405	9
406	3
407	9
408	4
409	4
410	8
411	5
412	9
413	4
414	4
415	2
416	8
417	6
418	6
419	8
420	8
421	4
422	3
423	2
424	3
425	6
426	9
427	9
428	9
429	3
430	3
431	9
432	5
433	2
434	2
435	1
436	3
437	2
438	8
439	1
440	3
441	4
442	5
443	4
444	1
445	1
446	7
447	5
448	4
449	4
450	2
451	1
452	8
453	9
454	7
455	3
456	9
457	9
458	7
459	5
460	2
461	9
462	6
463	5
464	4
465	6
466	8
467	7
468	7
469	4
470	4
471	3
472	8
473	4
474	6
475	9
476	4
477	9
478	6
479	1
480	8
481	1
482	2
483	7
484	7
485	5
486	6
487	8
488	7
489	1
490	2
491	7
492	7
493	5
494	3
495	3
496	5
497	5
498	4
499	2
500	1
501	7
502	7
503	1
504	9
505	6
506	3
507	9
508	5
509	5
510	1
511	3
512	6
513	8
514	8
515	2
516	4
517	3
518	1
519	4
520	3
521	3
522	3
523	4
524	6
525	2
526	8
527	6
528	4
529	4
530	1
531	7
532	4
533	7
534	6
535	2
536	4
537	4
538	8
539	9
540	5
541	8
542	9
543	5
544	2
545	6
546	1
547	4
548	7
549	4
550	1
551	4
552	7
553	6
554	2
555	8
556	4
557	5
558	8
559	1
560	4
561	6
562	7
563	7
564	8
565	5
566	8
567	3
568	1
569	2
570	7
571	6
572	5
573	9
574	8
575	9
576	7
577	2
578	5
579	9
580	6
581	2
582	7
583	3
584	8
585	6
586	8
587	7
588	7
589	4
590	4
591	5
592	5
593	2
594	4
595	6
596	2
597	8
598	6
599	5
600	3
601	1
602	9
603	8
604	2
605	2
606	2
607	8
608	5
609	9
610	7
611	2
612	3
613	9
614	5
615	8
616	9
617	9
618	4
619	3
620	6
621	7
622	5
623	6
624	8
625	1
626	4
627	6
628	6
629	8
630	9
631	1
632	3
633	7
634	6
635	2
636	6
637	2
638	3
639	4
640	1
641	4
642	1
643	2
644	3
645	3
646	4
647	5
648	6
649	9
650	6
651	2
652	7
653	2
654	7
655	2
656	6
657	7
658	3
659	3
660	3
661	9
662	7
663	4
664	5
665	2
666	7
667	7
668	9
669	9
670	9
671	6
672	3
673	3
674	6
675	6
676	5
677	2
678	2
679	9
680	9
681	4
682	1
683	3
684	4
685	7
686	5
687	8
688	6
689	6
690	4
691	9
692	8
693	2
694	8
695	6
696	5
697	1
698	6
699	8
700	9
701	2
702	7
703	7
704	1
705	3
706	9
707	7
708	7
709	4
710	5
711	5
712	5
713	2
714	5
715	4
716	9
717	3
718	2
719	8
720	9
721	4
722	4
723	1
724	8
725	8
726	6
727	4
728	8
729	9
730	6
731	6
732	2
733	8
734	7
735	2
736	9
737	2
738	3
739	1
740	3
741	5
742	5
743	9
744	5
745	8
746	6
747	3
748	4
749	1
750	8
751	7
752	9
753	2
754	8
755	7
756	9
757	5
758	4
759	6
760	3
761	1
762	2
763	5
764	1
765	6
766	9
767	4
768	2
769	6
770	1
771	9
772	2
773	7
774	8
775	2
776	5
777	9
778	7
779	8
780	6
781	8
782	9
783	6
784	2
785	5
786	8
787	9
788	8
789	8
790	1
791	7
792	4
793	8
794	3
795	7
796	4
797	6
798	9
799	6
800	1
801	7
802	2
803	5
804	8
805	6
806	3
807	7
808	5
809	8
810	4
811	7
812	8
813	1
814	7
815	5
816	3
817	4
818	3
819	1
820	6
821	9
822	2
823	1
824	6
825	3
826	2
827	4
828	1
829	7
830	1
831	8
832	4
833	9
834	5
835	5
836	6
837	2
838	7
839	9
840	7
841	2
842	5
843	5
844	9
845	7
846	3
847	4
848	9
849	1
850	6
851	9
852	8
853	6
854	7
855	6
856	8
857	5
858	3
859	7
860	7
861	9
862	2
863	1
864	6
865	1
866	2
867	5
868	2
869	1
870	4
871	4
872	1
873	9
874	3
875	6
876	5
877	3
878	5
879	3
880	1
881	2
882	6
883	6
884	9
885	1
886	1
887	6
888	8
889	4
890	7
891	1
892	3
893	1
894	6
895	2
896	8
897	4
898	3
899	4
900	3
901	4
902	8
903	8
904	2
905	5
906	7
907	8
908	1
909	1
910	7
911	5
912	5
913	6
914	2
915	3
916	7
917	9
918	3
919	6
920	6
921	9
922	6
923	2
924	5
925	7
926	9
927	1
928	6
929	7
930	1
931	7
932	1
933	7
934	8
935	2
936	2
937	6
938	1
939	7
940	5
941	5
942	5
943	8
944	3
945	2
946	5
947	9
948	5
949	5
950	8
951	1
952	8
953	9
954	6
955	3
956	7
957	6
958	7
959	6
960	4
961	4
962	1
963	4
964	5
965	2
966	1
967	4
968	4
969	5
970	7
971	6
972	8
973	2
974	6
975	8
976	7
977	7
978	7
979	2
980	9
981	5
982	3
983	1
984	3
985	9
986	4
987	8
988	3
989	2
990	5
991	5
992	5
993	3
994	5
995	9
996	8
997	9
998	6
999	2
1000	9
1001	9
DEPOT_SECTION
1
-1
EOF
