NAME : n1001-0033
COMMENT : "Generated by pyvrp_manuel (CVRP)"
TYPE : CVRP
DIMENSION : 1001
EDGE_WEIGHT_TYPE : EUC_2D
CAPACITY : 150
NODE_COORD_SECTION
1	774	437
2	467	564
3	195	483
4	643	544
5	809	320
6	345	185
7	319	919
8	423	788
9	906	159
10	107	541
11	978	789
12	798	951
13	651	888
14	584	238
15	218	434
16	149	860
17	554	74
18	280	648
19	297	467
20	438	194
21	73	283
22	341	634
23	889	945
24	701	691
25	811	381
26	674	118
27	292	346
28	485	579
29	115	646
30	527	796
31	445	761
32	398	931
33	351	903
34	57	487
35	482	290
36	98	128
37	306	182
38	723	195
39	981	255
40	557	628
41	364	505
42	936	348
43	293	58
44	357	372
45	154	385
46	450	660
47	196	983
48	593	589
49	262	774
50	392	548
51	155	212
52	869	708
53	842	70
54	147	240
55	304	944
56	194	496
57	103	488
58	36	90
59	967	815
60	520	175
61	890	882
62	780	199
63	267	705
64	540	143
65	513	519
66	108	643
67	956	251
68	248	577
69	418	577
70	799	412
71	224	264
72	267	852
73	672	704
74	425	711
75	520	138
76	324	403
77	72	268
78	246	204
79	716	490
80	526	67
81	331	866
82	841	801
83	230	781
84	837	153
85	154	100
86	460	425
87	649	844
88	403	947
89	779	653
90	454	910
91	522	987
92	980	527
93	246	980
94	903	49
95	803	731
96	619	567
97	841	456
98	239	53
99	28	206
100	795	608
101	465	272
102	45	573
103	47	102
104	567	498
105	948	253
106	622	81
107	517	781
108	2	64
109	786	231
110	249	405
111	666	512
112	274	955
113	528	446
114	668	73
115	76	93
116	355	174
117	458	23
118	104	410
119	850	847
120	323	852
121	421	767
122	347	189
123	195	750
124	522	843
125	977	440
126	834	49
127	171	307
128	526	913
129	742	911
130	566	217
131	693	618
132	966	697
133	204	295
134	100	514
135	183	796
136	139	873
137	362	246
138	710	982
139	111	604
140	361	921
141	473	324
142	72	73
143	429	204
144	725	62
145	58	202
146	256	571
147	71	654
148	641	765
149	772	465
150	739	817
151	547	266
152	269	454
153	348	935
154	454	946
155	454	436
156	392	94
157	904	575
158	267	740
159	610	998
160	830	258
161	76	636
162	795	436
163	445	37
164	742	383
165	823	206
166	643	616
167	992	574
168	791	910
169	964	446
170	628	10
171	611	68
172	85	983
173	977	358
174	963	763
175	199	457
176	293	226
177	675	179
178	405	296
179	639	261
180	242	325
181	451	103
182	727	87
183	681	72
184	645	329
185	563	810
186	858	712
187	30	301
188	906	383
189	534	768
190	234	116
191	487	486
192	555	947
193	689	832
194	671	382
195	685	783
196	696	666
197	801	24
198	996	140
199	491	585
200	199	623
201	821	5
202	148	970
203	258	808
204	587	382
205	712	980
206	161	90
207	367	336
208	920	672
209	708	6
210	538	967
211	916	14
212	202	335
213	593	793
214	147	694
215	147	417
216	943	470
217	216	422
218	613	777
219	447	809
220	600	608
221	85	836
222	951	4
223	208	90
224	332	86
225	659	635
226	923	510
227	761	105
228	259	484
229	497	219
230	699	726
231	828	739
232	520	923
233	421	497
234	515	919
235	413	917
236	840	783
237	271	401
238	309	161
239	902	615
240	380	842
241	140	612
242	103	494
243	380	367
244	652	307
245	829	981
246	576	801
247	659	11
248	794	17
249	433	414
250	875	190
251	576	472
252	262	439
253	296	152
254	449	530
255	338	533
256	673	211
257	471	927
258	18	341
259	346	106
260	867	756
261	239	6
262	332	37
263	390	121
264	390	119
265	934	875
266	263	90
267	8	10
268	526	434
269	307	69
270	837	690
271	821	818
272	140	975
273	190	693
274	492	577
275	211	636
276	998	663
277	30	680
278	773	964
279	737	860
280	886	232
281	323	799
282	927	890
283	548	341
284	423	922
285	650	391
286	230	293
287	414	12
288	921	665
289	87	62
290	628	487
291	152	278
292	447	467
293	264	832
294	98	262
295	364	65
296	724	414
297	327	431
298	975	287
299	354	700
300	633	384
301	381	354
302	302	459
303	52	34
304	763	573
305	507	438
306	55	227
307	30	574
308	142	808
309	485	270
310	418	660
311	887	507
312	746	388
313	502	546
314	600	388
315	403	681
316	208	145
317	699	66
318	442	910
319	442	674
320	486	823
321	24	852
322	714	337
323	606	303
324	862	109
325	905	83
326	221	676
327	223	370
328	211	310
329	452	80
330	942	480
331	369	331
332	413	480
333	888	174
334	596	370
335	82	158
336	312	471
337	328	822
338	224	687
339	826	484
340	560	6
341	957	13
342	959	157
343	95	350
344	557	141
345	323	283
346	290	157
347	328	653
348	863	488
349	441	436
350	806	513
351	879	260
352	944	768
353	817	880
354	838	139
355	496	984
356	11	853
357	27	965
358	391	17
359	239	214
360	668	83
361	14	289
362	613	631
363	466	57
364	199	950
365	117	62
366	258	490
367	582	958
368	72	77
369	12	633
370	191	88
371	613	383
372	44	282
373	148	790
374	111	558
375	723	921
376	418	996
377	644	913
378	117	586
379	225	139
380	767	440
381	499	816
382	138	313
383	124	230
384	805	151
385	653	741
386	677	796
387	517	171
388	669	205
389	558	449
390	479	866
391	516	260
392	238	136
393	141	390
394	859	948
395	81	635
396	245	760
397	879	251
398	908	209
399	217	339
400	664	745
401	133	190
402	586	819
403	539	727
404	72	714
405	826	810
406	713	437
407	889	820
408	200	836
409	703	891
410	797	494
411	441	92
412	827	985
413	888	36
414	77	77
415	258	643
416	421	114
417	684	279
418	946	855
419	798	369
420	964	273
421	328	658
422	228	729
423	544	670
424	565	86
425	502	202
426	79	677
427	858	672
428	767	78
429	183	105
430	13	29
431	165	994
432	322	409
433	127	119
434	609	437
435	347	369
436	895	58
437	919	637
438	122	361
439	55	604
440	191	904
441	812	784
442	87	759
443	874	13
444	56	901
445	645	652
446	302	579
447	750	301
448	402	629
449	477	522
450	162	179
451	977	716
452	528	414
453	624	312
454	473	440
455	577	848
456	610	252
457	969	301
458	318	485
459	978	523
460	692	972
461	328	362
462	325	994
463	418	856
464	97	912
465	621	528
466	657	509
467	856	691
468	228	514
469	477	35
470	651	861
471	593	470
472	384	967
473	958	346
474	654	687
475	898	477
476	463	620
477	634	575
478	566	598
479	628	714
480	894	645
481	254	39
482	703	77
483	192	535
484	191	414
485	236	413
486	80	28
487	638	733
488	175	581
489	558	257
490	979	63
491	385	825
492	616	476
493	720	78
494	157	726
495	485	158
496	991	887
497	324	979
498	651	264
499	861	401
500	690	879
501	890	42
502	628	818
503	805	277
504	567	322
505	698	318
506	227	831
507	20	565
508	973	38
509	788	814
510	939	370
511	111	670
512	544	878
513	488	66
514	71	771
515	969	236
516	152	157
517	720	250
518	973	683
519	114	766
520	841	923
521	754	93
522	409	412
523	418	319
524	794	756
525	595	852
526	112	194
527	721	589
528	770	663
529	821	462
530	547	515
531	547	525
532	390	643
533	580	474
534	808	34
535	206	303
536	299	667
537	701	47
538	906	116
539	514	714
540	990	480
541	631	625
542	135	196
543	702	647
544	359	112
545	124	423
546	340	810
547	235	727
548	570	471
549	641	582
550	869	634
551	698	475
552	714	941
553	537	598
554	579	719
555	429	969
556	555	598
557	720	245
558	465	114
559	505	945
560	589	899
561	380	158
562	621	241
563	732	221
564	741	81
565	467	172
566	419	301
567	385	128
568	918	929
569	662	801
570	582	48
571	751	290
572	919	157
573	401	761
574	968	809
575	395	157
576	349	732
577	630	288
578	264	724
579	791	269
580	365	511
581	188	775
582	290	80
583	642	752
584	670	652
585	281	764
586	980	768
587	739	206
588	996	977
589	639	510
590	580	63
591	720	150
592	891	387
593	98	566
594	70	191
595	213	56
596	209	562
597	990	462
598	513	258
599	14	120
600	818	815
601	84	191
602	468	954
603	666	845
604	743	405
605	930	84
606	566	713
607	309	720
608	927	2
609	622	77
610	1	372
611	438	995
612	631	440
613	288	432
614	276	817
615	348	621
616	594	233
617	821	33
618	459	839
619	587	785
620	887	595
621	830	467
622	564	331
623	504	545
624	538	951
625	255	542
626	1000	983
627	996	23
628	430	996
629	668	543
630	44	754
631	668	341
632	304	437
633	73	408
634	216	700
635	264	785
636	228	188
637	901	769
638	135	214
639	984	221
640	427	234
641	446	861
642	822	110
643	220	401
644	538	360
645	156	947
646	589	58
647	75	221
648	855	518
649	713	591
650	698	625
651	760	59
652	418	569
653	759	567
654	320	452
655	667	18
656	171	790
657	938	863
658	151	477
659	975	951
660	729	125
661	764	18
662	116	439
663	645	221
664	204	303
665	488	880
666	826	666
667	289	530
668	753	913
669	174	325
670	449	352
671	950	25
672	373	577
673	969	739
674	778	859
675	178	339
676	491	554
677	578	964
678	635	698
679	673	155
680	973	236
681	571	737
682	619	832
683	170	320
684	613	892
685	442	650
686	682	530
687	791	570
688	294	29
689	199	240
690	703	617
691	498	804
692	583	575
693	95	366
694	438	29
695	80	181
696	859	45
697	790	842
698	367	42
699	476	646
700	587	974
701	40	119
702	554	560
703	96	241
704	292	83
705	613	258
706	103	771
707	699	150
708	709	52
709	431	131
710	771	228
711	136	35
712	648	692
713	211	242
714	566	450
715	201	672
716	608	1000
717	694	336
718	124	20
719	436	715
720	12	102
721	217	139
722	659	284
723	208	787
724	230	79
725	219	141
726	813	865
727	66	486
728	508	366
729	344	659
730	203	625
731	592	852
732	855	887
733	428	823
734	907	920
735	751	192
736	268	388
737	785	761
738	915	570
739	390	891
740	956	310
741	331	340
742	282	783
743	379	799
744	538	767
745	136	293
746	404	849
747	333	821
748	262	597
749	142	156
750	619	902
751	749	376
752	606	76
753	76	440
754	676	321
755	223	48
756	441	101
757	784	601
758	710	759
759	647	705
760	972	512
761	335	737
762	628	663
763	539	752
764	913	566
765	132	709
766	14	665
767	750	702
768	600	259
769	168	689
770	75	380
771	54	566
772	878	171
773	910	650
774	613	809
775	945	705
776	924	390
777	542	92
778	325	462
779	886	308
780	185	998
781	579	94
782	792	597
783	609	282
784	375	37
785	473	378
786	133	311
787	763	687
788	765	52
789	362	345
790	386	455
791	784	462
792	575	606
793	422	255
794	128	847
795	774	905
796	346	790
797	35	218
798	189	83
799	469	181
800	969	331
801	626	986
802	899	810
803	641	172
804	176	969
805	448	140
806	360	710
807	301	287
808	536	299
809	649	545
810	698	0
811	832	209
812	724	131
813	188	20
814	514	584
815	190	309
816	453	504
817	714	159
818	182	938
819	441	59
820	59	124
821	490	318
822	47	586
823	998	947
824	198	710
825	449	928
826	470	795
827	738	709
828	593	253
829	230	303
830	487	357
831	837	854
832	617	575
833	677	107
834	241	688
835	38	667
836	556	498
837	987	639
838	544	447
839	400	892
840	616	185
841	424	409
842	944	76
843	283	504
844	292	866
845	137	656
846	89	965
847	406	942
848	306	189
849	667	917
850	997	739
851	416	567
852	357	100
853	555	775
854	231	253
855	91	29
856	302	327
857	117	876
858	143	667
859	992	604
860	818	672
861	566	137
862	825	597
863	427	611
864	856	454
865	53	508
866	207	353
867	107	950
868	148	977
869	725	743
870	937	24
871	694	183
872	838	114
873	899	231
874	646	953
875	817	998
876	129	175
877	476	828
878	554	455
879	390	638
880	855	605
881	146	530
882	407	166
883	523	85
884	325	640
885	658	960
886	495	594
887	977	349
888	52	98
889	348	736
890	930	990
891	361	228
892	665	95
893	521	861
894	7	771
895	159	195
896	840	226
897	781	936
898	670	445
899	147	734
900	865	573
901	59	390
902	496	699
903	694	926
904	676	716
905	404	194
906	557	949
907	670	804
908	790	606
909	206	788
910	363	769
911	980	283
912	212	480
913	170	548
914	768	732
915	373	959
916	499	698
917	294	180
918	17	21
919	212	591
920	691	161
921	307	855
922	289	169
923	67	614
924	690	451
925	927	555
926	436	138
927	536	321
928	678	718
929	454	48
930	658	464
931	753	334
932	160	766
933	573	463
934	160	105
935	854	160
936	760	634
937	202	767
938	516	179
939	906	918
940	511	576
941	112	605
942	744	40
943	831	39
944	6	248
945	720	368
946	470	957
947	851	321
948	338	367
949	744	346
950	875	551
951	985	262
952	64	624
953	403	546
954	552	307
955	417	228
956	214	953
957	497	923
958	265	886
959	733	645
960	533	741
961	588	421
962	622	745
963	379	758
964	517	165
965	386	302
966	643	323
967	191	941
968	676	368
969	71	251
970	829	40
971	109	885
972	512	764
973	752	579
974	344	705
975	970	269
976	763	892
977	802	959
978	126	787
979	939	658
980	242	476
981	210	200
982	124	233
983	961	149
984	222	348
985	747	379
986	566	387
987	41	4
988	798	723
989	218	647
990	81	987
991	807	801
992	436	481
993	592	910
994	196	424
995	121	837
996	256	167
997	339	15
998	868	506
999	251	32
1000	840	246
1001	157	995
DEMAND_SECTION
1	0
2	4
3	3
4	2
5	7
6	7
7	8
8	2
9	5
10	4
11	5
12	7
13	7
14	3
15	9
16	4
17	1
18	7
19	2
20	8
21	4
22	2
23	5
24	6
25	1
26	7
27	6
28	1
29	4
30	3
31	9
32	1
33	7
34	6
35	6
36	4
37	7
38	3
39	8
40	7
41	9
42	8
43	8
44	9
45	3
46	9
47	8
48	3
49	3
50	3
51	4
52	3
53	7
54	2
55	5
56	4
57	7
58	7
59	9
60	8
61	5
62	7
63	8
64	9
65	2
66	2
67	3
68	1
69	4
70	5
71	2
72	2
73	6
74	4
75	6
76	7
77	5
78	9
79	1
80	4
81	3
82	6
83	5
84	2
85	1
86	3
87	8
88	4
89	8
90	2
91	4
92	6
93	8
94	4
95	7
96	7
97	5
98	1
99	2
100	4
101	9
102	2
103	6
104	2
105	5
106	3
107	3
108	4
109	1
110	1
111	1
112	2
113	7
114	8
115	9
116	3
117	3
118	6
119	3
120	4
121	4
122	5
123	2
124	5
125	5
126	8
127	6
128	7
129	5
130	7
131	6
132	9
133	4
134	7
135	2
136	4
137	2
138	4
139	4
140	6
141	8
142	4
143	9
144	3
145	7
146	6
147	4
148	8
149	1
150	6
151	8
152	2
153	3
154	5
155	4
156	8
157	3
158	3
159	4
160	7
161	8
162	7
163	4
164	4
165	8
166	5
167	3
168	5
169	7
170	2
171	7
172	7
173	8
174	4
175	9
176	2
177	7
178	5
179	5
180	1
181	7
182	1
183	2
184	7
185	7
186	2
187	5
188	2
189	8
190	8
191	8
192	7
193	5
194	5
195	8
196	1
197	4
198	5
199	2
200	1
201	6
202	8
203	6
204	6
205	5
206	8
207	2
208	3
209	4
210	4
211	1
212	7
213	5
214	7
215	7
216	9
217	5
218	8
219	1
220	3
221	2
222	1
223	5
224	2
225	2
226	3
227	5
228	3
229	8
230	6
231	9
232	3
233	5
234	6
235	5
236	7
237	2
238	5
239	7
240	9
241	4
242	1
243	2
244	4
245	7
246	8
247	9
248	5
249	6
250	2
251	4
252	9
253	6
254	5
255	6
256	6
257	2
258	9
259	9
260	5
261	2
262	5
263	6
264	3
265	3
266	6
267	4
268	2
269	6
270	9
271	2
272	3
273	8
274	4
275	6
276	3
277	5
278	3
279	1
280	1
281	2
282	2
283	9
284	6
285	3
286	2
287	6
288	3
289	2
290	7
291	3
292	1
293	1
294	1
295	7
296	1
297	7
298	2
299	4
300	5
301	1
302	1
303	6
304	1
305	2
306	1
307	9
308	5
309	5
310	5
311	9
312	4
313	1
314	9
315	8
316	3
317	8
318	5
319	7
320	8
321	7
322	9
323	5
324	6
325	8
326	8
327	7
328	8
329	3
330	1
331	6
332	1
333	3
334	1
335	1
336	9
337	3
338	1
339	6
340	4
341	1
342	8
343	5
344	8
345	7
346	6
347	2
348	8
349	4
350	3
351	5
352	2
353	3
354	8
355	3
356	2
357	6
358	8
359	7
360	4
361	5
362	5
363	4
364	4
365	8
366	2
367	4
368	5
369	4
370	4
371	3
372	4
373	6
374	3
375	9
376	7
377	6
378	1
379	8
380	5
381	6
382	2
383	5
384	5
385	3
386	2
387	6
388	7
389	1
390	5
391	5
392	1
393	8
394	6
395	6
396	1
397	8
398	4
399	5
400	1
401	2
402	8
403	8
404	9
405	6
406	4
407	4
408	3
409	2
410	2
411	7
412	4
413	6
414	6
415	6
416	1
417	6
418	7
419	5
420	6
421	2
422	4
423	1
424	6
425	2
426	1
427	9
428	5
429	6
430	8
431	4
432	8
433	9
434	6
435	6
436	6
437	6
438	1
439	9
440	5
441	8
442	4
443	6
444	1
445	9
446	9
447	3
448	4
449	9
450	1
451	4
452	7
453	4
454	7
455	2
456	7
457	1
458	8
459	9
460	7
461	9
462	9
463	8
464	4
465	1
466	4
467	6
468	5
469	8
470	8
471	4
472	5
473	1
474	5
475	9
476	5
477	7
478	7
479	2
480	5
481	5
482	7
483	7
484	9
485	5
486	4
487	6
488	4
489	4
490	5
491	8
492	9
493	7
494	6
495	8
496	7
497	5
498	2
499	4
500	1
501	7
502	3
503	5
504	2
505	2
506	9
507	1
508	4
509	1
510	7
511	7
512	2
513	7
514	9
515	3
516	1
517	8
518	6
519	2
520	4
521	7
522	6
523	6
524	9
525	4
526	1
527	5
528	9
529	7
530	8
531	4
532	7
533	4
534	3
535	8
536	2
537	5
538	3
539	1
540	7
541	7
542	8
543	1
544	6
545	3
546	9
547	7
548	1
549	2
550	7
551	6
552	1
553	6
554	1
555	5
556	7
557	6
558	1
559	1
560	4
561	5
562	4
563	9
564	4
565	1
566	3
567	2
568	3
569	2
570	9
571	4
572	1
573	4
574	2
575	8
576	7
577	6
578	6
579	4
580	9
581	4
582	9
583	6
584	8
585	9
586	8
587	8
588	1
589	2
590	2
591	9
592	1
593	3
594	8
595	6
596	8
597	1
598	6
599	5
600	7
601	5
602	2
603	9
604	4
605	7
606	3
607	7
608	4
609	3
610	2
611	3
612	4
613	2
614	8
615	3
616	8
617	3
618	5
619	9
620	5
621	7
622	2
623	1
624	7
625	7
626	1
627	9
628	7
629	5
630	7
631	9
632	4
633	5
634	2
635	7
636	2
637	5
638	5
639	5
640	8
641	5
642	7
643	5
644	1
645	9
646	8
647	1
648	8
649	1
650	7
651	5
652	6
653	6
654	6
655	9
656	5
657	8
658	7
659	5
660	8
661	4
662	6
663	8
664	3
665	3
666	5
667	4
668	9
669	1
670	9
671	5
672	5
673	3
674	6
675	2
676	8
677	9
678	4
679	5
680	8
681	4
682	1
683	2
684	8
685	4
686	3
687	7
688	8
689	6
690	3
691	9
692	4
693	3
694	3
695	2
696	4
697	6
698	5
699	5
700	4
701	3
702	7
703	8
704	5
705	5
706	1
707	3
708	8
709	7
710	3
711	8
712	3
713	7
714	5
715	5
716	5
717	8
718	1
719	5
720	3
721	7
722	2
723	7
724	5
725	7
726	3
727	8
728	9
729	1
730	9
731	1
732	9
733	2
734	6
735	2
736	1
737	9
738	9
739	8
740	1
741	9
742	8
743	8
744	7
745	6
746	7
747	1
748	7
749	1
750	2
751	4
752	3
753	5
754	7
755	3
756	8
757	6
758	3
759	4
760	1
761	7
762	5
763	8
764	4
765	4
766	5
767	1
768	6
769	4
770	9
771	1
772	9
773	6
774	9
775	5
776	8
777	8
778	2
779	3
780	7
781	5
782	1
783	4
784	6
785	4
786	3
787	1
788	5
789	9
790	4
791	4
792	6
793	2
794	9
795	4
796	1
797	9
798	5
799	3
800	7
801	1
802	1
803	1
804	8
805	5
806	5
807	1
808	8
809	3
810	8
811	7
812	8
813	8
814	1
815	1
816	9
817	7
818	4
819	7
820	3
821	5
822	1
823	4
824	9
825	4
826	4
827	5
828	4
829	1
830	9
831	2
832	3
833	3
834	7
835	8
836	2
837	6
838	6
839	9
840	8
841	3
842	1
843	8
844	8
845	3
846	1
847	8
848	9
849	5
850	4
851	1
852	6
853	5
854	5
855	8
856	2
857	9
858	2
859	3
860	2
861	2
862	2
863	6
864	5
865	4
866	6
867	5
868	4
869	7
870	1
871	3
872	9
873	9
874	2
875	8
876	3
877	4
878	9
879	6
880	8
881	5
882	7
883	8
884	4
885	7
886	9
887	7
888	1
889	7
890	2
891	9
892	1
893	3
894	2
895	4
896	8
897	2
898	8
899	2
900	5
901	8
902	7
903	5
904	2
905	1
906	2
907	2
908	4
909	9
910	9
911	6
912	6
913	7
914	3
915	7
916	2
917	6
918	7
919	2
920	3
921	1
922	3
923	3
924	9
925	3
926	5
927	2
928	6
929	7
930	5
931	8
932	9
933	1
934	4
935	6
936	2
937	1
938	1
939	2
940	6
941	3
942	3
943	9
944	1
945	9
946	4
947	6
948	1
949	9
950	5
951	5
952	7
953	6
954	3
955	2
956	7
957	6
958	1
959	9
960	1
961	4
962	2
963	5
964	5
965	2
966	1
967	3
968	6
969	1
970	5
971	6
972	2
973	2
974	2
975	2
976	8
977	4
978	8
979	3
980	4
981	3
982	4
983	6
984	8
985	9
986	1
987	7
988	7
989	7
990	2
991	5
992	3
993	5
994	6
995	6
996	4
997	4
998	2
999	1
1000	9
1001	3
DEPOT_SECTION
1
-1
EOF
