NAME : n1001-0003
COMMENT : "Generated by pyvrp_manuel (CVRP)"
TYPE : CVRP
DIMENSION : 1001
EDGE_WEIGHT_TYPE : EUC_2D
CAPACITY : 150
NODE_COORD_SECTION
1	307	634
2	542	278
3	617	167
4	965	938
5	731	765
6	3	222
7	19	239
8	85	868
9	770	794
10	278	881
11	428	370
12	769	831
13	141	976
14	450	633
15	2	556
16	253	187
17	291	498
18	358	180
19	858	649
20	35	605
21	623	518
22	621	458
23	719	148
24	287	875
25	190	745
26	963	43
27	281	927
28	470	599
29	571	706
30	294	565
31	841	458
32	41	673
33	372	395
34	761	588
35	198	269
36	424	376
37	394	158
38	862	759
39	599	613
40	559	874
41	613	576
42	225	667
43	32	658
44	67	293
45	764	202
46	898	224
47	974	654
48	283	805
49	57	183
50	187	566
51	549	70
52	982	500
53	233	512
54	285	638
55	681	358
56	529	798
57	175	389
58	426	169
59	541	518
60	96	603
61	977	766
62	229	958
63	156	246
64	721	898
65	977	930
66	225	614
67	186	511
68	914	746
69	38	285
70	78	736
71	437	134
72	340	664
73	546	969
74	493	657
75	349	560
76	518	929
77	710	215
78	56	24
79	318	565
80	970	451
81	695	754
82	117	86
83	689	733
84	267	578
85	10	506
86	623	505
87	421	708
88	363	872
89	69	214
90	83	48
91	871	376
92	107	604
93	121	526
94	738	394
95	757	603
96	99	598
97	822	384
98	547	564
99	543	630
100	21	879
101	718	562
102	591	97
103	357	478
104	619	226
105	553	345
106	864	71
107	552	839
108	112	486
109	731	702
110	559	702
111	151	916
112	511	823
113	611	444
114	714	975
115	993	79
116	530	141
117	791	859
118	149	471
119	846	831
120	124	836
121	411	75
122	600	733
123	800	160
124	138	164
125	783	63
126	496	353
127	718	598
128	248	587
129	960	582
130	252	517
131	41	179
132	407	188
133	923	597
134	887	386
135	430	626
136	351	330
137	10	877
138	953	5
139	335	122
140	297	881
141	767	461
142	714	649
143	773	98
144	655	26
145	171	314
146	451	28
147	512	580
148	302	662
149	937	415
150	234	57
151	135	223
152	130	303
153	775	656
154	951	996
155	320	304
156	568	102
157	772	410
158	81	123
159	155	637
160	883	896
161	362	210
162	278	158
163	371	48
164	767	29
165	189	836
166	126	620
167	875	993
168	753	366
169	786	483
170	346	502
171	612	835
172	710	739
173	575	475
174	710	620
175	22	581
176	278	235
177	693	602
178	585	263
179	731	969
180	561	706
181	61	797
182	674	725
183	709	368
184	470	984
185	866	142
186	897	998
187	566	110
188	597	399
189	859	20
190	628	494
191	539	844
192	509	97
193	208	300
194	553	693
195	407	303
196	719	14
197	849	442
198	848	878
199	553	658
200	217	858
201	793	421
202	695	472
203	891	706
204	865	46
205	987	686
206	743	611
207	828	971
208	457	90
209	959	395
210	259	808
211	779	567
212	469	404
213	958	805
214	798	819
215	238	604
216	67	790
217	4	0
218	6	808
219	552	501
220	580	311
221	348	163
222	378	192
223	513	893
224	87	746
225	128	293
226	598	586
227	910	500
228	310	293
229	515	125
230	108	286
231	513	162
232	215	857
233	962	343
234	71	309
235	702	662
236	345	60
237	350	388
238	788	252
239	800	569
240	416	54
241	994	411
242	815	241
243	13	101
244	244	341
245	429	917
246	39	750
247	921	503
248	188	516
249	619	721
250	348	328
251	264	16
252	676	122
253	260	495
254	885	945
255	136	934
256	948	904
257	544	902
258	743	141
259	236	509
260	146	335
261	903	733
262	935	504
263	245	831
264	537	584
265	288	705
266	131	899
267	937	680
268	889	803
269	309	66
270	566	814
271	449	542
272	871	706
273	874	573
274	556	380
275	416	234
276	834	956
277	686	514
278	335	6
279	407	145
280	131	401
281	402	601
282	138	859
283	45	263
284	310	531
285	707	368
286	578	382
287	303	430
288	601	14
289	152	891
290	726	487
291	516	569
292	616	159
293	364	41
294	107	406
295	434	891
296	586	419
297	486	779
298	349	407
299	400	97
300	430	38
301	231	182
302	872	39
303	982	687
304	162	914
305	390	77
306	431	747
307	14	463
308	703	305
309	546	304
310	165	892
311	145	494
312	667	221
313	741	85
314	978	723
315	429	84
316	515	677
317	228	437
318	2	0
319	446	918
320	476	657
321	300	337
322	445	247
323	806	812
324	111	653
325	293	212
326	439	345
327	215	574
328	785	423
329	465	538
330	285	765
331	961	454
332	534	903
333	910	128
334	268	10
335	806	890
336	318	660
337	621	70
338	700	745
339	511	551
340	616	860
341	942	572
342	713	369
343	798	303
344	88	735
345	685	610
346	713	559
347	670	704
348	230	473
349	575	424
350	80	547
351	806	233
352	991	614
353	713	307
354	91	314
355	515	272
356	945	180
357	163	323
358	949	271
359	963	740
360	424	759
361	738	246
362	397	984
363	787	256
364	366	780
365	754	540
366	178	131
367	394	684
368	447	82
369	377	999
370	87	112
371	814	998
372	19	48
373	344	999
374	216	543
375	908	323
376	347	164
377	519	967
378	704	851
379	467	421
380	411	785
381	434	73
382	324	696
383	987	409
384	65	132
385	107	702
386	869	648
387	672	826
388	842	799
389	780	635
390	758	157
391	176	634
392	578	60
393	136	102
394	897	827
395	237	575
396	385	935
397	47	135
398	84	791
399	250	798
400	669	256
401	365	298
402	721	299
403	670	536
404	101	186
405	153	762
406	608	487
407	202	5
408	323	117
409	3	23
410	173	14
411	656	687
412	702	2
413	809	597
414	756	377
415	740	26
416	670	896
417	710	29
418	360	438
419	762	311
420	572	324
421	421	490
422	213	153
423	913	920
424	485	933
425	885	185
426	301	157
427	662	513
428	431	871
429	305	226
430	145	246
431	982	257
432	362	725
433	116	197
434	868	308
435	241	435
436	429	591
437	683	114
438	954	25
439	669	359
440	289	968
441	18	534
442	820	947
443	77	560
444	995	10
445	622	187
446	581	48
447	746	389
448	799	492
449	429	379
450	42	288
451	517	113
452	939	175
453	305	433
454	95	496
455	259	81
456	512	943
457	623	912
458	495	325
459	903	234
460	37	609
461	749	201
462	676	323
463	439	389
464	393	93
465	623	368
466	882	583
467	91	120
468	239	739
469	177	271
470	591	153
471	254	953
472	236	333
473	858	612
474	892	60
475	750	424
476	180	286
477	16	846
478	404	10
479	928	824
480	707	989
481	952	967
482	948	906
483	631	458
484	519	292
485	735	514
486	618	178
487	312	875
488	549	673
489	63	286
490	487	448
491	819	349
492	917	403
493	694	148
494	585	13
495	71	180
496	640	539
497	548	445
498	920	990
499	712	898
500	475	316
501	597	829
502	423	116
503	665	373
504	259	816
505	483	214
506	201	971
507	825	141
508	500	489
509	738	72
510	507	667
511	754	552
512	252	20
513	770	956
514	349	53
515	646	149
516	173	636
517	453	466
518	948	412
519	804	344
520	872	653
521	946	674
522	323	718
523	926	595
524	731	148
525	771	27
526	942	707
527	533	32
528	955	819
529	961	697
530	668	370
531	295	698
532	673	484
533	580	672
534	17	58
535	367	841
536	744	23
537	350	447
538	664	909
539	511	111
540	531	307
541	194	777
542	433	736
543	889	549
544	782	264
545	779	520
546	832	978
547	122	975
548	882	97
549	647	93
550	662	577
551	23	682
552	363	998
553	988	673
554	894	681
555	973	454
556	624	417
557	491	349
558	302	789
559	715	279
560	59	744
561	40	478
562	70	919
563	907	89
564	35	204
565	638	250
566	381	373
567	592	263
568	727	142
569	455	919
570	224	884
571	760	338
572	673	162
573	540	642
574	932	220
575	216	250
576	13	601
577	86	366
578	277	528
579	652	137
580	352	452
581	211	616
582	685	144
583	893	855
584	350	574
585	561	431
586	164	912
587	746	82
588	112	975
589	580	385
590	839	644
591	679	897
592	461	976
593	149	196
594	585	439
595	785	364
596	579	396
597	875	467
598	508	866
599	986	978
600	11	217
601	391	397
602	789	726
603	459	512
604	607	931
605	759	248
606	244	658
607	449	179
608	16	572
609	354	209
610	594	987
611	915	785
612	123	785
613	759	667
614	375	491
615	229	387
616	418	429
617	2	676
618	91	126
619	703	91
620	977	979
621	341	414
622	117	531
623	591	226
624	657	481
625	353	498
626	15	148
627	566	983
628	204	821
629	546	285
630	501	740
631	559	943
632	405	166
633	952	357
634	817	830
635	589	90
636	9	737
637	622	791
638	59	431
639	932	763
640	916	893
641	377	160
642	202	670
643	302	502
644	580	810
645	779	785
646	520	782
647	266	300
648	421	210
649	946	423
650	645	484
651	493	234
652	463	53
653	261	885
654	31	582
655	580	21
656	598	732
657	862	594
658	891	519
659	691	648
660	131	390
661	148	888
662	739	288
663	409	633
664	64	514
665	739	563
666	454	821
667	717	56
668	794	106
669	781	921
670	546	331
671	242	278
672	408	293
673	996	284
674	708	36
675	753	925
676	142	372
677	619	21
678	184	674
679	971	351
680	495	17
681	20	935
682	924	348
683	302	468
684	732	17
685	223	335
686	282	487
687	865	609
688	48	962
689	903	657
690	745	687
691	910	19
692	189	437
693	405	168
694	21	118
695	422	924
696	831	644
697	193	299
698	548	37
699	477	602
700	952	369
701	991	538
702	153	973
703	933	105
704	210	739
705	192	840
706	261	345
707	356	977
708	331	403
709	803	158
710	498	114
711	39	386
712	555	926
713	21	356
714	632	689
715	792	98
716	378	616
717	99	752
718	23	812
719	663	358
720	662	923
721	868	803
722	209	644
723	875	588
724	831	190
725	851	483
726	51	370
727	942	325
728	413	300
729	228	587
730	803	559
731	469	529
732	125	237
733	525	100
734	748	576
735	505	468
736	922	956
737	744	748
738	258	704
739	162	716
740	145	497
741	862	832
742	942	671
743	694	634
744	865	762
745	648	326
746	258	376
747	739	228
748	637	937
749	923	132
750	643	827
751	46	820
752	188	138
753	288	312
754	293	644
755	694	694
756	845	184
757	25	99
758	225	271
759	720	138
760	134	768
761	182	594
762	119	691
763	812	79
764	670	238
765	817	950
766	78	687
767	838	955
768	878	598
769	529	603
770	202	402
771	492	184
772	478	434
773	325	346
774	2	976
775	746	861
776	74	10
777	872	412
778	578	751
779	532	483
780	797	899
781	361	73
782	226	857
783	543	928
784	325	26
785	655	287
786	201	812
787	535	457
788	987	936
789	92	40
790	253	112
791	237	837
792	167	959
793	656	522
794	586	606
795	661	93
796	491	832
797	997	474
798	143	730
799	43	946
800	807	725
801	568	863
802	298	83
803	224	872
804	250	101
805	610	189
806	479	183
807	606	418
808	566	731
809	178	330
810	167	916
811	321	688
812	615	7
813	145	372
814	117	765
815	814	499
816	561	632
817	666	403
818	303	191
819	520	895
820	438	930
821	675	243
822	694	700
823	277	412
824	448	677
825	890	390
826	825	770
827	67	866
828	480	886
829	889	16
830	84	443
831	661	420
832	19	772
833	214	727
834	853	331
835	801	566
836	343	532
837	680	756
838	213	874
839	264	69
840	284	57
841	640	534
842	476	162
843	764	582
844	375	589
845	676	200
846	356	273
847	943	624
848	123	853
849	421	534
850	565	442
851	973	717
852	608	318
853	615	136
854	327	754
855	8	487
856	316	755
857	188	587
858	356	919
859	425	135
860	345	852
861	691	607
862	812	693
863	436	235
864	22	740
865	890	309
866	275	586
867	454	884
868	491	485
869	35	653
870	502	618
871	806	713
872	501	461
873	247	952
874	916	498
875	999	939
876	787	757
877	698	412
878	550	907
879	416	656
880	339	582
881	790	811
882	745	738
883	380	955
884	851	973
885	96	273
886	85	544
887	882	158
888	631	490
889	34	480
890	441	257
891	188	796
892	449	401
893	361	436
894	362	200
895	713	493
896	53	249
897	398	309
898	618	968
899	139	493
900	934	209
901	110	633
902	494	493
903	814	72
904	201	847
905	149	433
906	732	227
907	112	201
908	128	72
909	418	36
910	196	537
911	966	993
912	918	555
913	811	344
914	179	751
915	697	676
916	733	374
917	868	772
918	282	867
919	680	517
920	508	930
921	516	676
922	865	527
923	953	204
924	451	540
925	527	137
926	977	219
927	861	301
928	699	224
929	282	632
930	844	460
931	688	224
932	658	444
933	386	746
934	334	195
935	358	749
936	979	952
937	849	191
938	947	704
939	589	210
940	234	629
941	456	359
942	118	926
943	655	566
944	547	769
945	198	480
946	941	422
947	72	202
948	810	763
949	845	323
950	268	58
951	534	392
952	974	275
953	182	703
954	318	454
955	999	812
956	2	524
957	516	989
958	68	808
959	9	8
960	244	22
961	469	904
962	361	121
963	457	93
964	839	572
965	943	712
966	679	668
967	964	187
968	194	885
969	681	958
970	617	681
971	808	826
972	774	108
973	645	158
974	565	774
975	333	934
976	945	644
977	138	510
978	889	590
979	936	536
980	268	826
981	665	776
982	201	121
983	835	675
984	866	83
985	270	484
986	240	812
987	897	933
988	570	46
989	321	616
990	365	714
991	366	913
992	933	995
993	666	162
994	371	233
995	725	456
996	700	645
997	347	569
998	423	587
999	169	509
1000	881	759
1001	189	917
DEMAND_SECTION
1	0
2	7
3	1
4	1
5	3
6	4
7	3
8	2
9	6
10	7
11	2
12	9
13	8
14	8
15	4
16	5
17	7
18	7
19	5
20	2
21	3
22	1
23	1
24	8
25	7
26	3
27	9
28	9
29	3
30	2
31	3
32	8
33	7
34	7
35	3
36	2
37	6
38	7
39	4
40	5
41	3
42	2
43	7
44	1
45	3
46	7
47	4
48	8
49	6
50	3
51	7
52	7
53	2
54	1
55	2
56	4
57	4
58	2
59	4
60	5
61	4
62	6
63	7
64	9
65	6
66	6
67	9
68	5
69	6
70	1
71	4
72	2
73	7
74	9
75	7
76	4
77	5
78	6
79	9
80	3
81	4
82	3
83	2
84	2
85	9
86	7
87	4
88	3
89	3
90	5
91	8
92	3
93	5
94	5
95	2
96	6
97	4
98	8
99	5
100	3
101	1
102	3
103	3
104	7
105	9
106	2
107	2
108	2
109	1
110	2
111	8
112	1
113	7
114	6
115	9
116	6
117	7
118	9
119	2
120	5
121	6
122	1
123	6
124	7
125	2
126	2
127	4
128	2
129	7
130	1
131	8
132	7
133	5
134	3
135	4
136	7
137	7
138	3
139	2
140	8
141	9
142	9
143	5
144	3
145	9
146	1
147	4
148	1
149	6
150	8
151	8
152	5
153	9
154	3
155	6
156	2
157	8
158	8
159	2
160	6
161	1
162	8
163	9
164	5
165	6
166	3
167	1
168	9
169	7
170	6
171	4
172	9
173	1
174	8
175	3
176	9
177	8
178	7
179	1
180	6
181	3
182	7
183	9
184	5
185	1
186	4
187	5
188	2
189	9
190	3
191	9
192	9
193	8
194	4
195	7
196	4
197	8
198	8
199	3
200	8
201	9
202	5
203	4
204	1
205	3
206	6
207	5
208	3
209	8
210	4
211	8
212	4
213	2
214	5
215	6
216	4
217	3
218	2
219	4
220	5
221	5
222	7
223	4
224	8
225	5
226	1
227	1
228	1
229	1
230	5
231	6
232	6
233	3
234	1
235	8
236	2
237	1
238	8
239	7
240	8
241	1
242	5
243	9
244	6
245	3
246	6
247	5
248	2
249	1
250	3
251	6
252	5
253	3
254	8
255	4
256	6
257	7
258	5
259	9
260	1
261	1
262	3
263	7
264	2
265	6
266	6
267	3
268	4
269	4
270	4
271	9
272	6
273	6
274	2
275	9
276	8
277	8
278	2
279	1
280	5
281	7
282	1
283	4
284	4
285	5
286	2
287	1
288	5
289	7
290	9
291	3
292	2
293	3
294	2
295	1
296	2
297	7
298	5
299	5
300	6
301	4
302	7
303	1
304	3
305	1
306	8
307	8
308	2
309	5
310	9
311	1
312	4
313	5
314	7
315	2
316	4
317	4
318	3
319	5
320	5
321	5
322	6
323	9
324	4
325	7
326	6
327	4
328	4
329	8
330	1
331	8
332	5
333	1
334	6
335	4
336	7
337	8
338	1
339	4
340	3
341	1
342	8
343	1
344	8
345	3
346	1
347	3
348	7
349	1
350	9
351	4
352	4
353	7
354	7
355	7
356	5
357	3
358	6
359	5
360	3
361	1
362	2
363	6
364	6
365	9
366	5
367	1
368	7
369	2
370	2
371	4
372	1
373	4
374	2
375	4
376	2
377	5
378	8
379	7
380	5
381	6
382	7
383	1
384	5
385	4
386	8
387	1
388	1
389	9
390	4
391	7
392	6
393	8
394	4
395	3
396	9
397	2
398	4
399	9
400	4
401	6
402	2
403	3
404	7
405	4
406	3
407	6
408	4
409	6
410	2
411	2
412	6
413	9
414	4
415	3
416	3
417	5
418	8
419	9
420	9
421	6
422	6
423	4
424	8
425	7
426	1
427	9
428	6
429	6
430	4
431	9
432	8
433	5
434	8
435	2
436	4
437	6
438	9
439	6
440	9
441	8
442	4
443	6
444	7
445	6
446	4
447	3
448	4
449	2
450	7
451	4
452	8
453	8
454	6
455	3
456	2
457	8
458	6
459	1
460	4
461	8
462	2
463	1
464	9
465	2
466	8
467	8
468	7
469	1
470	6
471	6
472	7
473	6
474	4
475	4
476	9
477	4
478	4
479	4
480	7
481	5
482	3
483	6
484	2
485	9
486	9
487	6
488	9
489	4
490	1
491	7
492	4
493	2
494	8
495	9
496	4
497	8
498	7
499	8
500	7
501	7
502	8
503	9
504	6
505	7
506	4
507	8
508	3
509	8
510	9
511	3
512	4
513	2
514	9
515	2
516	1
517	1
518	6
519	2
520	6
521	1
522	4
523	9
524	1
525	9
526	5
527	7
528	1
529	2
530	8
531	3
532	7
533	4
534	5
535	5
536	6
537	1
538	1
539	9
540	7
541	7
542	5
543	9
544	1
545	8
546	6
547	7
548	4
549	1
550	5
551	3
552	2
553	8
554	2
555	1
556	3
557	8
558	9
559	9
560	1
561	7
562	6
563	5
564	8
565	5
566	1
567	7
568	5
569	7
570	5
571	1
572	3
573	9
574	8
575	9
576	7
577	5
578	5
579	9
580	5
581	6
582	4
583	5
584	3
585	3
586	8
587	6
588	3
589	2
590	5
591	5
592	2
593	9
594	3
595	6
596	9
597	3
598	5
599	7
600	2
601	3
602	7
603	3
604	1
605	1
606	7
607	7
608	3
609	4
610	3
611	1
612	7
613	2
614	5
615	5
616	3
617	6
618	3
619	4
620	3
621	4
622	9
623	3
624	5
625	8
626	4
627	4
628	4
629	7
630	3
631	6
632	9
633	8
634	4
635	4
636	8
637	3
638	3
639	1
640	8
641	1
642	6
643	5
644	9
645	7
646	5
647	2
648	7
649	6
650	9
651	8
652	5
653	3
654	3
655	1
656	2
657	5
658	5
659	4
660	1
661	6
662	9
663	9
664	8
665	3
666	6
667	2
668	6
669	3
670	2
671	3
672	7
673	8
674	5
675	7
676	2
677	6
678	8
679	6
680	5
681	9
682	3
683	7
684	2
685	9
686	8
687	2
688	2
689	2
690	8
691	9
692	4
693	6
694	2
695	2
696	1
697	8
698	7
699	3
700	7
701	5
702	2
703	1
704	5
705	5
706	8
707	1
708	1
709	8
710	1
711	7
712	5
713	7
714	8
715	7
716	7
717	7
718	1
719	8
720	6
721	3
722	3
723	5
724	1
725	5
726	8
727	4
728	9
729	7
730	7
731	6
732	3
733	7
734	7
735	6
736	1
737	3
738	2
739	7
740	2
741	5
742	3
743	2
744	6
745	3
746	2
747	6
748	3
749	7
750	7
751	3
752	1
753	5
754	6
755	8
756	4
757	7
758	6
759	6
760	3
761	1
762	6
763	2
764	4
765	1
766	8
767	2
768	4
769	7
770	6
771	7
772	7
773	2
774	6
775	5
776	8
777	7
778	4
779	3
780	4
781	7
782	6
783	8
784	8
785	7
786	7
787	6
788	9
789	6
790	4
791	8
792	3
793	8
794	3
795	6
796	1
797	3
798	9
799	2
800	9
801	3
802	9
803	7
804	9
805	4
806	7
807	5
808	1
809	7
810	7
811	4
812	5
813	9
814	7
815	1
816	1
817	4
818	6
819	8
820	1
821	9
822	1
823	2
824	5
825	1
826	3
827	5
828	9
829	3
830	3
831	8
832	7
833	4
834	3
835	7
836	6
837	5
838	4
839	4
840	8
841	5
842	5
843	6
844	5
845	2
846	2
847	8
848	1
849	1
850	6
851	8
852	1
853	6
854	3
855	1
856	8
857	6
858	1
859	4
860	6
861	4
862	3
863	3
864	1
865	9
866	4
867	7
868	5
869	4
870	5
871	2
872	1
873	2
874	2
875	8
876	3
877	8
878	1
879	2
880	9
881	1
882	4
883	6
884	2
885	3
886	2
887	5
888	8
889	9
890	5
891	5
892	7
893	6
894	2
895	1
896	2
897	1
898	4
899	6
900	6
901	7
902	3
903	6
904	8
905	6
906	9
907	2
908	6
909	9
910	2
911	5
912	1
913	3
914	1
915	8
916	4
917	9
918	8
919	8
920	9
921	2
922	9
923	1
924	8
925	8
926	7
927	6
928	9
929	6
930	5
931	1
932	2
933	9
934	1
935	4
936	8
937	4
938	8
939	6
940	4
941	9
942	4
943	2
944	4
945	4
946	1
947	8
948	3
949	1
950	7
951	7
952	8
953	8
954	2
955	3
956	9
957	6
958	2
959	8
960	4
961	2
962	7
963	9
964	3
965	8
966	9
967	7
968	9
969	6
970	1
971	1
972	5
973	7
974	1
975	5
976	3
977	3
978	5
979	8
980	2
981	7
982	5
983	7
984	9
985	7
986	3
987	8
988	5
989	1
990	2
991	7
992	5
993	1
994	1
995	3
996	8
997	7
998	7
999	8
1000	8
1001	1
DEPOT_SECTION
1
-1
EOF
