NAME : n1001-0004
COMMENT : "Generated by pyvrp_manuel (CVRP)"
TYPE : CVRP
DIMENSION : 1001
EDGE_WEIGHT_TYPE : EUC_2D
CAPACITY : 150
NODE_COORD_SECTION
1	490	896
2	309	947
3	398	982
4	794	459
5	837	925
6	109	590
7	842	448
8	816	890
9	103	773
10	41	813
11	224	344
12	622	69
13	483	325
14	658	470
15	46	377
16	578	774
17	215	196
18	725	200
19	302	0
20	380	101
21	578	905
22	722	83
23	948	53
24	308	781
25	737	776
26	381	62
27	10	541
28	16	170
29	827	423
30	675	107
31	579	951
32	591	588
33	191	138
34	791	52
35	469	99
36	535	10
37	666	501
38	171	314
39	300	276
40	375	592
41	212	626
42	88	971
43	200	713
44	158	159
45	427	215
46	360	283
47	360	113
48	988	782
49	321	863
50	277	92
51	660	328
52	876	365
53	93	922
54	612	652
55	452	102
56	661	501
57	169	785
58	32	190
59	383	31
60	50	350
61	406	867
62	733	965
63	655	567
64	404	289
65	52	43
66	713	184
67	295	734
68	191	685
69	472	603
70	272	865
71	91	33
72	890	162
73	980	722
74	693	438
75	594	628
76	265	868
77	807	529
78	643	439
79	319	115
80	308	21
81	343	762
82	985	42
83	84	913
84	324	501
85	814	943
86	689	624
87	488	513
88	702	30
89	16	837
90	11	763
91	862	832
92	653	556
93	731	798
94	516	140
95	811	556
96	801	165
97	375	179
98	529	925
99	595	925
100	867	156
101	980	528
102	919	597
103	415	924
104	130	511
105	430	523
106	357	897
107	474	707
108	715	956
109	680	2
110	85	28
111	10	84
112	493	973
113	176	710
114	272	887
115	825	732
116	940	123
117	75	245
118	601	942
119	830	656
120	411	216
121	997	62
122	155	794
123	890	631
124	491	441
125	565	248
126	994	999
127	306	847
128	381	137
129	586	404
130	916	535
131	390	103
132	827	834
133	570	456
134	332	616
135	980	418
136	546	24
137	628	286
138	381	235
139	963	840
140	285	377
141	652	688
142	265	703
143	579	787
144	230	177
145	732	480
146	282	892
147	444	166
148	429	268
149	327	88
150	899	940
151	78	813
152	646	297
153	353	585
154	606	924
155	978	529
156	970	204
157	504	87
158	740	600
159	197	118
160	401	311
161	296	65
162	181	915
163	254	704
164	534	432
165	664	876
166	656	554
167	906	541
168	610	988
169	138	863
170	260	474
171	211	830
172	98	278
173	586	309
174	554	959
175	58	175
176	111	978
177	621	139
178	65	871
179	959	197
180	628	376
181	797	220
182	841	999
183	803	414
184	565	716
185	212	267
186	11	853
187	268	930
188	402	315
189	755	451
190	161	554
191	267	138
192	185	674
193	542	297
194	678	343
195	114	672
196	330	352
197	859	874
198	11	929
199	947	139
200	1	110
201	367	478
202	638	619
203	597	110
204	981	931
205	744	609
206	221	537
207	143	960
208	56	926
209	971	258
210	54	676
211	116	39
212	199	853
213	187	300
214	297	855
215	694	787
216	407	204
217	680	702
218	914	31
219	133	828
220	629	832
221	374	999
222	695	306
223	258	631
224	488	258
225	232	668
226	747	976
227	289	205
228	185	161
229	994	255
230	265	867
231	898	42
232	445	650
233	576	216
234	97	139
235	667	267
236	45	993
237	729	351
238	580	322
239	170	38
240	826	38
241	123	917
242	185	332
243	502	6
244	46	94
245	425	319
246	871	822
247	986	67
248	262	841
249	673	174
250	875	245
251	975	101
252	759	472
253	67	759
254	316	509
255	347	388
256	372	724
257	460	842
258	702	497
259	700	332
260	115	171
261	158	96
262	580	456
263	50	759
264	810	925
265	521	463
266	794	66
267	531	827
268	846	559
269	459	679
270	606	483
271	896	927
272	216	950
273	369	608
274	945	264
275	733	432
276	217	470
277	927	779
278	241	953
279	602	927
280	976	354
281	899	426
282	579	516
283	507	461
284	42	544
285	959	664
286	38	593
287	419	647
288	41	584
289	143	571
290	801	850
291	417	944
292	471	212
293	734	522
294	106	818
295	982	774
296	420	81
297	928	234
298	575	48
299	808	600
300	976	743
301	22	895
302	96	261
303	758	228
304	631	551
305	535	228
306	850	572
307	686	558
308	251	312
309	833	63
310	327	42
311	201	567
312	386	667
313	881	605
314	975	499
315	982	581
316	487	640
317	106	908
318	957	60
319	202	895
320	626	319
321	251	385
322	406	961
323	196	570
324	642	252
325	469	410
326	881	858
327	476	244
328	213	287
329	934	906
330	599	34
331	660	407
332	780	760
333	919	536
334	538	504
335	845	878
336	736	400
337	355	963
338	241	586
339	657	759
340	197	403
341	485	454
342	71	716
343	118	374
344	653	893
345	413	223
346	277	495
347	227	624
348	726	972
349	920	398
350	713	566
351	737	273
352	970	503
353	817	871
354	394	883
355	371	749
356	422	105
357	373	690
358	899	92
359	210	761
360	245	526
361	151	532
362	258	612
363	697	596
364	107	875
365	921	52
366	910	69
367	735	470
368	460	257
369	894	581
370	465	482
371	862	995
372	215	57
373	162	229
374	92	320
375	307	496
376	643	821
377	170	142
378	282	132
379	527	121
380	477	432
381	113	274
382	719	357
383	59	907
384	344	560
385	902	749
386	96	942
387	361	628
388	723	675
389	842	274
390	872	818
391	61	314
392	932	129
393	48	809
394	676	555
395	899	525
396	988	168
397	70	391
398	986	73
399	706	628
400	288	90
401	709	688
402	487	698
403	773	148
404	68	417
405	428	308
406	632	116
407	986	399
408	221	420
409	104	67
410	645	363
411	229	731
412	891	556
413	251	772
414	328	269
415	403	379
416	983	410
417	50	341
418	683	716
419	165	148
420	358	532
421	89	730
422	406	791
423	649	420
424	455	654
425	240	370
426	729	54
427	400	604
428	242	737
429	748	428
430	339	742
431	528	113
432	788	992
433	928	224
434	964	292
435	121	858
436	147	960
437	990	164
438	831	405
439	370	576
440	689	160
441	990	850
442	211	736
443	589	775
444	488	669
445	640	967
446	570	908
447	583	661
448	444	446
449	124	981
450	229	762
451	615	824
452	27	453
453	21	106
454	677	382
455	834	873
456	501	352
457	847	977
458	560	83
459	709	417
460	132	608
461	512	507
462	997	754
463	816	504
464	401	687
465	126	972
466	562	35
467	211	741
468	615	747
469	7	498
470	798	776
471	527	6
472	937	692
473	695	801
474	796	444
475	831	840
476	624	115
477	849	255
478	926	189
479	466	307
480	226	335
481	822	665
482	454	98
483	223	784
484	266	114
485	226	333
486	278	765
487	494	972
488	40	249
489	666	807
490	295	700
491	225	197
492	773	470
493	134	481
494	940	614
495	400	409
496	202	784
497	508	242
498	529	655
499	521	459
500	30	485
501	340	494
502	193	689
503	190	338
504	270	248
505	507	278
506	284	553
507	710	262
508	767	648
509	886	548
510	910	49
511	646	70
512	711	308
513	397	923
514	968	375
515	212	773
516	279	265
517	124	997
518	530	598
519	209	733
520	26	355
521	424	794
522	453	572
523	882	676
524	906	330
525	809	422
526	464	607
527	982	502
528	447	304
529	184	787
530	396	332
531	609	585
532	419	918
533	806	622
534	263	293
535	935	603
536	46	433
537	612	635
538	924	516
539	440	854
540	426	661
541	125	323
542	123	550
543	108	881
544	278	157
545	530	264
546	201	866
547	661	582
548	746	333
549	552	982
550	284	701
551	920	430
552	911	369
553	400	627
554	423	369
555	403	602
556	224	118
557	108	992
558	513	724
559	21	427
560	109	457
561	945	863
562	319	228
563	91	253
564	671	204
565	775	320
566	963	379
567	411	795
568	851	861
569	862	27
570	776	238
571	855	889
572	458	672
573	606	720
574	835	645
575	333	520
576	558	87
577	664	174
578	817	948
579	568	919
580	511	814
581	749	83
582	99	380
583	699	407
584	399	802
585	948	712
586	648	754
587	568	50
588	4	34
589	60	879
590	465	153
591	609	503
592	200	22
593	616	508
594	323	221
595	368	935
596	100	302
597	341	958
598	530	841
599	450	422
600	784	308
601	797	937
602	704	809
603	113	961
604	199	781
605	656	537
606	630	9
607	978	468
608	947	512
609	296	813
610	490	182
611	563	2
612	191	94
613	526	225
614	489	120
615	69	442
616	559	860
617	329	976
618	142	673
619	50	951
620	311	778
621	524	299
622	381	313
623	806	865
624	976	381
625	349	249
626	466	621
627	459	177
628	537	485
629	100	364
630	480	14
631	570	637
632	453	431
633	512	627
634	260	453
635	787	353
636	499	38
637	119	452
638	327	986
639	393	83
640	926	177
641	914	449
642	598	10
643	954	494
644	249	143
645	591	28
646	871	774
647	933	945
648	205	365
649	806	820
650	989	293
651	572	483
652	788	255
653	953	352
654	748	877
655	1	593
656	157	741
657	928	341
658	161	246
659	889	419
660	128	909
661	828	446
662	558	561
663	983	790
664	590	511
665	661	131
666	771	710
667	558	790
668	404	43
669	84	971
670	335	135
671	989	147
672	906	945
673	437	791
674	883	30
675	232	565
676	657	159
677	88	979
678	264	12
679	720	243
680	326	325
681	962	690
682	990	323
683	862	94
684	803	520
685	519	926
686	538	287
687	224	581
688	333	753
689	82	164
690	936	306
691	7	858
692	364	503
693	810	667
694	20	590
695	984	471
696	864	938
697	684	38
698	929	895
699	650	459
700	156	610
701	326	948
702	2	608
703	489	501
704	438	712
705	71	608
706	167	659
707	458	563
708	782	301
709	98	267
710	908	93
711	817	323
712	526	705
713	324	156
714	669	802
715	686	483
716	553	710
717	659	252
718	860	433
719	303	349
720	566	241
721	135	779
722	908	3
723	898	206
724	618	963
725	187	294
726	644	187
727	305	81
728	558	812
729	634	411
730	974	890
731	228	786
732	385	661
733	554	719
734	246	259
735	215	176
736	284	620
737	642	595
738	872	880
739	903	811
740	496	627
741	248	508
742	538	91
743	909	389
744	883	737
745	228	647
746	280	254
747	659	745
748	214	247
749	878	316
750	164	77
751	789	860
752	996	125
753	560	597
754	549	601
755	38	19
756	293	546
757	538	429
758	1	812
759	165	619
760	135	860
761	902	239
762	929	349
763	14	419
764	123	604
765	597	279
766	356	647
767	226	706
768	130	792
769	262	83
770	596	553
771	131	940
772	320	829
773	371	834
774	259	152
775	92	245
776	227	728
777	170	415
778	318	311
779	439	776
780	294	81
781	840	209
782	845	449
783	441	969
784	590	48
785	21	32
786	131	681
787	708	759
788	40	800
789	943	696
790	303	66
791	994	549
792	608	519
793	836	9
794	753	160
795	964	110
796	390	665
797	666	667
798	520	637
799	163	470
800	639	901
801	93	303
802	165	242
803	208	424
804	681	403
805	600	382
806	19	564
807	522	160
808	19	623
809	362	600
810	391	377
811	299	980
812	55	376
813	364	324
814	754	945
815	912	257
816	282	698
817	768	81
818	273	264
819	451	324
820	113	416
821	384	538
822	309	267
823	946	356
824	798	173
825	283	703
826	599	123
827	887	364
828	500	432
829	882	621
830	733	391
831	999	695
832	747	403
833	86	861
834	55	6
835	547	403
836	140	885
837	550	268
838	822	677
839	110	417
840	69	221
841	590	639
842	307	324
843	73	191
844	468	518
845	781	832
846	936	597
847	130	359
848	60	462
849	762	557
850	728	922
851	760	396
852	956	777
853	129	572
854	741	660
855	981	172
856	570	985
857	186	231
858	839	752
859	893	413
860	796	70
861	212	580
862	145	491
863	313	994
864	351	674
865	596	982
866	505	784
867	161	139
868	759	811
869	247	901
870	665	217
871	741	997
872	372	888
873	346	31
874	105	332
875	973	710
876	931	753
877	493	170
878	46	333
879	279	950
880	379	440
881	591	910
882	449	762
883	155	24
884	423	729
885	813	682
886	879	206
887	612	916
888	191	846
889	95	825
890	761	937
891	446	473
892	200	958
893	483	370
894	533	760
895	246	102
896	378	651
897	550	367
898	565	459
899	887	206
900	982	505
901	851	701
902	124	859
903	325	164
904	719	595
905	249	265
906	937	0
907	572	510
908	101	717
909	51	485
910	394	781
911	392	37
912	462	894
913	212	921
914	778	443
915	484	914
916	508	568
917	541	538
918	66	211
919	961	798
920	526	973
921	305	714
922	238	887
923	776	672
924	470	841
925	772	759
926	314	514
927	381	208
928	621	930
929	794	360
930	786	463
931	973	5
932	635	58
933	738	859
934	883	336
935	544	631
936	329	968
937	842	747
938	296	850
939	245	93
940	343	454
941	815	706
942	680	348
943	888	977
944	69	950
945	598	674
946	695	791
947	508	371
948	328	179
949	481	219
950	798	142
951	935	58
952	916	557
953	29	650
954	178	104
955	526	358
956	623	895
957	41	997
958	223	401
959	824	291
960	248	383
961	695	478
962	955	716
963	44	140
964	539	481
965	348	664
966	710	210
967	400	679
968	681	455
969	751	679
970	31	22
971	517	671
972	144	243
973	22	595
974	862	943
975	93	886
976	300	60
977	821	920
978	474	356
979	562	735
980	731	248
981	517	638
982	572	604
983	614	633
984	771	246
985	914	372
986	93	832
987	182	6
988	458	981
989	121	608
990	112	704
991	839	419
992	55	126
993	193	313
994	261	720
995	613	100
996	564	36
997	858	465
998	968	891
999	213	887
1000	73	37
1001	835	243
DEMAND_SECTION
1	0
2	5
3	2
4	5
5	6
6	1
7	7
8	5
9	5
10	2
11	8
12	1
13	2
14	3
15	9
16	8
17	9
18	1
19	1
20	1
21	3
22	7
23	9
24	4
25	8
26	4
27	4
28	6
29	6
30	5
31	9
32	3
33	9
34	6
35	8
36	6
37	5
38	5
39	8
40	9
41	9
42	6
43	7
44	7
45	4
46	7
47	1
48	6
49	7
50	6
51	5
52	4
53	1
54	6
55	2
56	6
57	2
58	2
59	9
60	8
61	4
62	6
63	3
64	7
65	4
66	9
67	5
68	9
69	1
70	9
71	5
72	1
73	6
74	6
75	3
76	5
77	9
78	9
79	5
80	2
81	9
82	9
83	9
84	4
85	4
86	3
87	6
88	8
89	6
90	9
91	8
92	1
93	3
94	8
95	4
96	6
97	2
98	6
99	2
100	2
101	3
102	5
103	4
104	2
105	2
106	3
107	9
108	2
109	8
110	9
111	3
112	7
113	6
114	2
115	7
116	3
117	6
118	7
119	2
120	6
121	9
122	5
123	7
124	6
125	7
126	1
127	3
128	6
129	7
130	3
131	2
132	5
133	9
134	9
135	4
136	8
137	3
138	2
139	2
140	2
141	7
142	4
143	7
144	6
145	5
146	3
147	8
148	9
149	9
150	1
151	8
152	9
153	9
154	8
155	5
156	7
157	7
158	9
159	4
160	8
161	9
162	5
163	3
164	4
165	1
166	5
167	9
168	1
169	5
170	3
171	7
172	3
173	3
174	3
175	8
176	7
177	7
178	1
179	3
180	2
181	5
182	7
183	4
184	9
185	8
186	6
187	1
188	3
189	2
190	1
191	6
192	8
193	4
194	5
195	5
196	8
197	2
198	8
199	8
200	9
201	6
202	7
203	2
204	1
205	1
206	1
207	3
208	4
209	2
210	7
211	5
212	1
213	9
214	9
215	7
216	5
217	6
218	6
219	8
220	8
221	4
222	6
223	6
224	5
225	1
226	6
227	7
228	8
229	1
230	9
231	1
232	8
233	9
234	9
235	5
236	1
237	4
238	7
239	9
240	4
241	5
242	5
243	5
244	2
245	4
246	9
247	9
248	4
249	3
250	2
251	5
252	8
253	7
254	9
255	1
256	2
257	2
258	4
259	8
260	9
261	5
262	7
263	3
264	7
265	1
266	1
267	3
268	1
269	6
270	1
271	5
272	8
273	8
274	2
275	9
276	7
277	6
278	2
279	6
280	5
281	3
282	7
283	2
284	2
285	8
286	6
287	5
288	2
289	6
290	8
291	9
292	3
293	5
294	8
295	3
296	9
297	3
298	2
299	9
300	8
301	2
302	4
303	6
304	9
305	2
306	4
307	2
308	3
309	8
310	6
311	9
312	6
313	4
314	3
315	6
316	5
317	9
318	2
319	1
320	9
321	9
322	5
323	1
324	5
325	3
326	8
327	5
328	5
329	6
330	7
331	4
332	8
333	1
334	5
335	5
336	6
337	9
338	6
339	7
340	2
341	5
342	6
343	4
344	7
345	9
346	8
347	5
348	8
349	9
350	2
351	5
352	6
353	6
354	4
355	9
356	4
357	6
358	4
359	5
360	7
361	2
362	8
363	7
364	6
365	3
366	4
367	6
368	9
369	4
370	2
371	7
372	8
373	9
374	2
375	8
376	4
377	8
378	5
379	2
380	2
381	9
382	3
383	1
384	9
385	6
386	6
387	4
388	1
389	2
390	8
391	5
392	5
393	5
394	5
395	6
396	7
397	9
398	5
399	5
400	8
401	8
402	5
403	6
404	8
405	5
406	6
407	2
408	5
409	1
410	2
411	4
412	3
413	1
414	8
415	3
416	1
417	2
418	9
419	2
420	2
421	6
422	7
423	7
424	9
425	2
426	6
427	6
428	7
429	1
430	4
431	8
432	3
433	1
434	8
435	8
436	7
437	8
438	1
439	7
440	1
441	3
442	7
443	9
444	9
445	7
446	4
447	3
448	4
449	2
450	5
451	1
452	9
453	3
454	7
455	8
456	8
457	9
458	1
459	3
460	2
461	7
462	4
463	7
464	8
465	5
466	1
467	9
468	3
469	4
470	3
471	9
472	1
473	7
474	7
475	6
476	8
477	4
478	7
479	9
480	6
481	3
482	9
483	2
484	5
485	1
486	5
487	8
488	1
489	2
490	5
491	1
492	1
493	1
494	4
495	9
496	7
497	3
498	1
499	7
500	6
501	7
502	2
503	5
504	5
505	3
506	3
507	5
508	4
509	4
510	7
511	1
512	9
513	6
514	6
515	3
516	1
517	5
518	1
519	6
520	3
521	4
522	3
523	9
524	1
525	7
526	1
527	2
528	4
529	6
530	2
531	3
532	1
533	6
534	7
535	2
536	3
537	7
538	7
539	8
540	1
541	6
542	5
543	8
544	5
545	7
546	7
547	9
548	7
549	1
550	3
551	1
552	1
553	9
554	5
555	1
556	2
557	1
558	9
559	6
560	3
561	9
562	1
563	6
564	1
565	9
566	6
567	7
568	5
569	5
570	3
571	5
572	1
573	9
574	2
575	8
576	5
577	2
578	1
579	6
580	2
581	9
582	2
583	7
584	1
585	1
586	3
587	1
588	8
589	3
590	8
591	6
592	5
593	1
594	8
595	9
596	2
597	4
598	3
599	3
600	6
601	8
602	2
603	6
604	4
605	6
606	7
607	4
608	7
609	8
610	6
611	7
612	6
613	8
614	6
615	4
616	4
617	5
618	1
619	2
620	4
621	4
622	4
623	9
624	9
625	4
626	9
627	5
628	1
629	7
630	9
631	7
632	4
633	9
634	3
635	9
636	9
637	9
638	3
639	6
640	7
641	6
642	9
643	6
644	9
645	3
646	1
647	3
648	1
649	3
650	1
651	9
652	1
653	5
654	5
655	4
656	6
657	3
658	5
659	1
660	6
661	6
662	8
663	8
664	2
665	3
666	9
667	8
668	9
669	2
670	4
671	3
672	9
673	8
674	2
675	7
676	1
677	9
678	5
679	7
680	7
681	2
682	4
683	1
684	8
685	2
686	8
687	2
688	6
689	6
690	7
691	8
692	8
693	9
694	5
695	6
696	9
697	7
698	9
699	6
700	9
701	9
702	5
703	6
704	3
705	2
706	2
707	8
708	8
709	1
710	7
711	4
712	3
713	2
714	2
715	1
716	8
717	8
718	1
719	4
720	7
721	5
722	9
723	2
724	5
725	6
726	5
727	3
728	7
729	4
730	3
731	3
732	4
733	1
734	1
735	7
736	5
737	4
738	1
739	1
740	9
741	9
742	3
743	5
744	5
745	9
746	6
747	9
748	3
749	7
750	7
751	1
752	2
753	6
754	4
755	4
756	5
757	2
758	3
759	5
760	9
761	2
762	4
763	1
764	8
765	9
766	3
767	2
768	7
769	9
770	3
771	9
772	2
773	8
774	5
775	5
776	3
777	5
778	8
779	4
780	5
781	8
782	1
783	5
784	5
785	9
786	8
787	9
788	6
789	7
790	3
791	9
792	9
793	9
794	1
795	1
796	2
797	1
798	6
799	9
800	4
801	1
802	5
803	3
804	2
805	9
806	5
807	2
808	7
809	2
810	3
811	4
812	1
813	5
814	6
815	4
816	9
817	8
818	9
819	9
820	3
821	6
822	4
823	8
824	7
825	4
826	6
827	6
828	5
829	4
830	3
831	2
832	7
833	1
834	1
835	7
836	4
837	9
838	4
839	4
840	8
841	5
842	9
843	7
844	7
845	8
846	3
847	6
848	5
849	1
850	6
851	7
852	7
853	9
854	6
855	3
856	4
857	8
858	4
859	6
860	2
861	2
862	1
863	5
864	4
865	4
866	5
867	4
868	6
869	9
870	2
871	4
872	1
873	7
874	5
875	8
876	7
877	6
878	7
879	1
880	8
881	8
882	2
883	1
884	3
885	7
886	7
887	8
888	5
889	4
890	4
891	6
892	2
893	1
894	2
895	3
896	6
897	5
898	3
899	7
900	5
901	2
902	1
903	8
904	9
905	3
906	9
907	6
908	4
909	3
910	3
911	7
912	9
913	2
914	5
915	2
916	4
917	8
918	4
919	1
920	8
921	4
922	1
923	9
924	4
925	8
926	5
927	2
928	7
929	5
930	4
931	7
932	7
933	5
934	3
935	8
936	4
937	2
938	1
939	7
940	2
941	6
942	5
943	7
944	4
945	2
946	8
947	8
948	9
949	1
950	1
951	3
952	7
953	2
954	6
955	2
956	8
957	4
958	4
959	3
960	5
961	6
962	5
963	7
964	9
965	1
966	7
967	8
968	7
969	6
970	5
971	8
972	4
973	7
974	4
975	8
976	9
977	5
978	9
979	3
980	7
981	7
982	6
983	8
984	9
985	3
986	3
987	1
988	9
989	2
990	8
991	6
992	8
993	6
994	7
995	3
996	8
997	8
998	5
999	4
1000	4
1001	6
DEPOT_SECTION
1
-1
EOF
