NAME : n1001-0027
COMMENT : "Generated by pyvrp_manuel (CVRP)"
TYPE : CVRP
DIMENSION : 1001
EDGE_WEIGHT_TYPE : EUC_2D
CAPACITY : 150
NODE_COORD_SECTION
1	698	568
2	922	857
3	819	956
4	393	393
5	638	385
6	877	634
7	255	867
8	954	879
9	667	626
10	28	723
11	606	840
12	559	641
13	729	768
14	630	91
15	45	919
16	170	731
17	777	140
18	474	768
19	154	457
20	767	494
21	699	413
22	265	816
23	958	909
24	75	899
25	314	586
26	862	454
27	385	55
28	563	588
29	723	91
30	198	947
31	581	430
32	948	536
33	959	702
34	573	803
35	448	406
36	899	452
37	384	125
38	406	24
39	91	700
40	59	694
41	689	734
42	779	666
43	841	1
44	738	995
45	970	85
46	77	773
47	114	140
48	602	668
49	985	193
50	778	474
51	624	680
52	835	459
53	676	267
54	757	886
55	777	267
56	866	632
57	585	704
58	380	983
59	244	854
60	616	487
61	120	427
62	100	38
63	181	738
64	680	313
65	406	281
66	518	686
67	988	877
68	570	795
69	256	490
70	539	131
71	452	594
72	369	967
73	9	726
74	838	78
75	83	301
76	660	595
77	394	229
78	210	12
79	230	920
80	392	449
81	11	798
82	280	331
83	251	560
84	424	770
85	379	186
86	241	466
87	991	769
88	559	126
89	997	779
90	719	531
91	300	341
92	557	836
93	534	718
94	546	415
95	421	199
96	706	368
97	409	35
98	637	193
99	567	424
100	992	45
101	785	676
102	978	56
103	875	769
104	879	926
105	906	618
106	315	374
107	438	438
108	128	642
109	81	100
110	382	70
111	841	313
112	475	174
113	546	527
114	402	80
115	251	904
116	332	54
117	285	878
118	599	449
119	179	32
120	818	798
121	104	767
122	922	370
123	777	933
124	384	695
125	716	141
126	688	26
127	559	779
128	764	205
129	123	49
130	977	640
131	363	708
132	567	944
133	156	732
134	962	491
135	743	279
136	139	778
137	266	301
138	933	200
139	777	124
140	559	535
141	433	144
142	236	348
143	871	252
144	861	663
145	612	530
146	629	790
147	802	716
148	832	108
149	63	736
150	724	898
151	831	388
152	416	602
153	60	564
154	924	7
155	750	349
156	749	656
157	262	125
158	781	946
159	170	826
160	628	474
161	988	563
162	801	643
163	103	920
164	960	234
165	763	735
166	389	905
167	85	392
168	607	652
169	699	645
170	901	292
171	884	214
172	421	128
173	354	676
174	952	267
175	759	465
176	84	532
177	142	556
178	595	120
179	971	58
180	568	603
181	528	385
182	991	746
183	308	831
184	909	317
185	343	785
186	936	788
187	302	818
188	791	638
189	429	840
190	431	597
191	323	860
192	354	903
193	621	564
194	28	902
195	920	41
196	557	563
197	943	929
198	953	463
199	979	838
200	347	288
201	304	837
202	405	225
203	752	998
204	574	853
205	981	50
206	757	812
207	510	914
208	29	728
209	113	214
210	456	209
211	666	813
212	125	10
213	278	525
214	711	885
215	600	778
216	347	808
217	941	443
218	659	375
219	506	59
220	365	218
221	489	7
222	847	928
223	23	878
224	845	752
225	883	719
226	894	469
227	251	489
228	299	584
229	894	456
230	546	333
231	921	451
232	154	260
233	967	544
234	636	352
235	495	899
236	276	8
237	433	957
238	274	229
239	823	347
240	718	87
241	164	818
242	33	477
243	388	2
244	597	208
245	740	98
246	616	760
247	271	148
248	874	221
249	19	679
250	494	579
251	42	506
252	347	772
253	800	42
254	694	928
255	742	163
256	788	473
257	130	338
258	863	643
259	980	957
260	56	977
261	679	699
262	174	511
263	69	439
264	252	426
265	558	66
266	281	843
267	659	211
268	60	741
269	927	655
270	229	606
271	389	109
272	481	601
273	276	350
274	279	955
275	696	552
276	933	814
277	837	36
278	627	677
279	221	643
280	284	341
281	115	739
282	996	384
283	505	39
284	943	15
285	84	963
286	278	86
287	610	189
288	792	751
289	729	894
290	203	858
291	754	383
292	932	89
293	600	395
294	342	62
295	324	859
296	575	185
297	603	922
298	319	780
299	740	139
300	391	478
301	333	66
302	341	878
303	357	982
304	54	30
305	471	177
306	72	630
307	631	906
308	854	719
309	880	379
310	670	459
311	30	356
312	26	983
313	985	40
314	531	912
315	89	272
316	524	654
317	89	181
318	493	348
319	924	289
320	859	386
321	718	566
322	244	505
323	113	161
324	760	98
325	566	73
326	755	903
327	526	565
328	602	958
329	319	908
330	920	145
331	511	811
332	642	111
333	763	214
334	138	618
335	213	342
336	579	473
337	725	245
338	903	824
339	57	681
340	807	603
341	132	632
342	637	224
343	957	68
344	673	852
345	802	301
346	431	609
347	847	518
348	768	541
349	812	349
350	295	726
351	304	519
352	888	458
353	789	804
354	482	779
355	373	825
356	935	836
357	933	556
358	968	769
359	671	547
360	74	18
361	476	36
362	535	961
363	499	563
364	969	675
365	957	73
366	436	841
367	340	968
368	535	581
369	133	810
370	622	661
371	400	284
372	372	935
373	228	769
374	353	927
375	277	153
376	654	263
377	508	119
378	64	211
379	969	282
380	712	953
381	986	127
382	930	428
383	983	88
384	528	973
385	737	506
386	506	926
387	125	300
388	220	971
389	578	62
390	700	531
391	540	736
392	889	272
393	106	388
394	158	119
395	315	714
396	15	259
397	601	182
398	952	482
399	813	648
400	561	594
401	317	590
402	840	401
403	664	386
404	989	463
405	814	580
406	195	294
407	72	893
408	49	422
409	760	295
410	869	812
411	817	953
412	553	52
413	188	772
414	683	479
415	915	284
416	810	373
417	218	967
418	101	849
419	530	168
420	268	984
421	39	24
422	154	132
423	506	910
424	870	117
425	196	530
426	237	784
427	261	382
428	876	220
429	110	554
430	579	175
431	142	358
432	96	804
433	569	684
434	854	865
435	273	995
436	236	452
437	862	188
438	787	265
439	703	844
440	701	550
441	400	537
442	726	788
443	186	581
444	646	58
445	255	50
446	43	534
447	295	689
448	454	644
449	728	357
450	210	560
451	62	964
452	58	902
453	885	590
454	440	626
455	489	391
456	117	228
457	768	650
458	569	207
459	879	786
460	21	167
461	770	291
462	169	537
463	800	26
464	386	932
465	113	467
466	658	783
467	889	597
468	161	244
469	509	900
470	318	97
471	780	150
472	303	651
473	673	638
474	431	753
475	424	943
476	359	710
477	784	862
478	470	126
479	553	90
480	888	358
481	57	622
482	820	711
483	69	90
484	896	432
485	587	166
486	390	734
487	813	46
488	812	420
489	794	753
490	477	279
491	86	153
492	175	184
493	947	831
494	135	260
495	484	594
496	398	332
497	576	209
498	220	12
499	590	562
500	165	475
501	443	727
502	836	611
503	188	924
504	456	757
505	522	663
506	29	971
507	930	806
508	100	596
509	725	337
510	142	205
511	266	733
512	417	683
513	152	445
514	556	331
515	418	859
516	872	869
517	988	838
518	732	778
519	978	422
520	455	140
521	837	723
522	729	632
523	467	845
524	308	246
525	6	592
526	881	852
527	936	61
528	431	562
529	222	369
530	777	1
531	193	620
532	98	271
533	926	479
534	215	687
535	521	966
536	670	935
537	677	920
538	401	94
539	661	704
540	50	956
541	574	421
542	829	369
543	722	876
544	709	122
545	853	441
546	972	455
547	748	663
548	337	555
549	9	629
550	296	73
551	250	459
552	42	928
553	699	280
554	925	304
555	209	388
556	865	825
557	399	421
558	468	97
559	858	17
560	9	844
561	750	231
562	699	485
563	491	706
564	640	218
565	123	884
566	321	922
567	871	425
568	777	690
569	235	669
570	58	422
571	186	100
572	601	484
573	340	725
574	208	217
575	670	601
576	34	874
577	95	140
578	5	286
579	267	699
580	84	538
581	381	952
582	332	961
583	987	526
584	494	194
585	275	64
586	860	917
587	51	593
588	708	626
589	314	574
590	437	635
591	770	755
592	90	558
593	569	610
594	961	677
595	461	20
596	348	388
597	228	801
598	333	704
599	952	358
600	974	368
601	771	587
602	2	810
603	214	289
604	471	967
605	900	651
606	308	951
607	384	575
608	379	687
609	368	924
610	72	459
611	397	607
612	34	558
613	806	42
614	648	689
615	922	695
616	68	119
617	97	76
618	717	237
619	215	750
620	557	519
621	944	742
622	351	107
623	266	535
624	39	43
625	597	195
626	458	18
627	178	323
628	68	773
629	356	770
630	247	266
631	503	679
632	269	609
633	144	301
634	982	407
635	394	303
636	786	88
637	918	10
638	130	80
639	453	292
640	655	754
641	828	227
642	704	827
643	181	877
644	808	307
645	257	5
646	772	233
647	282	985
648	494	619
649	577	329
650	110	218
651	141	771
652	571	299
653	531	919
654	611	252
655	731	269
656	298	703
657	18	252
658	456	339
659	899	331
660	668	119
661	762	173
662	456	931
663	144	971
664	85	131
665	490	405
666	259	442
667	466	978
668	789	328
669	990	178
670	345	161
671	816	122
672	257	429
673	572	877
674	798	234
675	72	981
676	741	710
677	951	547
678	737	903
679	406	968
680	365	66
681	294	486
682	923	137
683	562	927
684	735	822
685	384	197
686	418	604
687	369	648
688	716	219
689	265	283
690	166	59
691	104	913
692	719	787
693	975	746
694	806	534
695	522	672
696	306	198
697	638	837
698	401	701
699	765	680
700	917	86
701	187	683
702	35	764
703	229	261
704	416	234
705	766	777
706	297	439
707	912	116
708	880	866
709	879	291
710	452	160
711	816	595
712	550	339
713	398	918
714	520	915
715	448	343
716	973	681
717	311	903
718	661	912
719	730	55
720	241	32
721	603	735
722	215	896
723	486	979
724	488	908
725	3	856
726	510	704
727	470	154
728	186	872
729	682	749
730	189	892
731	376	178
732	860	682
733	313	532
734	927	864
735	164	750
736	679	854
737	793	25
738	708	410
739	609	777
740	341	879
741	277	687
742	673	961
743	683	235
744	381	527
745	902	441
746	475	164
747	114	762
748	627	358
749	99	230
750	825	759
751	221	98
752	591	124
753	445	620
754	33	710
755	862	56
756	369	297
757	686	633
758	380	69
759	515	558
760	465	476
761	674	292
762	713	661
763	23	679
764	137	652
765	281	367
766	180	603
767	190	350
768	218	744
769	784	603
770	506	597
771	28	56
772	551	868
773	918	280
774	125	441
775	989	479
776	584	284
777	93	331
778	690	641
779	781	823
780	773	697
781	557	682
782	886	312
783	79	502
784	504	971
785	273	420
786	592	667
787	933	635
788	294	865
789	962	838
790	110	747
791	459	301
792	887	524
793	208	273
794	395	593
795	215	205
796	161	935
797	395	882
798	524	286
799	980	58
800	756	636
801	640	187
802	28	299
803	679	256
804	66	815
805	574	15
806	621	786
807	102	291
808	791	468
809	537	58
810	821	34
811	348	204
812	134	925
813	920	227
814	445	556
815	910	85
816	289	387
817	727	615
818	761	605
819	583	60
820	512	45
821	392	759
822	107	2
823	281	573
824	603	556
825	709	263
826	931	46
827	354	902
828	767	813
829	616	395
830	115	278
831	797	366
832	89	168
833	51	220
834	349	191
835	454	906
836	230	956
837	924	946
838	329	77
839	520	741
840	477	413
841	715	240
842	195	714
843	945	488
844	352	652
845	217	462
846	54	960
847	429	631
848	404	56
849	348	921
850	768	81
851	686	572
852	282	167
853	207	88
854	867	603
855	208	799
856	560	732
857	655	359
858	435	906
859	456	245
860	616	944
861	204	620
862	968	810
863	236	612
864	766	612
865	657	957
866	306	600
867	698	820
868	664	915
869	778	398
870	783	597
871	79	969
872	361	912
873	997	671
874	965	611
875	320	687
876	699	440
877	934	924
878	741	519
879	430	353
880	702	240
881	95	522
882	866	291
883	983	798
884	406	466
885	479	742
886	229	677
887	200	931
888	420	936
889	119	564
890	743	420
891	991	794
892	669	827
893	197	286
894	780	4
895	45	381
896	856	487
897	262	444
898	894	217
899	888	817
900	286	97
901	422	135
902	152	954
903	88	839
904	472	305
905	523	812
906	859	65
907	198	510
908	342	895
909	482	425
910	551	200
911	829	644
912	773	619
913	924	583
914	682	212
915	378	480
916	995	567
917	777	192
918	159	432
919	424	395
920	350	264
921	745	654
922	732	808
923	895	286
924	453	450
925	109	793
926	574	66
927	555	574
928	59	709
929	270	211
930	496	404
931	555	378
932	958	618
933	205	178
934	319	172
935	548	603
936	63	473
937	695	200
938	21	410
939	264	775
940	155	54
941	464	929
942	925	389
943	101	134
944	999	563
945	124	685
946	987	631
947	563	654
948	223	130
949	522	285
950	394	623
951	803	678
952	568	67
953	543	906
954	59	524
955	432	973
956	583	948
957	110	664
958	691	254
959	479	315
960	462	96
961	874	703
962	360	486
963	615	448
964	890	974
965	292	265
966	137	123
967	921	801
968	494	492
969	392	949
970	100	529
971	560	634
972	315	857
973	992	409
974	30	121
975	736	292
976	152	769
977	7	916
978	398	449
979	494	686
980	947	706
981	881	170
982	650	508
983	93	173
984	716	419
985	706	302
986	916	345
987	860	73
988	309	607
989	66	164
990	557	461
991	284	364
992	803	839
993	919	133
994	683	177
995	867	270
996	401	630
997	612	554
998	157	847
999	21	303
1000	663	769
1001	496	778
DEMAND_SECTION
1	0
2	5
3	8
4	7
5	7
6	8
7	6
8	4
9	5
10	5
11	7
12	3
13	2
14	3
15	9
16	5
17	8
18	4
19	3
20	5
21	9
22	2
23	3
24	1
25	8
26	7
27	5
28	2
29	8
30	6
31	6
32	1
33	3
34	4
35	3
36	4
37	3
38	1
39	5
40	1
41	4
42	4
43	6
44	1
45	7
46	1
47	2
48	2
49	5
50	2
51	7
52	1
53	7
54	8
55	9
56	4
57	3
58	4
59	2
60	8
61	5
62	5
63	3
64	5
65	5
66	5
67	6
68	5
69	1
70	2
71	9
72	4
73	1
74	9
75	1
76	8
77	5
78	4
79	5
80	7
81	4
82	2
83	7
84	3
85	9
86	5
87	9
88	3
89	5
90	4
91	4
92	1
93	6
94	8
95	5
96	2
97	9
98	6
99	7
100	6
101	4
102	5
103	6
104	5
105	2
106	7
107	2
108	9
109	2
110	9
111	2
112	9
113	5
114	5
115	8
116	4
117	4
118	3
119	6
120	9
121	3
122	5
123	8
124	4
125	3
126	3
127	4
128	2
129	7
130	5
131	1
132	3
133	6
134	9
135	9
136	7
137	2
138	6
139	9
140	3
141	1
142	1
143	3
144	3
145	9
146	5
147	1
148	1
149	9
150	1
151	5
152	6
153	9
154	7
155	6
156	2
157	9
158	2
159	1
160	3
161	1
162	6
163	9
164	1
165	1
166	5
167	6
168	8
169	7
170	2
171	3
172	5
173	8
174	1
175	2
176	2
177	3
178	5
179	3
180	3
181	2
182	6
183	4
184	4
185	5
186	7
187	8
188	1
189	9
190	7
191	5
192	4
193	8
194	1
195	8
196	5
197	3
198	7
199	9
200	2
201	6
202	5
203	7
204	6
205	3
206	2
207	4
208	7
209	5
210	4
211	7
212	2
213	6
214	1
215	3
216	6
217	6
218	6
219	8
220	2
221	9
222	3
223	3
224	7
225	9
226	5
227	2
228	5
229	1
230	5
231	6
232	4
233	4
234	4
235	1
236	9
237	9
238	6
239	1
240	5
241	4
242	3
243	2
244	4
245	9
246	3
247	3
248	4
249	6
250	8
251	9
252	9
253	9
254	9
255	4
256	2
257	5
258	6
259	8
260	5
261	3
262	2
263	8
264	1
265	8
266	1
267	3
268	7
269	3
270	6
271	7
272	9
273	6
274	1
275	9
276	6
277	2
278	6
279	1
280	2
281	2
282	9
283	9
284	5
285	3
286	2
287	6
288	9
289	3
290	6
291	8
292	1
293	6
294	6
295	8
296	8
297	7
298	2
299	8
300	6
301	4
302	5
303	9
304	2
305	2
306	6
307	2
308	5
309	1
310	8
311	6
312	6
313	7
314	1
315	5
316	6
317	7
318	6
319	3
320	5
321	7
322	1
323	5
324	4
325	4
326	9
327	1
328	2
329	5
330	4
331	4
332	3
333	3
334	2
335	9
336	9
337	7
338	1
339	9
340	9
341	7
342	7
343	4
344	4
345	9
346	5
347	3
348	8
349	8
350	3
351	1
352	9
353	8
354	3
355	8
356	2
357	6
358	8
359	9
360	2
361	2
362	3
363	9
364	7
365	2
366	5
367	6
368	2
369	7
370	9
371	2
372	5
373	8
374	3
375	7
376	7
377	8
378	5
379	4
380	5
381	8
382	1
383	5
384	7
385	3
386	5
387	7
388	1
389	7
390	8
391	1
392	6
393	3
394	6
395	4
396	5
397	9
398	3
399	1
400	9
401	8
402	5
403	6
404	8
405	3
406	5
407	3
408	3
409	7
410	8
411	1
412	7
413	6
414	5
415	6
416	2
417	8
418	6
419	9
420	5
421	6
422	3
423	8
424	7
425	9
426	5
427	7
428	3
429	3
430	1
431	2
432	4
433	4
434	7
435	4
436	3
437	1
438	6
439	6
440	4
441	4
442	8
443	8
444	9
445	3
446	9
447	9
448	9
449	7
450	4
451	5
452	6
453	1
454	5
455	1
456	5
457	2
458	4
459	2
460	9
461	9
462	2
463	1
464	8
465	5
466	9
467	3
468	9
469	2
470	6
471	7
472	8
473	9
474	5
475	8
476	1
477	5
478	2
479	6
480	4
481	1
482	1
483	5
484	2
485	1
486	1
487	3
488	1
489	5
490	6
491	6
492	2
493	7
494	3
495	3
496	1
497	7
498	9
499	8
500	8
501	2
502	9
503	5
504	1
505	6
506	2
507	2
508	9
509	2
510	8
511	9
512	6
513	4
514	1
515	7
516	7
517	9
518	4
519	1
520	9
521	7
522	6
523	1
524	6
525	3
526	3
527	5
528	3
529	2
530	7
531	2
532	1
533	9
534	5
535	7
536	8
537	3
538	2
539	4
540	3
541	3
542	3
543	2
544	8
545	2
546	3
547	9
548	2
549	5
550	6
551	5
552	8
553	8
554	7
555	4
556	2
557	3
558	9
559	5
560	9
561	1
562	3
563	7
564	4
565	5
566	6
567	1
568	8
569	9
570	2
571	7
572	2
573	6
574	5
575	7
576	6
577	1
578	8
579	9
580	7
581	2
582	7
583	2
584	3
585	7
586	6
587	9
588	7
589	5
590	4
591	2
592	9
593	6
594	9
595	1
596	6
597	9
598	6
599	3
600	9
601	3
602	5
603	8
604	5
605	3
606	2
607	4
608	5
609	1
610	8
611	4
612	9
613	7
614	4
615	1
616	3
617	3
618	4
619	9
620	7
621	8
622	1
623	9
624	6
625	4
626	9
627	9
628	6
629	2
630	5
631	3
632	4
633	9
634	8
635	9
636	8
637	9
638	3
639	2
640	7
641	1
642	5
643	3
644	6
645	3
646	4
647	6
648	8
649	3
650	7
651	4
652	3
653	8
654	3
655	1
656	4
657	4
658	3
659	7
660	2
661	5
662	4
663	7
664	3
665	8
666	1
667	2
668	4
669	3
670	1
671	2
672	8
673	6
674	6
675	5
676	7
677	2
678	4
679	4
680	5
681	4
682	4
683	3
684	5
685	4
686	4
687	2
688	4
689	6
690	2
691	4
692	8
693	5
694	8
695	3
696	2
697	6
698	3
699	7
700	7
701	5
702	6
703	4
704	7
705	8
706	3
707	4
708	8
709	9
710	8
711	8
712	6
713	3
714	4
715	3
716	3
717	8
718	2
719	6
720	6
721	6
722	2
723	4
724	9
725	9
726	2
727	3
728	1
729	5
730	1
731	4
732	6
733	6
734	7
735	7
736	4
737	6
738	5
739	7
740	7
741	4
742	7
743	3
744	6
745	1
746	7
747	6
748	8
749	2
750	8
751	6
752	8
753	4
754	6
755	2
756	8
757	9
758	9
759	8
760	3
761	7
762	5
763	2
764	3
765	3
766	8
767	6
768	2
769	7
770	9
771	7
772	9
773	7
774	9
775	3
776	3
777	1
778	2
779	6
780	9
781	9
782	1
783	1
784	8
785	2
786	2
787	6
788	7
789	8
790	6
791	5
792	2
793	4
794	1
795	8
796	3
797	3
798	9
799	9
800	1
801	1
802	5
803	5
804	9
805	9
806	6
807	1
808	5
809	1
810	1
811	4
812	2
813	9
814	2
815	7
816	4
817	2
818	7
819	7
820	6
821	6
822	8
823	2
824	5
825	2
826	3
827	2
828	7
829	8
830	8
831	5
832	9
833	8
834	6
835	4
836	9
837	8
838	5
839	2
840	8
841	7
842	6
843	3
844	8
845	3
846	3
847	4
848	8
849	1
850	1
851	8
852	6
853	9
854	4
855	2
856	4
857	6
858	9
859	5
860	2
861	3
862	7
863	8
864	5
865	4
866	6
867	6
868	1
869	5
870	5
871	4
872	3
873	3
874	3
875	8
876	2
877	8
878	8
879	6
880	6
881	7
882	1
883	1
884	6
885	6
886	3
887	3
888	4
889	8
890	1
891	4
892	3
893	4
894	3
895	8
896	2
897	8
898	1
899	8
900	2
901	8
902	2
903	3
904	8
905	8
906	5
907	7
908	7
909	9
910	6
911	9
912	9
913	6
914	7
915	2
916	8
917	5
918	9
919	4
920	6
921	9
922	9
923	2
924	4
925	8
926	3
927	4
928	3
929	1
930	4
931	5
932	3
933	4
934	4
935	3
936	2
937	9
938	5
939	4
940	9
941	4
942	4
943	5
944	7
945	1
946	9
947	6
948	7
949	9
950	7
951	4
952	4
953	9
954	5
955	8
956	3
957	8
958	5
959	8
960	6
961	9
962	6
963	5
964	8
965	8
966	1
967	7
968	9
969	9
970	4
971	8
972	3
973	8
974	5
975	6
976	1
977	3
978	1
979	2
980	3
981	1
982	7
983	1
984	2
985	1
986	9
987	8
988	3
989	4
990	5
991	5
992	9
993	8
994	4
995	3
996	8
997	1
998	2
999	5
1000	3
1001	2
DEPOT_SECTION
1
-1
EOF
