NAME : n1001-0046
COMMENT : "Generated by pyvrp_manuel (CVRP)"
TYPE : CVRP
DIMENSION : 1001
EDGE_WEIGHT_TYPE : EUC_2D
CAPACITY : 150
NODE_COORD_SECTION
1	683	753
2	505	112
3	947	824
4	461	628
5	93	408
6	406	49
7	657	357
8	852	920
9	330	120
10	598	600
11	435	810
12	222	247
13	370	654
14	719	648
15	171	420
16	486	292
17	776	16
18	641	401
19	955	564
20	48	646
21	87	436
22	938	454
23	342	143
24	220	254
25	712	447
26	976	974
27	385	763
28	235	159
29	210	411
30	950	857
31	543	762
32	2	685
33	495	747
34	254	512
35	164	695
36	734	885
37	973	987
38	924	411
39	501	549
40	63	989
41	647	42
42	729	353
43	416	839
44	967	593
45	593	474
46	956	285
47	75	235
48	509	700
49	371	51
50	213	327
51	416	415
52	283	672
53	365	166
54	167	247
55	188	368
56	99	496
57	293	15
58	414	125
59	211	425
60	463	181
61	717	870
62	207	121
63	467	738
64	790	392
65	956	497
66	910	880
67	629	278
68	674	502
69	24	874
70	511	567
71	414	520
72	984	868
73	280	523
74	244	619
75	17	738
76	723	190
77	689	797
78	127	21
79	516	215
80	269	447
81	160	300
82	384	693
83	429	686
84	218	509
85	552	755
86	679	235
87	211	516
88	233	884
89	307	986
90	599	216
91	607	383
92	809	167
93	825	262
94	242	834
95	523	457
96	235	618
97	791	518
98	118	917
99	620	530
100	138	764
101	228	578
102	948	736
103	870	165
104	916	674
105	501	958
106	366	501
107	154	536
108	194	474
109	195	165
110	114	463
111	700	723
112	681	408
113	64	220
114	570	543
115	245	994
116	73	880
117	675	694
118	271	668
119	78	796
120	4	67
121	640	397
122	309	625
123	642	538
124	374	967
125	329	610
126	707	746
127	132	491
128	795	396
129	800	221
130	471	780
131	647	478
132	711	48
133	508	46
134	656	140
135	69	647
136	833	99
137	183	518
138	938	556
139	95	104
140	424	652
141	658	605
142	433	377
143	855	964
144	834	917
145	210	585
146	486	537
147	784	629
148	197	911
149	717	158
150	43	693
151	711	189
152	421	367
153	591	408
154	250	118
155	22	621
156	110	632
157	448	491
158	730	555
159	777	814
160	209	621
161	878	189
162	645	726
163	250	404
164	123	415
165	481	286
166	326	401
167	676	573
168	260	569
169	807	727
170	419	909
171	476	924
172	470	55
173	857	494
174	908	871
175	132	323
176	493	912
177	501	445
178	625	865
179	836	841
180	324	501
181	492	102
182	908	634
183	737	945
184	645	414
185	89	314
186	521	299
187	913	333
188	112	973
189	831	145
190	632	44
191	943	819
192	703	628
193	479	533
194	684	33
195	232	83
196	680	121
197	440	254
198	851	648
199	90	600
200	439	466
201	823	513
202	820	258
203	988	669
204	372	914
205	826	948
206	652	597
207	351	721
208	700	694
209	219	223
210	738	86
211	733	313
212	853	460
213	431	547
214	655	217
215	213	409
216	429	549
217	206	402
218	750	259
219	74	626
220	288	808
221	747	813
222	338	892
223	597	571
224	320	371
225	499	651
226	528	49
227	438	673
228	327	152
229	452	108
230	686	429
231	840	875
232	314	601
233	576	765
234	842	61
235	471	996
236	113	219
237	877	514
238	721	889
239	652	489
240	462	773
241	993	785
242	809	955
243	193	926
244	831	846
245	963	886
246	296	843
247	653	262
248	404	280
249	489	304
250	399	578
251	76	169
252	713	481
253	40	354
254	233	534
255	11	740
256	635	656
257	721	101
258	712	466
259	856	2
260	669	321
261	691	93
262	265	711
263	156	165
264	455	418
265	878	270
266	494	504
267	577	786
268	124	554
269	859	992
270	294	304
271	753	530
272	301	614
273	85	831
274	788	634
275	829	563
276	217	960
277	20	169
278	614	965
279	621	251
280	909	535
281	107	654
282	36	673
283	798	52
284	744	8
285	799	407
286	725	593
287	799	194
288	395	849
289	911	222
290	744	39
291	587	938
292	986	547
293	789	585
294	960	720
295	123	749
296	80	528
297	121	189
298	907	620
299	795	894
300	632	643
301	164	297
302	757	515
303	935	77
304	983	262
305	991	677
306	882	973
307	511	96
308	43	486
309	680	849
310	213	237
311	441	24
312	709	51
313	589	795
314	113	657
315	29	693
316	750	305
317	71	25
318	2	752
319	462	306
320	519	65
321	157	845
322	3	562
323	899	322
324	605	3
325	928	292
326	751	37
327	735	587
328	122	337
329	514	111
330	380	825
331	603	684
332	919	200
333	686	699
334	591	465
335	240	198
336	856	774
337	834	885
338	721	440
339	83	340
340	994	525
341	470	455
342	247	987
343	263	298
344	363	833
345	656	537
346	724	93
347	430	996
348	883	887
349	49	788
350	750	244
351	712	701
352	252	606
353	178	442
354	338	825
355	159	447
356	23	954
357	451	357
358	726	166
359	375	754
360	571	976
361	413	902
362	473	894
363	109	587
364	76	304
365	126	230
366	283	941
367	94	346
368	224	526
369	756	446
370	637	713
371	225	489
372	279	957
373	470	946
374	962	857
375	997	690
376	516	701
377	431	870
378	317	539
379	663	491
380	892	876
381	895	367
382	815	279
383	456	253
384	173	264
385	19	887
386	936	537
387	539	443
388	580	734
389	678	53
390	484	399
391	975	232
392	657	991
393	504	145
394	292	222
395	697	748
396	938	756
397	404	155
398	634	827
399	249	580
400	629	442
401	798	686
402	111	30
403	158	912
404	379	216
405	983	598
406	411	379
407	336	776
408	26	91
409	47	248
410	761	733
411	884	954
412	274	268
413	865	610
414	905	741
415	469	311
416	604	81
417	368	312
418	999	932
419	429	535
420	778	833
421	375	368
422	651	147
423	123	690
424	105	425
425	55	535
426	354	238
427	704	455
428	736	919
429	54	419
430	479	820
431	178	157
432	901	469
433	279	770
434	568	394
435	231	411
436	416	788
437	602	911
438	835	622
439	247	542
440	193	444
441	109	76
442	684	220
443	927	336
444	695	297
445	564	993
446	665	848
447	264	533
448	828	731
449	498	173
450	836	494
451	496	335
452	990	339
453	953	933
454	518	300
455	137	745
456	866	348
457	356	729
458	883	870
459	614	233
460	917	695
461	282	36
462	761	444
463	239	349
464	993	101
465	554	175
466	422	615
467	930	16
468	950	130
469	120	788
470	834	39
471	742	347
472	333	678
473	715	604
474	538	723
475	791	768
476	20	72
477	967	657
478	911	262
479	203	279
480	853	899
481	804	445
482	468	761
483	287	921
484	24	219
485	134	100
486	352	130
487	38	449
488	516	453
489	674	313
490	708	951
491	96	524
492	632	770
493	607	778
494	574	575
495	536	13
496	999	242
497	963	589
498	786	403
499	138	323
500	516	807
501	141	897
502	488	631
503	995	836
504	563	347
505	983	753
506	889	510
507	174	980
508	629	557
509	693	445
510	884	703
511	324	798
512	367	244
513	628	468
514	356	476
515	589	954
516	531	310
517	97	901
518	76	17
519	776	975
520	380	166
521	472	44
522	418	694
523	787	994
524	478	180
525	74	790
526	653	996
527	180	924
528	680	996
529	502	144
530	791	153
531	252	768
532	790	232
533	365	900
534	355	558
535	114	774
536	301	527
537	459	691
538	798	772
539	704	414
540	355	919
541	824	996
542	734	744
543	41	785
544	393	961
545	964	22
546	128	915
547	548	624
548	543	36
549	225	454
550	743	230
551	380	829
552	267	324
553	471	543
554	77	276
555	590	867
556	716	879
557	717	735
558	501	259
559	65	923
560	135	462
561	221	247
562	191	851
563	32	65
564	639	325
565	50	935
566	608	211
567	477	113
568	492	193
569	452	201
570	960	502
571	784	473
572	734	78
573	20	806
574	478	738
575	109	762
576	3	267
577	30	865
578	882	216
579	577	427
580	6	885
581	39	844
582	280	638
583	385	623
584	771	834
585	813	456
586	388	983
587	234	332
588	566	993
589	157	845
590	346	649
591	452	167
592	395	375
593	257	704
594	838	467
595	303	830
596	32	592
597	33	556
598	670	628
599	928	616
600	778	832
601	908	742
602	49	446
603	365	175
604	944	33
605	458	309
606	980	127
607	437	462
608	770	815
609	272	915
610	878	857
611	805	749
612	908	43
613	606	723
614	176	361
615	844	329
616	323	824
617	637	233
618	989	343
619	355	169
620	24	438
621	178	280
622	803	880
623	25	118
624	114	506
625	47	465
626	549	743
627	726	101
628	941	84
629	817	113
630	682	842
631	588	13
632	191	786
633	754	118
634	591	278
635	956	694
636	446	378
637	854	92
638	740	389
639	461	534
640	803	30
641	287	663
642	743	758
643	976	267
644	525	12
645	918	895
646	26	17
647	872	818
648	301	871
649	914	128
650	712	881
651	766	946
652	179	60
653	915	677
654	66	37
655	798	670
656	771	878
657	389	564
658	398	636
659	550	268
660	777	851
661	591	905
662	223	193
663	298	916
664	465	716
665	351	492
666	9	605
667	830	465
668	513	91
669	432	899
670	32	399
671	299	950
672	215	7
673	682	539
674	308	994
675	515	938
676	407	512
677	847	511
678	359	359
679	837	20
680	634	393
681	820	65
682	546	170
683	93	4
684	951	82
685	885	332
686	86	714
687	700	609
688	804	56
689	579	541
690	683	779
691	627	924
692	970	3
693	576	728
694	657	787
695	304	279
696	154	195
697	807	670
698	766	74
699	601	465
700	127	691
701	532	102
702	192	849
703	956	43
704	645	81
705	953	903
706	378	245
707	856	13
708	661	155
709	464	677
710	826	476
711	825	742
712	61	972
713	563	94
714	65	420
715	228	973
716	90	487
717	548	47
718	256	419
719	882	200
720	906	3
721	492	447
722	256	937
723	847	583
724	309	658
725	140	18
726	217	195
727	81	22
728	386	588
729	355	741
730	619	737
731	552	168
732	673	995
733	842	313
734	922	67
735	119	634
736	68	811
737	310	629
738	490	147
739	512	322
740	813	543
741	171	697
742	879	92
743	409	704
744	175	958
745	122	819
746	243	697
747	473	654
748	948	690
749	43	658
750	432	142
751	725	762
752	859	536
753	148	367
754	661	639
755	583	77
756	533	870
757	556	657
758	236	594
759	641	426
760	326	759
761	494	998
762	110	900
763	783	235
764	959	368
765	482	580
766	102	914
767	440	454
768	244	840
769	418	26
770	337	897
771	160	13
772	150	58
773	590	750
774	818	188
775	184	22
776	888	750
777	452	468
778	5	18
779	12	529
780	544	433
781	636	640
782	123	779
783	918	864
784	423	236
785	532	611
786	18	775
787	888	793
788	595	936
789	766	194
790	609	540
791	75	943
792	562	78
793	395	744
794	693	340
795	26	605
796	402	231
797	729	788
798	332	961
799	310	148
800	165	910
801	72	917
802	87	55
803	299	939
804	736	520
805	696	52
806	20	87
807	658	665
808	530	242
809	146	568
810	126	619
811	356	124
812	840	763
813	853	341
814	494	106
815	380	174
816	439	349
817	106	188
818	736	823
819	351	778
820	88	224
821	260	665
822	281	788
823	595	857
824	279	82
825	383	876
826	194	419
827	621	763
828	235	46
829	185	716
830	445	712
831	262	819
832	828	838
833	739	273
834	60	255
835	481	399
836	493	805
837	233	159
838	204	921
839	917	564
840	728	388
841	887	830
842	646	521
843	905	423
844	814	223
845	471	543
846	839	94
847	13	592
848	67	64
849	729	392
850	452	439
851	472	962
852	392	95
853	295	101
854	412	924
855	621	838
856	873	596
857	105	664
858	732	621
859	643	628
860	306	344
861	972	458
862	868	32
863	717	595
864	672	70
865	378	361
866	981	158
867	197	61
868	68	27
869	732	84
870	681	986
871	733	793
872	150	952
873	947	750
874	926	802
875	558	50
876	675	135
877	677	847
878	271	571
879	1	772
880	471	834
881	643	567
882	474	209
883	435	959
884	980	800
885	575	107
886	704	494
887	955	681
888	456	459
889	576	585
890	953	546
891	619	59
892	204	703
893	995	717
894	83	287
895	992	811
896	861	426
897	390	725
898	525	320
899	577	819
900	531	626
901	737	363
902	532	504
903	222	545
904	974	447
905	111	232
906	863	799
907	826	567
908	42	875
909	543	815
910	155	28
911	827	18
912	138	522
913	973	613
914	648	822
915	93	653
916	963	948
917	978	858
918	495	438
919	924	114
920	539	818
921	41	29
922	469	102
923	16	475
924	607	773
925	449	169
926	586	761
927	327	513
928	426	102
929	89	393
930	895	407
931	646	475
932	803	681
933	61	225
934	995	759
935	109	869
936	613	937
937	119	481
938	179	710
939	282	659
940	580	525
941	717	95
942	935	748
943	773	85
944	678	954
945	683	857
946	148	749
947	681	913
948	736	970
949	160	242
950	744	667
951	955	623
952	156	546
953	303	466
954	497	82
955	826	617
956	304	878
957	385	978
958	348	637
959	469	432
960	420	594
961	818	272
962	774	775
963	334	371
964	892	969
965	101	305
966	410	144
967	91	65
968	61	888
969	571	329
970	164	56
971	914	245
972	725	937
973	922	948
974	385	653
975	750	561
976	565	177
977	32	288
978	434	105
979	426	276
980	773	196
981	699	894
982	855	157
983	640	392
984	197	415
985	402	755
986	40	606
987	491	828
988	829	327
989	982	543
990	580	805
991	103	407
992	489	849
993	839	10
994	381	544
995	646	285
996	666	114
997	683	949
998	796	994
999	270	844
1000	267	88
1001	378	344
DEMAND_SECTION
1	0
2	3
3	4
4	3
5	7
6	1
7	8
8	2
9	9
10	8
11	3
12	6
13	7
14	4
15	7
16	5
17	9
18	6
19	5
20	2
21	2
22	4
23	7
24	5
25	1
26	8
27	7
28	6
29	7
30	5
31	6
32	1
33	9
34	4
35	6
36	3
37	2
38	1
39	7
40	5
41	5
42	1
43	1
44	8
45	3
46	4
47	1
48	1
49	4
50	8
51	8
52	2
53	2
54	2
55	5
56	1
57	3
58	6
59	7
60	3
61	8
62	5
63	6
64	2
65	6
66	9
67	2
68	1
69	7
70	8
71	2
72	9
73	6
74	7
75	5
76	5
77	3
78	3
79	2
80	7
81	6
82	2
83	6
84	2
85	8
86	4
87	7
88	2
89	5
90	3
91	5
92	5
93	2
94	7
95	7
96	2
97	4
98	1
99	6
100	4
101	4
102	2
103	4
104	8
105	7
106	5
107	3
108	7
109	5
110	4
111	2
112	9
113	8
114	4
115	8
116	9
117	8
118	6
119	6
120	7
121	6
122	4
123	2
124	1
125	6
126	9
127	7
128	6
129	3
130	2
131	1
132	8
133	8
134	1
135	3
136	6
137	3
138	4
139	2
140	7
141	5
142	3
143	1
144	2
145	7
146	7
147	8
148	5
149	1
150	8
151	1
152	5
153	9
154	2
155	9
156	6
157	8
158	9
159	5
160	3
161	5
162	1
163	8
164	4
165	2
166	5
167	7
168	2
169	3
170	8
171	7
172	6
173	7
174	3
175	2
176	3
177	9
178	3
179	9
180	2
181	7
182	6
183	1
184	4
185	4
186	6
187	4
188	6
189	4
190	2
191	6
192	5
193	6
194	5
195	6
196	9
197	8
198	3
199	4
200	9
201	5
202	9
203	2
204	6
205	1
206	3
207	7
208	7
209	2
210	9
211	4
212	8
213	3
214	1
215	9
216	4
217	9
218	1
219	1
220	1
221	2
222	9
223	3
224	6
225	6
226	9
227	6
228	1
229	2
230	5
231	3
232	4
233	8
234	5
235	5
236	4
237	6
238	7
239	2
240	8
241	2
242	3
243	4
244	8
245	6
246	6
247	5
248	1
249	3
250	5
251	4
252	5
253	1
254	7
255	3
256	2
257	5
258	9
259	4
260	1
261	4
262	2
263	4
264	6
265	5
266	4
267	6
268	4
269	9
270	8
271	7
272	2
273	3
274	4
275	7
276	1
277	5
278	5
279	9
280	1
281	1
282	6
283	6
284	6
285	4
286	4
287	4
288	3
289	9
290	1
291	7
292	6
293	9
294	9
295	6
296	3
297	4
298	1
299	5
300	5
301	6
302	7
303	7
304	4
305	2
306	6
307	3
308	5
309	8
310	8
311	6
312	9
313	9
314	8
315	3
316	6
317	2
318	4
319	9
320	9
321	1
322	1
323	8
324	1
325	2
326	5
327	5
328	1
329	7
330	9
331	2
332	6
333	5
334	3
335	2
336	2
337	9
338	4
339	3
340	4
341	1
342	3
343	8
344	9
345	3
346	7
347	5
348	9
349	5
350	6
351	1
352	4
353	3
354	9
355	9
356	4
357	2
358	3
359	3
360	1
361	4
362	9
363	4
364	9
365	6
366	8
367	2
368	2
369	5
370	6
371	7
372	6
373	6
374	5
375	4
376	9
377	8
378	8
379	6
380	7
381	9
382	5
383	2
384	8
385	8
386	8
387	1
388	3
389	8
390	1
391	9
392	3
393	4
394	2
395	4
396	7
397	2
398	9
399	2
400	8
401	9
402	2
403	2
404	7
405	8
406	2
407	7
408	1
409	9
410	2
411	8
412	9
413	2
414	1
415	9
416	5
417	3
418	8
419	8
420	3
421	9
422	7
423	7
424	4
425	7
426	9
427	3
428	2
429	1
430	3
431	1
432	2
433	3
434	5
435	3
436	9
437	1
438	5
439	7
440	2
441	6
442	1
443	5
444	8
445	1
446	7
447	8
448	3
449	1
450	3
451	8
452	4
453	5
454	1
455	2
456	8
457	9
458	8
459	9
460	1
461	7
462	2
463	4
464	2
465	3
466	3
467	4
468	3
469	6
470	9
471	4
472	1
473	5
474	2
475	2
476	1
477	5
478	8
479	5
480	7
481	2
482	6
483	8
484	8
485	5
486	3
487	8
488	1
489	5
490	4
491	5
492	9
493	6
494	4
495	4
496	8
497	1
498	6
499	7
500	2
501	5
502	9
503	1
504	1
505	8
506	9
507	6
508	1
509	8
510	8
511	3
512	4
513	8
514	3
515	1
516	3
517	8
518	1
519	1
520	4
521	4
522	2
523	1
524	1
525	8
526	4
527	2
528	7
529	7
530	7
531	2
532	2
533	6
534	3
535	1
536	9
537	4
538	6
539	7
540	7
541	2
542	9
543	7
544	8
545	3
546	8
547	2
548	1
549	4
550	5
551	9
552	8
553	9
554	8
555	6
556	5
557	6
558	3
559	5
560	7
561	5
562	4
563	3
564	6
565	3
566	2
567	9
568	6
569	2
570	8
571	8
572	8
573	9
574	3
575	2
576	9
577	1
578	5
579	2
580	9
581	6
582	6
583	6
584	7
585	8
586	1
587	7
588	3
589	6
590	9
591	5
592	5
593	7
594	4
595	6
596	7
597	3
598	8
599	9
600	4
601	7
602	9
603	9
604	6
605	1
606	6
607	4
608	8
609	6
610	7
611	1
612	1
613	4
614	1
615	5
616	2
617	9
618	8
619	7
620	9
621	1
622	3
623	5
624	7
625	3
626	2
627	1
628	1
629	4
630	5
631	1
632	8
633	6
634	4
635	7
636	4
637	6
638	6
639	2
640	6
641	7
642	5
643	1
644	8
645	1
646	7
647	3
648	4
649	9
650	7
651	9
652	6
653	8
654	7
655	6
656	7
657	7
658	7
659	1
660	5
661	9
662	1
663	6
664	6
665	4
666	6
667	1
668	2
669	2
670	1
671	5
672	2
673	3
674	6
675	1
676	3
677	3
678	7
679	3
680	1
681	2
682	3
683	7
684	9
685	9
686	1
687	3
688	2
689	5
690	2
691	8
692	7
693	5
694	2
695	1
696	5
697	4
698	4
699	9
700	9
701	9
702	9
703	5
704	6
705	5
706	4
707	8
708	5
709	2
710	9
711	9
712	5
713	2
714	1
715	3
716	3
717	7
718	1
719	8
720	1
721	7
722	2
723	5
724	6
725	6
726	2
727	2
728	2
729	2
730	1
731	4
732	6
733	9
734	6
735	6
736	2
737	7
738	2
739	8
740	2
741	8
742	8
743	9
744	4
745	9
746	6
747	8
748	9
749	7
750	5
751	8
752	5
753	7
754	8
755	4
756	3
757	2
758	3
759	4
760	7
761	3
762	3
763	8
764	8
765	1
766	7
767	5
768	7
769	3
770	3
771	9
772	9
773	6
774	2
775	2
776	9
777	2
778	1
779	8
780	4
781	8
782	6
783	1
784	7
785	1
786	4
787	8
788	3
789	8
790	7
791	2
792	8
793	7
794	4
795	1
796	1
797	3
798	3
799	9
800	2
801	4
802	5
803	1
804	6
805	7
806	4
807	5
808	1
809	6
810	3
811	2
812	1
813	4
814	1
815	3
816	4
817	1
818	3
819	2
820	8
821	9
822	4
823	4
824	1
825	5
826	7
827	8
828	3
829	9
830	5
831	3
832	1
833	4
834	6
835	4
836	7
837	6
838	5
839	8
840	7
841	9
842	3
843	6
844	2
845	8
846	4
847	6
848	5
849	2
850	2
851	7
852	8
853	5
854	2
855	6
856	5
857	8
858	2
859	9
860	3
861	2
862	9
863	3
864	7
865	6
866	2
867	3
868	5
869	7
870	2
871	7
872	3
873	8
874	4
875	9
876	1
877	4
878	5
879	4
880	8
881	9
882	5
883	7
884	3
885	8
886	7
887	6
888	9
889	5
890	5
891	2
892	8
893	1
894	9
895	7
896	4
897	6
898	5
899	5
900	7
901	8
902	6
903	4
904	6
905	6
906	1
907	8
908	5
909	6
910	3
911	4
912	7
913	2
914	4
915	7
916	7
917	6
918	8
919	4
920	9
921	8
922	4
923	9
924	5
925	7
926	9
927	4
928	6
929	3
930	9
931	6
932	1
933	5
934	4
935	1
936	9
937	7
938	4
939	6
940	3
941	1
942	1
943	8
944	5
945	3
946	8
947	3
948	1
949	9
950	7
951	6
952	5
953	5
954	9
955	6
956	6
957	8
958	1
959	7
960	2
961	1
962	8
963	5
964	6
965	7
966	4
967	2
968	6
969	8
970	7
971	7
972	6
973	5
974	5
975	3
976	5
977	6
978	9
979	8
980	8
981	5
982	6
983	6
984	6
985	7
986	4
987	5
988	9
989	9
990	7
991	4
992	1
993	5
994	5
995	6
996	4
997	7
998	1
999	9
1000	4
1001	6
DEPOT_SECTION
1
-1
EOF
