NAME : n1001-0029
COMMENT : "Generated by pyvrp_manuel (CVRP)"
TYPE : CVRP
DIMENSION : 1001
EDGE_WEIGHT_TYPE : EUC_2D
CAPACITY : 150
NODE_COORD_SECTION
1	593	112
2	627	387
3	969	159
4	613	36
5	900	653
6	466	998
7	219	909
8	552	725
9	700	278
10	569	195
11	272	803
12	738	2
13	698	852
14	536	384
15	564	510
16	329	708
17	852	929
18	167	382
19	991	720
20	205	512
21	748	289
22	62	694
23	172	236
24	718	484
25	401	591
26	199	220
27	476	917
28	830	637
29	452	406
30	472	581
31	597	23
32	776	507
33	758	979
34	930	741
35	510	97
36	992	603
37	775	657
38	833	158
39	167	517
40	23	507
41	78	329
42	80	355
43	829	405
44	630	472
45	400	82
46	150	151
47	736	540
48	977	563
49	165	787
50	225	99
51	289	934
52	667	990
53	82	662
54	50	769
55	861	315
56	817	711
57	660	196
58	715	309
59	685	299
60	820	683
61	174	986
62	510	597
63	1	737
64	876	178
65	218	410
66	256	342
67	602	947
68	410	62
69	654	821
70	45	728
71	947	444
72	195	427
73	37	336
74	315	196
75	36	98
76	605	481
77	581	827
78	259	295
79	695	526
80	967	95
81	482	713
82	564	652
83	663	48
84	957	825
85	174	845
86	673	329
87	580	454
88	505	663
89	855	931
90	512	657
91	768	768
92	189	561
93	985	936
94	750	622
95	801	962
96	462	895
97	928	282
98	544	703
99	350	868
100	113	203
101	989	171
102	892	946
103	708	615
104	416	479
105	519	383
106	522	652
107	727	888
108	707	883
109	616	621
110	826	545
111	164	224
112	777	51
113	589	962
114	323	150
115	847	813
116	279	818
117	262	175
118	706	945
119	49	131
120	360	24
121	855	496
122	563	896
123	358	363
124	547	222
125	811	55
126	524	254
127	970	17
128	608	530
129	787	205
130	340	713
131	294	39
132	343	378
133	858	478
134	61	500
135	393	179
136	755	461
137	523	451
138	227	432
139	20	998
140	145	277
141	60	978
142	752	385
143	468	616
144	590	979
145	32	855
146	322	97
147	248	621
148	411	785
149	89	207
150	469	978
151	123	160
152	762	251
153	459	596
154	59	872
155	525	142
156	624	504
157	608	732
158	39	308
159	370	126
160	768	225
161	797	736
162	751	428
163	55	554
164	163	898
165	861	54
166	558	421
167	760	994
168	587	454
169	186	978
170	461	589
171	978	665
172	117	132
173	908	107
174	2	349
175	638	700
176	938	808
177	288	446
178	366	526
179	354	328
180	21	529
181	625	7
182	950	52
183	114	166
184	201	384
185	353	492
186	32	580
187	591	265
188	198	734
189	184	444
190	54	250
191	510	699
192	832	422
193	849	353
194	897	176
195	950	16
196	958	313
197	669	637
198	761	879
199	325	94
200	442	47
201	575	97
202	998	352
203	613	357
204	307	506
205	970	521
206	94	617
207	519	154
208	109	529
209	709	552
210	11	197
211	611	242
212	940	452
213	889	453
214	450	347
215	449	526
216	692	566
217	729	896
218	275	13
219	328	634
220	144	265
221	311	153
222	893	301
223	613	489
224	46	502
225	633	838
226	480	468
227	933	913
228	246	0
229	389	991
230	740	819
231	99	342
232	498	405
233	649	275
234	755	773
235	378	384
236	663	673
237	641	229
238	261	700
239	731	365
240	559	801
241	632	109
242	215	716
243	167	426
244	29	628
245	143	935
246	285	980
247	167	596
248	244	287
249	797	34
250	656	173
251	262	230
252	524	758
253	283	794
254	489	946
255	313	896
256	721	227
257	801	368
258	782	726
259	832	496
260	709	585
261	400	493
262	975	816
263	272	145
264	781	964
265	607	271
266	516	845
267	394	742
268	871	100
269	19	445
270	498	401
271	286	614
272	796	952
273	646	634
274	562	331
275	126	98
276	5	237
277	333	953
278	830	309
279	666	874
280	177	862
281	211	228
282	311	982
283	266	764
284	463	834
285	86	587
286	387	62
287	355	979
288	277	932
289	63	322
290	863	310
291	346	615
292	854	286
293	558	91
294	328	887
295	463	286
296	928	330
297	94	358
298	972	490
299	245	735
300	268	246
301	508	524
302	645	94
303	274	399
304	25	385
305	356	885
306	608	408
307	735	92
308	138	347
309	311	952
310	451	206
311	47	869
312	15	636
313	29	907
314	124	675
315	579	184
316	717	891
317	124	328
318	449	641
319	728	256
320	672	619
321	815	177
322	450	803
323	330	970
324	244	288
325	916	46
326	372	278
327	338	656
328	869	301
329	230	274
330	593	296
331	408	625
332	832	146
333	655	683
334	912	950
335	760	43
336	476	518
337	2	308
338	445	105
339	106	706
340	954	63
341	646	817
342	543	291
343	702	212
344	795	543
345	594	723
346	204	360
347	59	202
348	126	453
349	841	921
350	494	502
351	18	88
352	817	552
353	990	805
354	84	731
355	934	498
356	501	259
357	140	65
358	438	322
359	616	772
360	166	528
361	602	268
362	868	256
363	474	587
364	277	365
365	318	533
366	386	120
367	886	307
368	511	361
369	833	346
370	293	336
371	367	419
372	739	482
373	957	104
374	746	211
375	137	978
376	750	758
377	77	761
378	27	738
379	854	306
380	209	643
381	368	119
382	657	553
383	358	362
384	518	814
385	38	8
386	872	221
387	46	935
388	39	45
389	60	528
390	649	603
391	267	304
392	286	269
393	765	679
394	310	495
395	995	367
396	31	745
397	260	450
398	855	521
399	590	845
400	517	647
401	262	82
402	345	483
403	849	270
404	538	3
405	429	919
406	861	813
407	835	269
408	483	341
409	932	873
410	709	314
411	451	242
412	499	528
413	937	121
414	646	94
415	521	979
416	550	545
417	105	160
418	146	689
419	137	247
420	927	475
421	879	407
422	795	965
423	422	12
424	335	752
425	458	484
426	15	681
427	758	159
428	186	148
429	760	36
430	353	183
431	304	79
432	43	371
433	798	815
434	231	20
435	874	903
436	378	415
437	331	300
438	278	315
439	631	197
440	347	467
441	378	434
442	771	951
443	658	24
444	697	122
445	73	170
446	198	887
447	589	179
448	207	188
449	286	340
450	291	234
451	99	560
452	186	704
453	654	18
454	34	800
455	225	725
456	129	963
457	923	477
458	337	31
459	131	178
460	285	604
461	286	830
462	618	865
463	481	738
464	831	13
465	525	686
466	953	79
467	744	807
468	823	993
469	876	743
470	993	456
471	859	938
472	312	961
473	671	195
474	13	443
475	324	216
476	709	535
477	316	967
478	231	532
479	317	88
480	238	614
481	254	703
482	859	380
483	803	971
484	217	195
485	579	810
486	22	844
487	953	640
488	400	324
489	191	365
490	889	42
491	132	120
492	150	857
493	668	666
494	857	261
495	979	54
496	597	415
497	158	175
498	483	47
499	146	847
500	79	592
501	576	466
502	152	948
503	398	27
504	714	60
505	383	558
506	80	908
507	640	180
508	449	694
509	465	751
510	890	551
511	910	322
512	747	594
513	175	14
514	571	159
515	155	809
516	640	256
517	449	80
518	826	230
519	397	236
520	332	193
521	92	302
522	973	364
523	866	20
524	286	127
525	172	917
526	653	129
527	540	996
528	86	219
529	725	908
530	345	724
531	850	490
532	857	793
533	955	931
534	384	761
535	611	665
536	336	693
537	183	345
538	582	414
539	522	659
540	434	368
541	647	27
542	648	668
543	609	349
544	842	742
545	103	673
546	521	653
547	858	414
548	692	343
549	965	739
550	192	760
551	39	858
552	658	55
553	704	134
554	740	847
555	258	495
556	468	55
557	194	679
558	263	112
559	321	970
560	26	718
561	854	949
562	715	248
563	919	67
564	15	586
565	374	349
566	54	340
567	717	280
568	401	371
569	145	433
570	831	915
571	815	144
572	206	559
573	874	211
574	556	349
575	407	652
576	915	751
577	478	849
578	557	327
579	317	636
580	251	386
581	451	913
582	178	408
583	700	256
584	746	128
585	934	733
586	105	888
587	404	839
588	580	654
589	171	988
590	352	167
591	470	690
592	827	253
593	621	955
594	137	612
595	702	485
596	772	601
597	917	541
598	413	736
599	426	65
600	682	109
601	318	815
602	383	264
603	978	665
604	281	176
605	933	664
606	980	76
607	231	330
608	215	395
609	993	646
610	611	398
611	970	550
612	60	494
613	655	533
614	901	591
615	488	153
616	820	290
617	557	168
618	543	366
619	359	215
620	597	684
621	562	832
622	318	377
623	910	810
624	696	518
625	834	47
626	85	444
627	370	503
628	853	405
629	707	443
630	482	609
631	595	429
632	372	709
633	486	347
634	500	859
635	204	135
636	407	969
637	346	379
638	287	85
639	489	782
640	247	250
641	777	135
642	292	288
643	403	312
644	272	818
645	482	766
646	220	437
647	158	560
648	663	488
649	639	206
650	48	419
651	629	426
652	768	631
653	412	545
654	497	832
655	393	756
656	427	525
657	300	382
658	492	336
659	761	401
660	963	403
661	357	824
662	585	252
663	585	577
664	496	2
665	199	224
666	480	508
667	275	223
668	284	274
669	106	628
670	920	659
671	945	736
672	6	20
673	431	170
674	104	696
675	931	568
676	21	696
677	681	144
678	560	106
679	651	635
680	550	367
681	145	532
682	78	177
683	807	269
684	49	191
685	724	832
686	595	332
687	258	599
688	611	723
689	575	3
690	519	179
691	90	317
692	420	202
693	907	644
694	609	728
695	329	350
696	549	280
697	512	977
698	764	965
699	352	509
700	691	182
701	669	313
702	545	750
703	15	574
704	429	234
705	664	620
706	337	561
707	39	533
708	925	31
709	207	64
710	809	72
711	331	574
712	461	948
713	673	815
714	860	909
715	79	469
716	375	414
717	499	749
718	562	895
719	505	561
720	271	723
721	721	913
722	162	673
723	635	311
724	678	91
725	964	13
726	222	257
727	832	912
728	652	362
729	124	992
730	719	286
731	909	276
732	893	426
733	868	589
734	861	563
735	17	753
736	950	12
737	631	451
738	864	953
739	933	887
740	251	24
741	57	228
742	920	198
743	402	109
744	267	392
745	514	629
746	651	310
747	505	246
748	904	233
749	923	9
750	308	94
751	332	711
752	596	808
753	417	552
754	41	707
755	391	702
756	296	621
757	960	618
758	18	232
759	12	777
760	564	257
761	407	423
762	556	227
763	234	703
764	682	226
765	554	809
766	70	789
767	369	340
768	789	195
769	632	155
770	923	845
771	686	597
772	686	62
773	805	523
774	1000	294
775	727	194
776	63	113
777	184	243
778	779	331
779	522	90
780	489	943
781	928	391
782	892	938
783	189	274
784	129	669
785	385	666
786	722	137
787	945	69
788	203	158
789	394	607
790	150	245
791	245	629
792	389	319
793	211	765
794	520	374
795	410	645
796	649	868
797	794	428
798	674	594
799	396	894
800	724	983
801	259	623
802	758	138
803	709	362
804	433	226
805	483	5
806	314	997
807	70	673
808	182	677
809	987	234
810	40	564
811	891	886
812	506	471
813	5	129
814	795	961
815	147	880
816	694	139
817	777	710
818	781	520
819	484	986
820	457	29
821	191	611
822	292	122
823	224	161
824	141	643
825	247	421
826	279	969
827	928	111
828	71	146
829	265	478
830	664	201
831	51	523
832	579	101
833	323	7
834	240	296
835	740	703
836	473	124
837	570	857
838	526	919
839	984	88
840	861	30
841	1000	559
842	193	903
843	908	103
844	460	718
845	301	720
846	799	823
847	937	72
848	267	567
849	577	211
850	827	790
851	127	545
852	34	923
853	639	912
854	305	157
855	635	819
856	73	201
857	235	12
858	294	391
859	250	307
860	196	696
861	86	682
862	405	562
863	846	393
864	106	311
865	697	726
866	822	388
867	439	814
868	922	527
869	610	28
870	541	488
871	524	928
872	558	278
873	377	876
874	553	94
875	827	191
876	659	516
877	26	338
878	803	342
879	42	109
880	825	768
881	264	749
882	248	441
883	388	648
884	108	449
885	270	241
886	244	449
887	666	348
888	410	684
889	519	536
890	335	573
891	1	840
892	247	561
893	10	21
894	351	199
895	631	39
896	497	13
897	730	193
898	131	82
899	709	243
900	726	806
901	426	136
902	652	939
903	720	716
904	790	370
905	606	316
906	866	159
907	148	512
908	339	907
909	161	688
910	525	358
911	127	749
912	887	688
913	200	674
914	669	873
915	884	10
916	87	267
917	806	720
918	43	573
919	410	639
920	626	338
921	87	562
922	769	764
923	156	37
924	239	425
925	540	654
926	136	471
927	445	18
928	681	427
929	432	969
930	130	149
931	348	412
932	827	341
933	58	462
934	932	704
935	693	19
936	79	862
937	830	262
938	562	288
939	127	804
940	628	372
941	524	287
942	869	143
943	965	552
944	696	834
945	162	723
946	788	377
947	367	511
948	789	494
949	171	190
950	458	646
951	7	391
952	913	475
953	79	196
954	239	340
955	6	664
956	192	674
957	131	336
958	422	854
959	100	148
960	99	455
961	931	487
962	14	415
963	244	233
964	435	222
965	87	863
966	24	14
967	271	182
968	172	988
969	72	841
970	988	285
971	725	582
972	501	290
973	293	710
974	457	713
975	614	603
976	605	420
977	890	953
978	427	205
979	267	469
980	399	197
981	660	780
982	706	995
983	527	535
984	386	434
985	212	362
986	629	377
987	533	722
988	836	837
989	22	728
990	199	48
991	267	349
992	758	537
993	239	871
994	634	963
995	892	523
996	807	90
997	117	877
998	526	339
999	312	16
1000	823	920
1001	190	35
DEMAND_SECTION
1	0
2	9
3	4
4	5
5	3
6	6
7	8
8	4
9	4
10	9
11	2
12	9
13	7
14	3
15	2
16	4
17	9
18	8
19	7
20	1
21	2
22	2
23	4
24	5
25	1
26	2
27	9
28	6
29	1
30	2
31	7
32	2
33	5
34	3
35	1
36	4
37	4
38	5
39	2
40	9
41	6
42	4
43	8
44	2
45	2
46	4
47	6
48	4
49	5
50	3
51	9
52	1
53	8
54	5
55	9
56	1
57	2
58	6
59	7
60	2
61	7
62	9
63	2
64	1
65	3
66	9
67	8
68	2
69	9
70	4
71	3
72	3
73	3
74	2
75	3
76	6
77	4
78	9
79	5
80	1
81	7
82	4
83	4
84	6
85	1
86	6
87	8
88	7
89	5
90	5
91	7
92	4
93	8
94	2
95	2
96	5
97	5
98	2
99	5
100	4
101	5
102	8
103	6
104	4
105	9
106	8
107	3
108	5
109	6
110	2
111	2
112	3
113	7
114	3
115	9
116	1
117	6
118	4
119	1
120	8
121	6
122	3
123	7
124	7
125	9
126	1
127	1
128	2
129	9
130	1
131	2
132	7
133	2
134	2
135	1
136	7
137	1
138	7
139	5
140	2
141	2
142	9
143	4
144	8
145	4
146	1
147	4
148	5
149	6
150	1
151	1
152	1
153	1
154	8
155	4
156	9
157	6
158	6
159	4
160	2
161	6
162	4
163	5
164	3
165	9
166	1
167	4
168	9
169	2
170	1
171	9
172	2
173	3
174	7
175	2
176	3
177	3
178	2
179	8
180	9
181	3
182	3
183	4
184	6
185	8
186	3
187	9
188	6
189	2
190	9
191	8
192	2
193	2
194	8
195	7
196	3
197	4
198	9
199	5
200	6
201	3
202	4
203	5
204	2
205	2
206	2
207	5
208	1
209	8
210	2
211	4
212	5
213	2
214	8
215	1
216	3
217	6
218	3
219	8
220	8
221	4
222	7
223	1
224	1
225	7
226	1
227	5
228	8
229	4
230	2
231	8
232	2
233	4
234	9
235	8
236	6
237	6
238	2
239	3
240	3
241	7
242	6
243	1
244	6
245	6
246	8
247	7
248	3
249	6
250	8
251	1
252	3
253	1
254	3
255	2
256	1
257	9
258	5
259	1
260	5
261	6
262	3
263	3
264	2
265	6
266	4
267	1
268	9
269	9
270	4
271	2
272	7
273	8
274	6
275	3
276	3
277	4
278	4
279	5
280	1
281	3
282	6
283	8
284	7
285	4
286	6
287	5
288	7
289	3
290	9
291	8
292	3
293	9
294	7
295	5
296	5
297	9
298	7
299	9
300	4
301	7
302	1
303	8
304	2
305	2
306	7
307	8
308	1
309	2
310	2
311	7
312	2
313	6
314	3
315	7
316	5
317	4
318	6
319	5
320	7
321	3
322	7
323	6
324	8
325	7
326	7
327	1
328	9
329	5
330	9
331	3
332	1
333	9
334	4
335	6
336	3
337	8
338	2
339	9
340	1
341	1
342	8
343	8
344	6
345	2
346	5
347	2
348	7
349	3
350	2
351	3
352	8
353	2
354	7
355	1
356	1
357	8
358	3
359	4
360	3
361	3
362	2
363	1
364	8
365	8
366	6
367	6
368	4
369	6
370	4
371	6
372	5
373	6
374	3
375	4
376	5
377	6
378	2
379	5
380	7
381	9
382	4
383	4
384	9
385	8
386	8
387	3
388	8
389	9
390	5
391	3
392	1
393	8
394	5
395	4
396	9
397	7
398	9
399	6
400	1
401	4
402	8
403	7
404	5
405	7
406	5
407	3
408	3
409	8
410	4
411	7
412	5
413	7
414	7
415	2
416	3
417	8
418	3
419	9
420	7
421	6
422	3
423	3
424	3
425	8
426	7
427	1
428	1
429	9
430	9
431	7
432	5
433	9
434	7
435	6
436	3
437	1
438	1
439	4
440	3
441	8
442	6
443	6
444	9
445	9
446	5
447	6
448	1
449	8
450	8
451	1
452	5
453	5
454	2
455	3
456	3
457	2
458	4
459	6
460	7
461	8
462	1
463	3
464	5
465	5
466	6
467	4
468	7
469	9
470	5
471	6
472	3
473	3
474	9
475	6
476	2
477	1
478	6
479	5
480	9
481	9
482	6
483	2
484	3
485	1
486	1
487	7
488	6
489	9
490	3
491	5
492	8
493	3
494	3
495	4
496	8
497	9
498	5
499	4
500	9
501	8
502	2
503	6
504	9
505	7
506	7
507	2
508	8
509	7
510	4
511	7
512	9
513	9
514	4
515	3
516	8
517	5
518	2
519	3
520	2
521	7
522	3
523	6
524	7
525	5
526	3
527	6
528	1
529	1
530	3
531	5
532	1
533	1
534	2
535	4
536	7
537	3
538	3
539	6
540	1
541	2
542	5
543	3
544	4
545	8
546	8
547	7
548	8
549	6
550	3
551	5
552	5
553	7
554	4
555	6
556	6
557	7
558	5
559	5
560	9
561	3
562	4
563	4
564	6
565	6
566	5
567	4
568	8
569	8
570	9
571	8
572	1
573	9
574	6
575	1
576	7
577	4
578	8
579	2
580	6
581	5
582	9
583	3
584	5
585	8
586	1
587	1
588	2
589	6
590	4
591	1
592	4
593	8
594	2
595	1
596	9
597	2
598	8
599	7
600	5
601	5
602	3
603	9
604	8
605	2
606	3
607	5
608	4
609	4
610	4
611	5
612	4
613	6
614	2
615	2
616	4
617	7
618	4
619	9
620	4
621	6
622	2
623	2
624	2
625	3
626	3
627	7
628	5
629	7
630	9
631	8
632	5
633	9
634	9
635	3
636	1
637	7
638	3
639	8
640	4
641	8
642	5
643	2
644	6
645	3
646	1
647	2
648	8
649	2
650	6
651	2
652	8
653	8
654	6
655	7
656	1
657	6
658	7
659	8
660	1
661	9
662	3
663	1
664	7
665	9
666	1
667	5
668	3
669	8
670	8
671	7
672	6
673	5
674	7
675	3
676	2
677	4
678	9
679	3
680	4
681	4
682	2
683	7
684	2
685	9
686	7
687	2
688	4
689	1
690	4
691	1
692	5
693	4
694	2
695	7
696	5
697	1
698	1
699	3
700	6
701	1
702	8
703	4
704	2
705	8
706	5
707	6
708	2
709	9
710	2
711	6
712	3
713	6
714	3
715	8
716	7
717	4
718	5
719	8
720	6
721	2
722	8
723	8
724	1
725	8
726	4
727	3
728	4
729	2
730	1
731	4
732	9
733	2
734	9
735	6
736	2
737	2
738	7
739	6
740	5
741	9
742	5
743	5
744	3
745	6
746	9
747	9
748	6
749	6
750	5
751	6
752	5
753	8
754	8
755	3
756	9
757	4
758	9
759	3
760	8
761	9
762	6
763	9
764	7
765	7
766	7
767	1
768	9
769	3
770	5
771	5
772	5
773	7
774	7
775	5
776	1
777	6
778	5
779	5
780	5
781	3
782	9
783	4
784	5
785	8
786	7
787	3
788	8
789	9
790	8
791	1
792	3
793	6
794	3
795	5
796	6
797	2
798	6
799	6
800	1
801	4
802	1
803	8
804	9
805	2
806	4
807	5
808	9
809	5
810	4
811	8
812	5
813	4
814	3
815	5
816	5
817	5
818	1
819	9
820	8
821	2
822	2
823	4
824	6
825	2
826	4
827	9
828	4
829	4
830	3
831	7
832	9
833	9
834	7
835	2
836	2
837	4
838	7
839	7
840	6
841	6
842	7
843	5
844	1
845	1
846	3
847	5
848	8
849	9
850	3
851	9
852	7
853	4
854	7
855	7
856	1
857	2
858	2
859	6
860	9
861	8
862	4
863	3
864	4
865	5
866	6
867	5
868	3
869	7
870	8
871	2
872	2
873	4
874	4
875	1
876	8
877	1
878	7
879	4
880	7
881	4
882	2
883	4
884	2
885	3
886	3
887	9
888	5
889	2
890	4
891	6
892	9
893	5
894	7
895	6
896	1
897	2
898	6
899	1
900	4
901	1
902	1
903	2
904	1
905	4
906	2
907	5
908	7
909	5
910	3
911	8
912	2
913	9
914	1
915	3
916	8
917	6
918	6
919	1
920	7
921	3
922	3
923	1
924	8
925	8
926	7
927	1
928	2
929	4
930	8
931	5
932	4
933	2
934	2
935	3
936	7
937	7
938	8
939	9
940	6
941	3
942	8
943	5
944	6
945	4
946	4
947	1
948	9
949	5
950	1
951	5
952	5
953	1
954	8
955	7
956	8
957	8
958	5
959	8
960	4
961	4
962	1
963	2
964	7
965	2
966	5
967	5
968	2
969	8
970	9
971	6
972	6
973	7
974	7
975	7
976	4
977	2
978	8
979	3
980	1
981	2
982	4
983	3
984	6
985	7
986	6
987	6
988	5
989	4
990	3
991	8
992	3
993	8
994	8
995	6
996	7
997	4
998	6
999	2
1000	1
1001	6
DEPOT_SECTION
1
-1
EOF
