NAME : n401-0033
COMMENT : "Generated by pyvrp_manuel (OVRPTW)"
TYPE : OVRPTW
DIMENSION : 401
EDGE_WEIGHT_TYPE : EUC_2D
CAPACITY : 100
VEHICLES : 400
OPEN_ROUTE : YES
SERVICE_TIME : 200
NODE_COORD_SECTION
1	70	812
2	919	39
3	25	771
4	967	386
5	491	51
6	565	633
7	257	457
8	500	129
9	582	52
10	991	437
11	1000	488
12	183	122
13	342	484
14	346	677
15	68	406
16	966	354
17	723	455
18	654	343
19	153	339
20	51	47
21	661	329
22	144	718
23	652	815
24	772	373
25	314	526
26	873	556
27	146	540
28	985	956
29	438	762
30	58	250
31	894	358
32	174	545
33	57	394
34	86	287
35	830	497
36	525	654
37	512	310
38	166	898
39	974	845
40	283	455
41	266	824
42	7	565
43	856	713
44	87	872
45	735	233
46	956	679
47	789	324
48	371	813
49	897	891
50	26	175
51	394	48
52	408	613
53	582	982
54	569	867
55	354	53
56	285	914
57	580	335
58	37	629
59	63	543
60	443	336
61	845	265
62	958	669
63	421	411
64	262	159
65	732	659
66	414	250
67	434	129
68	963	488
69	855	371
70	203	676
71	601	849
72	305	665
73	194	227
74	666	397
75	747	352
76	678	677
77	544	998
78	389	420
79	141	256
80	346	547
81	899	971
82	289	789
83	506	70
84	913	9
85	692	930
86	547	260
87	604	276
88	680	204
89	966	851
90	115	949
91	59	636
92	398	426
93	934	487
94	362	269
95	27	772
96	767	852
97	445	96
98	648	406
99	936	253
100	845	629
101	623	959
102	382	208
103	183	459
104	963	291
105	8	669
106	279	857
107	369	308
108	713	918
109	642	488
110	788	576
111	685	434
112	288	95
113	705	307
114	166	645
115	373	939
116	661	575
117	351	599
118	559	529
119	391	677
120	526	360
121	216	253
122	52	563
123	898	525
124	594	192
125	381	98
126	505	152
127	282	890
128	552	345
129	986	64
130	748	32
131	416	193
132	242	562
133	37	987
134	465	428
135	450	495
136	151	985
137	524	508
138	943	168
139	379	16
140	988	195
141	1	515
142	391	732
143	316	504
144	334	165
145	235	763
146	62	837
147	822	130
148	76	551
149	264	338
150	37	157
151	427	171
152	267	268
153	474	187
154	247	132
155	826	923
156	252	705
157	914	304
158	826	37
159	841	837
160	171	572
161	880	634
162	776	38
163	626	405
164	464	871
165	416	955
166	584	6
167	435	696
168	636	760
169	437	818
170	697	244
171	200	914
172	51	986
173	390	947
174	280	1000
175	130	960
176	724	854
177	945	792
178	525	502
179	103	112
180	324	391
181	99	120
182	334	182
183	983	692
184	335	157
185	405	332
186	320	512
187	555	979
188	222	422
189	690	500
190	615	814
191	774	715
192	394	386
193	208	974
194	777	846
195	414	103
196	459	682
197	818	479
198	643	556
199	514	335
200	571	416
201	936	61
202	16	961
203	209	585
204	229	456
205	530	859
206	83	793
207	335	182
208	653	335
209	774	373
210	668	632
211	448	815
212	266	506
213	392	576
214	915	170
215	316	940
216	300	712
217	288	868
218	223	373
219	42	50
220	886	797
221	904	89
222	919	472
223	553	823
224	256	521
225	546	284
226	274	802
227	841	940
228	229	765
229	32	324
230	829	830
231	579	519
232	818	692
233	465	415
234	919	34
235	878	196
236	732	102
237	103	639
238	599	365
239	871	259
240	942	236
241	221	734
242	262	898
243	372	23
244	209	979
245	710	95
246	405	407
247	363	11
248	317	981
249	51	963
250	655	380
251	273	594
252	587	910
253	426	199
254	503	419
255	634	534
256	67	854
257	876	278
258	472	916
259	92	367
260	771	644
261	528	329
262	238	260
263	526	972
264	75	862
265	494	281
266	581	62
267	532	333
268	13	419
269	410	246
270	143	570
271	453	571
272	628	663
273	566	370
274	704	548
275	36	555
276	229	583
277	965	456
278	123	805
279	717	843
280	152	658
281	59	606
282	8	775
283	632	282
284	754	949
285	504	949
286	970	720
287	168	322
288	771	793
289	106	18
290	633	972
291	658	189
292	774	750
293	691	657
294	682	365
295	490	867
296	384	469
297	11	514
298	70	830
299	237	40
300	790	803
301	861	3
302	310	136
303	76	637
304	606	231
305	779	624
306	699	724
307	373	322
308	502	822
309	2	883
310	634	273
311	849	963
312	368	617
313	32	655
314	598	387
315	87	830
316	571	581
317	721	994
318	638	560
319	218	912
320	42	670
321	621	486
322	273	996
323	223	872
324	663	489
325	982	73
326	425	376
327	10	451
328	519	572
329	955	289
330	707	731
331	866	375
332	270	629
333	401	795
334	359	661
335	33	14
336	828	841
337	658	646
338	212	241
339	899	389
340	352	461
341	267	967
342	360	380
343	567	523
344	869	658
345	9	826
346	617	856
347	220	338
348	928	286
349	600	8
350	496	993
351	154	280
352	499	199
353	56	229
354	483	167
355	876	826
356	885	677
357	343	197
358	495	165
359	90	554
360	794	276
361	774	169
362	33	547
363	644	229
364	178	50
365	309	509
366	748	593
367	332	323
368	250	955
369	940	263
370	22	455
371	143	187
372	942	655
373	192	331
374	528	468
375	730	294
376	163	128
377	224	835
378	361	757
379	890	191
380	987	500
381	613	427
382	602	887
383	705	93
384	76	20
385	162	750
386	22	289
387	797	526
388	492	599
389	507	125
390	516	263
391	237	368
392	553	502
393	595	240
394	519	661
395	514	843
396	530	253
397	301	441
398	294	111
399	80	628
400	790	266
401	936	970
DEMAND_SECTION
1	0
2	6
3	9
4	4
5	7
6	4
7	6
8	4
9	3
10	4
11	1
12	4
13	4
14	6
15	7
16	2
17	7
18	4
19	2
20	1
21	6
22	7
23	5
24	3
25	2
26	3
27	9
28	5
29	7
30	1
31	5
32	5
33	9
34	1
35	9
36	3
37	7
38	4
39	4
40	9
41	4
42	1
43	1
44	8
45	1
46	1
47	2
48	4
49	6
50	6
51	5
52	6
53	7
54	7
55	3
56	2
57	6
58	1
59	6
60	4
61	9
62	6
63	6
64	1
65	1
66	1
67	7
68	2
69	7
70	7
71	5
72	4
73	2
74	8
75	2
76	7
77	5
78	1
79	7
80	8
81	8
82	4
83	5
84	3
85	1
86	9
87	2
88	5
89	1
90	2
91	4
92	8
93	4
94	9
95	9
96	6
97	7
98	5
99	1
100	7
101	3
102	6
103	4
104	4
105	8
106	6
107	3
108	4
109	1
110	8
111	3
112	9
113	9
114	7
115	9
116	1
117	7
118	3
119	5
120	9
121	6
122	3
123	2
124	5
125	8
126	8
127	1
128	9
129	6
130	1
131	1
132	3
133	7
134	3
135	9
136	2
137	8
138	1
139	5
140	7
141	3
142	8
143	2
144	7
145	2
146	9
147	3
148	6
149	4
150	6
151	3
152	5
153	2
154	5
155	9
156	9
157	6
158	9
159	7
160	4
161	7
162	7
163	7
164	9
165	5
166	5
167	9
168	1
169	5
170	2
171	1
172	7
173	6
174	6
175	4
176	7
177	5
178	5
179	6
180	3
181	1
182	3
183	4
184	9
185	1
186	6
187	7
188	1
189	2
190	1
191	4
192	4
193	6
194	4
195	3
196	7
197	8
198	1
199	4
200	9
201	2
202	8
203	9
204	8
205	2
206	8
207	3
208	6
209	9
210	3
211	4
212	2
213	5
214	1
215	5
216	7
217	2
218	2
219	1
220	1
221	1
222	5
223	9
224	6
225	4
226	1
227	1
228	2
229	4
230	7
231	6
232	6
233	6
234	8
235	4
236	5
237	5
238	5
239	8
240	7
241	2
242	8
243	4
244	9
245	9
246	5
247	1
248	5
249	8
250	9
251	6
252	2
253	8
254	7
255	1
256	4
257	8
258	4
259	8
260	4
261	3
262	6
263	1
264	6
265	4
266	6
267	5
268	6
269	2
270	6
271	9
272	9
273	8
274	3
275	4
276	2
277	5
278	6
279	1
280	5
281	6
282	1
283	1
284	7
285	5
286	4
287	8
288	9
289	5
290	2
291	2
292	1
293	9
294	8
295	8
296	5
297	1
298	5
299	6
300	7
301	9
302	6
303	1
304	6
305	4
306	2
307	9
308	9
309	3
310	3
311	9
312	5
313	9
314	4
315	4
316	3
317	8
318	3
319	7
320	3
321	6
322	6
323	8
324	3
325	8
326	5
327	5
328	4
329	6
330	7
331	1
332	1
333	5
334	3
335	5
336	6
337	5
338	2
339	5
340	7
341	7
342	5
343	6
344	3
345	6
346	7
347	8
348	5
349	9
350	8
351	2
352	6
353	8
354	6
355	6
356	5
357	1
358	5
359	7
360	2
361	4
362	7
363	2
364	9
365	8
366	7
367	2
368	5
369	1
370	8
371	4
372	3
373	9
374	2
375	7
376	3
377	3
378	6
379	8
380	3
381	4
382	9
383	9
384	4
385	5
386	7
387	9
388	8
389	8
390	6
391	4
392	3
393	8
394	5
395	4
396	1
397	6
398	9
399	7
400	9
401	9
TIME_WINDOW_SECTION
1	0	3000
2	865	2083
3	2212	2565
4	383	2137
5	1015	1918
6	828	1983
7	1116	2625
8	1711	1923
9	469	1630
10	620	2010
11	1347	1766
12	915	2905
13	1251	2015
14	0	727
15	272	1465
16	783	2743
17	1451	2144
18	765	1312
19	0	1341
20	640	2249
21	1508	2486
22	552	1302
23	1164	2550
24	1043	1743
25	52	1825
26	184	1949
27	0	1695
28	810	1308
29	227	979
30	1860	2397
31	705	2681
32	1338	2333
33	206	1229
34	99	1629
35	494	1784
36	1232	2640
37	1465	2399
38	1363	1838
39	1384	1639
40	1041	1860
41	1167	1657
42	952	2721
43	895	1841
44	2169	2666
45	1196	1811
46	273	1986
47	331	1913
48	712	972
49	128	1634
50	1314	2242
51	1092	2758
52	1161	2824
53	661	1218
54	794	2138
55	1057	1723
56	1414	2208
57	1227	2469
58	0	979
59	11	953
60	961	1411
61	0	1955
62	851	2255
63	874	2659
64	457	1531
65	1575	2076
66	48	1736
67	182	1587
68	623	1355
69	599	1736
70	1330	1569
71	1023	2966
72	0	1193
73	1574	2386
74	49	1941
75	620	2416
76	654	1316
77	1038	2407
78	758	2420
79	1073	2529
80	1318	2865
81	247	2101
82	0	1254
83	75	1926
84	1269	1931
85	160	2061
86	299	2109
87	841	1219
88	928	1425
89	542	1720
90	1184	1939
91	882	1211
92	1567	2038
93	1280	1545
94	78	1847
95	350	1193
96	735	2145
97	492	2358
98	926	1355
99	687	1765
100	403	2007
101	1622	2395
102	1147	1541
103	1835	2309
104	1321	1761
105	969	2175
106	262	1685
107	1226	1738
108	1721	2027
109	807	1808
110	1000	2470
111	342	2159
112	1706	2287
113	734	1030
114	119	1587
115	772	1657
116	707	2129
117	1821	2729
118	1106	2221
119	1316	1857
120	1921	2350
121	706	1612
122	526	2173
123	1170	2168
124	1214	2203
125	739	1328
126	1627	2280
127	1916	3000
128	456	1517
129	1015	1830
130	664	1677
131	992	2155
132	862	2145
133	1617	3000
134	1140	2538
135	459	1382
136	171	488
137	866	1661
138	591	1764
139	1417	1771
140	333	2010
141	1372	3000
142	0	1425
143	247	1380
144	612	1810
145	405	676
146	0	1482
147	688	1468
148	1718	2869
149	97	1855
150	660	1981
151	1007	2605
152	408	2210
153	1114	1810
154	1266	2818
155	570	1088
156	575	872
157	1345	1595
158	1239	1906
159	970	2073
160	73	1369
161	0	1971
162	1034	2121
163	715	2625
164	2155	2591
165	0	1595
166	582	1599
167	795	1961
168	435	1627
169	1483	2048
170	314	1501
171	1578	3000
172	1334	1732
173	471	1512
174	385	1906
175	1497	3000
176	75	1603
177	691	2125
178	0	1640
179	1035	2349
180	154	2138
181	217	1755
182	745	2457
183	1316	1721
184	616	1231
185	824	2331
186	1114	2794
187	748	2721
188	1115	2528
189	1539	2543
190	1227	2087
191	893	2199
192	683	2405
193	320	1490
194	682	883
195	146	1826
196	1391	2817
197	785	2008
198	1646	2457
199	1265	2890
200	1070	1603
201	272	2132
202	585	1586
203	643	1821
204	1802	2921
205	1527	2288
206	488	2266
207	783	1254
208	1349	2119
209	742	1000
210	46	1526
211	1585	2635
212	28	1458
213	1620	2585
214	478	1651
215	1256	2398
216	1059	2585
217	768	2072
218	845	2201
219	1485	2456
220	914	1808
221	1395	1829
222	439	2338
223	321	1948
224	1077	1389
225	1778	2345
226	965	2684
227	1631	1975
228	1826	2298
229	0	1396
230	1603	2057
231	764	2013
232	508	2268
233	972	2626
234	671	1640
235	1004	1517
236	1046	1953
237	965	1993
238	1394	2623
239	1188	1404
240	798	1505
241	1589	2538
242	913	2557
243	847	1071
244	1260	2297
245	784	2281
246	1760	2253
247	1657	2107
248	0	1399
249	1468	3000
250	0	1513
251	0	760
252	502	2164
253	619	2129
254	0	1770
255	0	1792
256	1107	1443
257	731	2592
258	1449	2417
259	400	994
260	845	2570
261	361	1123
262	1679	2630
263	454	870
264	1794	3000
265	1398	2605
266	1646	2088
267	426	2390
268	911	2622
269	1229	1559
270	279	2046
271	154	1556
272	923	2428
273	0	1732
274	343	2306
275	0	1287
276	1035	2016
277	1116	1897
278	416	1689
279	866	2578
280	287	1156
281	1889	2431
282	93	2012
283	903	2184
284	123	1795
285	423	1707
286	623	1567
287	1014	1383
288	671	994
289	1579	2075
290	0	1450
291	1138	1738
292	57	1890
293	215	1725
294	791	1949
295	0	987
296	0	1196
297	1625	2700
298	1206	2790
299	1232	2159
300	938	2335
301	830	1942
302	1169	1753
303	1233	1482
304	1039	1543
305	497	2103
306	1350	2514
307	857	2751
308	1443	1654
309	0	1946
310	354	1833
311	1720	2249
312	1251	2767
313	1632	3000
314	911	2216
315	161	1407
316	0	1665
317	73	1344
318	311	1670
319	107	1066
320	0	829
321	269	1349
322	974	2700
323	180	433
324	120	1771
325	1101	1900
326	1301	2636
327	0	1580
328	1459	2291
329	356	2134
330	519	1361
331	1043	2010
332	1762	2875
333	826	1446
334	0	1120
335	1221	2732
336	0	1794
337	236	2164
338	252	1755
339	292	2208
340	1815	2314
341	117	486
342	1198	1883
343	999	2019
344	515	1845
345	0	1154
346	548	2292
347	0	1556
348	1094	1604
349	1412	1933
350	1387	1718
351	424	942
352	560	1096
353	776	2478
354	1202	2295
355	1119	2795
356	876	1960
357	1049	1501
358	1739	1953
359	0	990
360	1435	2251
361	549	2487
362	1078	1938
363	1649	1890
364	208	1803
365	1795	3000
366	866	1095
367	693	1436
368	1406	1899
369	746	1750
370	806	1057
371	1102	1636
372	1028	2435
373	726	2195
374	1206	2493
375	681	2359
376	725	2428
377	215	1301
378	2022	2386
379	393	2063
380	1162	1546
381	605	1155
382	792	1521
383	750	1556
384	585	1348
385	1337	2257
386	1881	2297
387	1057	1487
388	1637	2091
389	1208	1696
390	1214	2666
391	0	1283
392	1234	2790
393	954	1942
394	206	1828
395	340	2228
396	504	2180
397	988	2837
398	437	2350
399	511	1914
400	1432	2357
401	1560	1937
DEPOT_SECTION
1
-1
EOF
