NAME : n401-0017
COMMENT : "Generated by pyvrp_manuel (OVRPTW)"
TYPE : OVRPTW
DIMENSION : 401
EDGE_WEIGHT_TYPE : EUC_2D
CAPACITY : 100
VEHICLES : 400
OPEN_ROUTE : YES
SERVICE_TIME : 200
NODE_COORD_SECTION
1	621	678
2	492	174
3	841	37
4	373	245
5	484	589
6	872	797
7	450	472
8	595	619
9	175	568
10	238	700
11	608	821
12	441	349
13	600	340
14	493	308
15	863	717
16	365	148
17	457	925
18	823	948
19	506	532
20	941	32
21	15	90
22	97	560
23	154	411
24	724	354
25	750	526
26	476	697
27	403	810
28	187	822
29	777	808
30	213	987
31	595	695
32	570	532
33	522	690
34	644	277
35	281	659
36	296	97
37	949	178
38	53	955
39	145	470
40	38	591
41	394	313
42	67	934
43	101	81
44	416	704
45	273	318
46	977	506
47	920	132
48	430	555
49	663	414
50	264	22
51	122	488
52	314	538
53	376	38
54	932	622
55	168	830
56	104	393
57	504	110
58	698	584
59	486	392
60	180	482
61	193	31
62	154	134
63	284	588
64	274	560
65	641	136
66	42	606
67	192	730
68	232	842
69	363	507
70	432	97
71	125	502
72	186	75
73	114	990
74	733	190
75	906	555
76	908	75
77	313	838
78	744	393
79	854	479
80	992	978
81	178	995
82	303	712
83	551	873
84	362	419
85	915	216
86	689	485
87	680	75
88	424	387
89	743	304
90	57	234
91	773	730
92	998	654
93	771	632
94	821	374
95	615	198
96	865	101
97	712	622
98	934	738
99	659	318
100	858	429
101	933	610
102	871	4
103	958	803
104	926	243
105	174	459
106	927	308
107	814	439
108	14	915
109	663	64
110	83	61
111	685	612
112	374	284
113	924	930
114	507	810
115	747	646
116	317	755
117	470	715
118	283	674
119	536	237
120	751	694
121	434	177
122	574	604
123	779	671
124	197	881
125	672	922
126	179	148
127	898	608
128	85	567
129	469	261
130	464	630
131	711	11
132	399	509
133	348	37
134	918	753
135	708	282
136	407	780
137	590	771
138	754	280
139	114	723
140	844	524
141	267	808
142	57	380
143	301	404
144	593	20
145	565	993
146	5	814
147	4	661
148	965	758
149	41	973
150	255	150
151	470	798
152	216	128
153	48	564
154	921	309
155	774	489
156	993	788
157	381	113
158	523	162
159	594	743
160	301	47
161	301	635
162	123	630
163	196	470
164	567	804
165	279	990
166	483	734
167	12	171
168	670	837
169	43	926
170	924	723
171	614	741
172	757	753
173	907	844
174	707	875
175	818	563
176	933	235
177	144	400
178	64	318
179	886	379
180	454	878
181	927	215
182	320	649
183	866	806
184	245	400
185	847	943
186	556	989
187	18	303
188	101	318
189	208	576
190	995	78
191	103	786
192	360	336
193	743	211
194	552	850
195	137	435
196	837	663
197	314	382
198	818	818
199	874	323
200	742	779
201	233	714
202	965	532
203	367	28
204	420	972
205	95	544
206	693	724
207	793	802
208	843	485
209	640	639
210	785	747
211	731	321
212	29	168
213	839	277
214	524	180
215	640	538
216	215	476
217	720	491
218	357	774
219	271	444
220	707	396
221	394	587
222	498	527
223	742	765
224	672	463
225	678	869
226	610	944
227	461	608
228	743	712
229	947	602
230	243	98
231	762	240
232	210	771
233	583	868
234	262	696
235	855	69
236	121	256
237	367	942
238	107	94
239	733	55
240	105	174
241	911	959
242	559	719
243	604	693
244	332	209
245	338	500
246	324	577
247	948	564
248	48	446
249	805	756
250	858	933
251	998	304
252	712	875
253	490	626
254	427	556
255	80	354
256	705	814
257	57	919
258	612	512
259	492	238
260	429	661
261	500	818
262	113	413
263	682	617
264	435	113
265	357	544
266	471	583
267	469	611
268	258	651
269	277	773
270	99	60
271	250	633
272	155	600
273	416	91
274	449	349
275	626	949
276	712	791
277	368	212
278	482	156
279	602	415
280	527	212
281	915	988
282	985	754
283	805	194
284	327	573
285	604	573
286	131	31
287	406	526
288	564	543
289	986	742
290	565	316
291	472	709
292	906	510
293	257	726
294	904	607
295	937	382
296	296	623
297	145	15
298	440	801
299	508	967
300	801	197
301	425	737
302	484	559
303	979	802
304	209	411
305	171	280
306	264	78
307	911	577
308	423	302
309	700	764
310	465	634
311	98	863
312	182	764
313	452	129
314	196	147
315	349	411
316	975	743
317	159	160
318	166	440
319	270	444
320	388	904
321	561	896
322	524	854
323	212	990
324	277	262
325	638	396
326	123	726
327	269	644
328	809	944
329	900	177
330	292	162
331	192	522
332	714	51
333	168	565
334	529	989
335	137	533
336	525	727
337	749	937
338	6	474
339	925	590
340	959	678
341	627	206
342	281	119
343	342	765
344	82	339
345	885	429
346	805	486
347	997	964
348	93	728
349	422	603
350	591	208
351	367	183
352	419	849
353	167	288
354	142	140
355	773	849
356	214	105
357	284	638
358	37	231
359	273	952
360	173	650
361	1000	771
362	835	897
363	849	24
364	130	369
365	43	784
366	752	128
367	715	966
368	666	835
369	194	640
370	555	136
371	341	607
372	345	863
373	666	825
374	692	869
375	164	779
376	417	364
377	376	244
378	662	199
379	818	670
380	969	472
381	253	86
382	874	403
383	259	222
384	697	631
385	486	714
386	708	199
387	507	992
388	242	305
389	95	902
390	980	203
391	504	848
392	763	287
393	247	68
394	13	224
395	261	9
396	20	929
397	644	95
398	780	908
399	940	143
400	359	665
401	975	142
DEMAND_SECTION
1	0
2	5
3	2
4	6
5	3
6	7
7	4
8	3
9	5
10	6
11	3
12	5
13	1
14	7
15	1
16	1
17	9
18	2
19	9
20	6
21	2
22	3
23	7
24	9
25	9
26	4
27	1
28	6
29	7
30	1
31	9
32	3
33	9
34	6
35	2
36	5
37	5
38	6
39	5
40	3
41	5
42	5
43	2
44	8
45	2
46	5
47	8
48	5
49	4
50	6
51	8
52	5
53	3
54	8
55	4
56	2
57	1
58	9
59	3
60	8
61	8
62	8
63	7
64	4
65	5
66	7
67	5
68	6
69	7
70	7
71	3
72	1
73	4
74	6
75	7
76	1
77	2
78	4
79	3
80	5
81	7
82	8
83	7
84	8
85	3
86	7
87	7
88	9
89	9
90	3
91	8
92	6
93	5
94	8
95	2
96	1
97	2
98	2
99	8
100	5
101	5
102	3
103	7
104	7
105	1
106	7
107	1
108	2
109	6
110	8
111	3
112	5
113	9
114	8
115	3
116	2
117	2
118	6
119	9
120	1
121	8
122	3
123	6
124	2
125	4
126	4
127	5
128	8
129	8
130	5
131	4
132	3
133	3
134	7
135	5
136	8
137	7
138	1
139	7
140	7
141	9
142	4
143	5
144	4
145	6
146	3
147	8
148	1
149	6
150	7
151	8
152	7
153	6
154	7
155	8
156	1
157	4
158	6
159	3
160	4
161	3
162	3
163	2
164	8
165	3
166	6
167	7
168	1
169	6
170	8
171	9
172	7
173	1
174	8
175	7
176	7
177	3
178	1
179	3
180	2
181	9
182	1
183	2
184	5
185	1
186	6
187	9
188	3
189	4
190	1
191	7
192	8
193	9
194	6
195	7
196	1
197	4
198	4
199	6
200	4
201	6
202	1
203	3
204	4
205	1
206	7
207	7
208	3
209	9
210	6
211	3
212	3
213	9
214	7
215	8
216	6
217	4
218	6
219	8
220	2
221	7
222	9
223	8
224	7
225	9
226	5
227	8
228	4
229	3
230	2
231	9
232	2
233	8
234	9
235	7
236	8
237	2
238	4
239	9
240	2
241	9
242	9
243	7
244	7
245	7
246	3
247	4
248	8
249	2
250	3
251	7
252	4
253	3
254	8
255	8
256	4
257	1
258	2
259	7
260	4
261	6
262	2
263	1
264	5
265	3
266	3
267	6
268	3
269	3
270	5
271	8
272	7
273	2
274	9
275	2
276	5
277	9
278	4
279	5
280	9
281	2
282	6
283	5
284	1
285	8
286	6
287	3
288	3
289	6
290	6
291	6
292	9
293	5
294	2
295	8
296	5
297	6
298	7
299	2
300	3
301	9
302	5
303	6
304	3
305	6
306	9
307	3
308	2
309	3
310	5
311	6
312	4
313	2
314	6
315	7
316	7
317	4
318	8
319	4
320	4
321	1
322	6
323	9
324	6
325	8
326	2
327	6
328	6
329	6
330	7
331	2
332	2
333	7
334	6
335	5
336	8
337	9
338	4
339	3
340	4
341	4
342	7
343	2
344	3
345	8
346	1
347	8
348	4
349	9
350	9
351	8
352	4
353	1
354	7
355	9
356	4
357	3
358	5
359	2
360	2
361	4
362	8
363	9
364	5
365	2
366	1
367	1
368	4
369	9
370	8
371	2
372	6
373	1
374	1
375	1
376	3
377	5
378	8
379	2
380	9
381	2
382	1
383	8
384	7
385	1
386	1
387	5
388	2
389	2
390	6
391	1
392	8
393	8
394	3
395	8
396	8
397	1
398	1
399	2
400	8
401	1
TIME_WINDOW_SECTION
1	0	3000
2	1163	1711
3	932	2747
4	783	2478
5	1156	2343
6	1961	2344
7	803	1215
8	1990	3000
9	1339	2757
10	533	1601
11	68	1162
12	1387	3000
13	1719	2741
14	0	1612
15	0	511
16	143	1893
17	1636	1897
18	1497	2411
19	32	1179
20	1618	2248
21	440	1332
22	636	2397
23	352	1886
24	1562	2654
25	628	1107
26	19	558
27	1511	2949
28	1230	1789
29	1581	2023
30	1438	2526
31	282	1074
32	1364	2833
33	32	1137
34	249	935
35	1020	2982
36	796	1799
37	1447	2900
38	1114	1838
39	1187	2392
40	1132	2211
41	1291	2146
42	1020	2307
43	586	1169
44	1466	2539
45	372	1399
46	1692	2344
47	690	1406
48	1725	3000
49	1256	2330
50	1527	2196
51	1011	2174
52	716	1605
53	1162	2449
54	612	1071
55	580	1364
56	188	1631
57	575	1109
58	500	1530
59	1900	2498
60	1150	2966
61	1137	1671
62	1285	1489
63	453	2375
64	1911	2459
65	1374	1973
66	828	2199
67	1080	1381
68	1879	2366
69	961	2516
70	0	1445
71	8	1672
72	305	1935
73	784	2246
74	0	1339
75	476	1282
76	105	1918
77	876	2808
78	671	2158
79	132	572
80	860	1560
81	0	1497
82	1202	1941
83	125	1369
84	1412	1721
85	856	1580
86	0	1665
87	846	2365
88	1552	2815
89	2128	2461
90	1182	2051
91	1281	1807
92	1826	2698
93	1749	2297
94	90	1062
95	972	1347
96	500	1452
97	736	2655
98	19	1212
99	1444	2354
100	990	1405
101	0	1466
102	1349	2180
103	1434	2498
104	1715	2047
105	1329	2319
106	342	1948
107	0	1016
108	708	1693
109	1279	2093
110	108	1588
111	2113	2331
112	1791	2306
113	622	1441
114	986	1561
115	1799	2926
116	1022	1406
117	1591	2918
118	2057	2266
119	490	2306
120	165	1474
121	819	2388
122	1121	1638
123	1394	3000
124	2047	2562
125	70	1647
126	185	1313
127	477	1446
128	1525	2477
129	1372	2887
130	198	1506
131	364	1893
132	1437	2443
133	422	2009
134	1369	2169
135	52	998
136	1914	2927
137	2070	2436
138	387	2113
139	1171	1605
140	298	1675
141	1163	2502
142	1155	1939
143	1462	2553
144	333	1566
145	1049	2682
146	1192	2923
147	924	2205
148	486	849
149	308	1513
150	626	1526
151	440	1954
152	946	2383
153	1641	1856
154	1104	2327
155	85	543
156	250	674
157	1510	1761
158	653	1997
159	575	1767
160	1649	2147
161	1295	1694
162	0	1276
163	344	949
164	2091	3000
165	345	606
166	191	1612
167	1152	2791
168	1343	1821
169	1408	2546
170	1362	2401
171	743	1296
172	914	1384
173	1069	2226
174	904	2597
175	1270	1622
176	619	1231
177	1208	2213
178	810	1161
179	733	2686
180	148	447
181	1218	1873
182	1423	2319
183	1825	2439
184	1536	2589
185	333	828
186	1166	2990
187	1707	2426
188	319	1512
189	279	865
190	0	1670
191	475	1349
192	1514	2175
193	371	1924
194	1532	1983
195	1662	1896
196	1806	2202
197	781	1994
198	0	711
199	0	1214
200	1772	2742
201	723	2137
202	490	1429
203	776	1730
204	1852	2598
205	1602	2028
206	1351	1872
207	163	2129
208	834	1907
209	428	1465
210	1419	1994
211	1641	2691
212	152	1590
213	1409	2476
214	905	2001
215	0	734
216	1015	2755
217	1938	2602
218	1531	3000
219	0	1282
220	1672	2298
221	122	735
222	1294	2184
223	1506	3000
224	0	819
225	554	1609
226	1475	2912
227	547	1755
228	604	1998
229	0	1045
230	654	920
231	1415	2569
232	286	1330
233	322	1895
234	1247	2343
235	0	1590
236	834	1377
237	2238	2482
238	390	1998
239	261	1694
240	325	2043
241	802	1500
242	1688	3000
243	0	1178
244	1583	1843
245	1097	2954
246	626	1078
247	1464	2068
248	1657	2659
249	736	1974
250	2214	2455
251	889	1477
252	1863	3000
253	1180	2917
254	229	959
255	1694	2099
256	188	1839
257	858	1089
258	231	1464
259	364	1306
260	193	1679
261	1732	3000
262	1617	2205
263	236	908
264	1508	2549
265	1286	2588
266	920	1592
267	1593	2878
268	1628	2169
269	612	916
270	524	2334
271	0	1356
272	682	1407
273	1615	2591
274	190	562
275	0	1574
276	1793	3000
277	388	2343
278	1085	2017
279	1167	1990
280	231	2090
281	212	1621
282	1345	2940
283	1329	2570
284	0	1671
285	0	802
286	925	1187
287	833	1871
288	1361	2768
289	520	1757
290	0	1469
291	49	283
292	693	2004
293	942	1576
294	1662	2383
295	553	1013
296	1170	2066
297	621	1427
298	1637	2256
299	1011	1771
300	731	2250
301	0	1677
302	1325	2730
303	322	1980
304	1612	2818
305	325	931
306	1151	1385
307	476	1276
308	0	1390
309	0	1401
310	480	844
311	647	1210
312	2	980
313	1426	2403
314	1527	2591
315	1125	1899
316	312	1787
317	703	2239
318	1082	2781
319	1538	2544
320	545	918
321	0	867
322	503	1144
323	1560	2067
324	1595	2113
325	739	1949
326	1037	2724
327	498	1332
328	98	1858
329	16	1880
330	1024	2726
331	1077	2041
332	804	2405
333	79	1993
334	1195	2086
335	1452	2892
336	0	807
337	273	1515
338	22	1534
339	963	2457
340	1337	2392
341	1866	2492
342	512	1361
343	395	647
344	219	1628
345	1594	3000
346	0	1385
347	1128	1657
348	954	2583
349	838	1470
350	663	1018
351	1017	1470
352	493	2195
353	715	2698
354	621	1417
355	548	2067
356	569	1510
357	1558	2552
358	1519	2263
359	1605	2167
360	589	1023
361	1385	1785
362	19	2004
363	921	2683
364	2078	2310
365	124	1476
366	188	1466
367	766	1565
368	618	1688
369	1509	2336
370	1191	2701
371	0	971
372	1383	2491
373	0	1206
374	97	1925
375	472	1595
376	81	1793
377	166	1607
378	970	1506
379	0	749
380	583	1300
381	134	1959
382	0	1604
383	283	1694
384	103	1128
385	85	1636
386	0	1204
387	1748	1953
388	0	1818
389	927	1430
390	446	2174
391	535	1146
392	1895	2615
393	1160	2287
394	743	1685
395	832	1790
396	1124	2609
397	47	1782
398	919	1478
399	1638	2655
400	1728	2497
401	536	764
DEPOT_SECTION
1
-1
EOF
