NAME : n401-0002
COMMENT : "Generated by pyvrp_manuel (OVRPTW)"
TYPE : OVRPTW
DIMENSION : 401
EDGE_WEIGHT_TYPE : EUC_2D
CAPACITY : 100
VEHICLES : 400
OPEN_ROUTE : YES
SERVICE_TIME : 200
NODE_COORD_SECTION
1	709	260
2	767	645
3	697	146
4	46	160
5	499	708
6	358	955
7	545	719
8	929	504
9	426	342
10	650	240
11	773	633
12	129	555
13	176	772
14	65	947
15	2	54
16	735	441
17	83	48
18	566	640
19	326	171
20	633	171
21	110	943
22	553	405
23	64	435
24	493	5
25	630	844
26	807	645
27	155	195
28	537	123
29	461	423
30	426	266
31	802	837
32	676	57
33	713	681
34	708	933
35	529	631
36	331	588
37	253	253
38	724	204
39	620	913
40	574	550
41	755	779
42	960	807
43	537	999
44	344	492
45	736	570
46	433	902
47	193	893
48	142	933
49	197	429
50	480	94
51	423	570
52	379	275
53	94	99
54	841	169
55	737	915
56	501	640
57	210	964
58	410	585
59	224	458
60	47	344
61	826	479
62	401	684
63	456	567
64	376	10
65	146	106
66	275	221
67	623	282
68	294	766
69	818	24
70	735	771
71	374	374
72	163	589
73	36	212
74	283	112
75	280	480
76	536	820
77	142	556
78	611	994
79	439	65
80	550	295
81	482	586
82	459	537
83	865	65
84	340	587
85	233	671
86	393	304
87	10	437
88	764	212
89	794	975
90	926	431
91	466	537
92	395	742
93	543	470
94	111	271
95	329	642
96	906	585
97	489	361
98	645	586
99	35	890
100	962	617
101	189	996
102	48	420
103	761	661
104	602	919
105	946	343
106	585	420
107	326	662
108	7	602
109	746	807
110	508	920
111	418	22
112	958	685
113	486	193
114	577	377
115	852	700
116	28	426
117	437	441
118	133	331
119	196	97
120	277	752
121	287	530
122	506	5
123	828	262
124	482	679
125	164	375
126	949	457
127	304	229
128	364	134
129	36	738
130	890	296
131	820	270
132	758	615
133	297	673
134	735	153
135	722	943
136	346	818
137	5	887
138	480	309
139	9	516
140	910	283
141	330	875
142	474	973
143	60	872
144	856	556
145	939	537
146	974	535
147	707	703
148	212	144
149	46	598
150	661	296
151	308	472
152	749	428
153	476	756
154	740	641
155	415	874
156	431	827
157	244	567
158	575	65
159	222	549
160	169	253
161	485	103
162	432	325
163	979	390
164	41	817
165	699	211
166	492	306
167	607	737
168	766	220
169	79	527
170	72	116
171	155	516
172	341	585
173	84	362
174	768	887
175	882	177
176	588	119
177	208	973
178	958	217
179	473	503
180	490	988
181	357	645
182	741	977
183	557	587
184	534	98
185	271	962
186	735	453
187	951	980
188	389	288
189	817	891
190	193	442
191	368	16
192	766	775
193	38	478
194	19	365
195	443	211
196	801	151
197	955	23
198	497	241
199	381	650
200	780	638
201	379	537
202	3	538
203	568	863
204	512	835
205	163	373
206	951	95
207	554	236
208	640	191
209	227	477
210	755	814
211	674	483
212	547	390
213	31	503
214	262	591
215	40	54
216	218	798
217	491	328
218	518	40
219	154	254
220	260	261
221	899	930
222	466	179
223	549	182
224	120	166
225	131	489
226	840	860
227	40	421
228	58	562
229	993	464
230	835	344
231	30	201
232	592	686
233	932	690
234	210	217
235	943	56
236	185	288
237	863	861
238	967	163
239	339	521
240	988	169
241	354	478
242	404	106
243	945	457
244	612	456
245	621	704
246	13	433
247	766	977
248	487	574
249	705	1
250	232	556
251	697	873
252	606	54
253	748	336
254	869	48
255	689	366
256	836	55
257	229	856
258	382	941
259	374	405
260	269	434
261	764	986
262	389	682
263	562	360
264	374	457
265	341	452
266	660	344
267	629	721
268	719	169
269	599	69
270	967	637
271	631	369
272	833	9
273	295	15
274	38	656
275	487	376
276	176	868
277	600	916
278	460	285
279	673	688
280	149	413
281	37	204
282	481	54
283	590	712
284	176	452
285	14	885
286	377	561
287	564	579
288	397	506
289	396	977
290	364	993
291	805	411
292	215	716
293	254	661
294	576	20
295	92	86
296	810	793
297	587	551
298	942	48
299	895	954
300	98	409
301	265	325
302	291	51
303	357	25
304	767	212
305	26	314
306	810	946
307	24	269
308	715	921
309	697	123
310	224	522
311	705	809
312	518	227
313	102	229
314	576	460
315	2	111
316	519	24
317	811	967
318	446	35
319	582	339
320	543	985
321	76	475
322	30	791
323	528	308
324	292	450
325	162	840
326	306	695
327	782	25
328	361	381
329	844	941
330	214	844
331	250	990
332	905	932
333	426	557
334	573	629
335	498	479
336	7	74
337	990	974
338	987	136
339	117	512
340	118	808
341	89	961
342	851	380
343	724	170
344	15	58
345	75	444
346	497	409
347	613	46
348	540	948
349	346	451
350	51	100
351	343	120
352	584	122
353	708	338
354	545	358
355	584	100
356	184	829
357	144	418
358	200	650
359	546	851
360	569	737
361	360	588
362	990	638
363	336	990
364	139	921
365	237	102
366	836	8
367	115	229
368	681	291
369	114	643
370	20	243
371	379	770
372	207	96
373	151	819
374	335	194
375	473	493
376	41	460
377	366	445
378	451	862
379	933	349
380	648	628
381	968	992
382	775	204
383	231	170
384	165	645
385	257	523
386	15	566
387	598	363
388	74	824
389	372	351
390	344	839
391	912	383
392	554	146
393	640	675
394	867	871
395	989	124
396	544	478
397	447	310
398	579	982
399	306	770
400	370	935
401	961	692
DEMAND_SECTION
1	0
2	6
3	1
4	3
5	1
6	6
7	1
8	8
9	9
10	8
11	9
12	1
13	1
14	4
15	9
16	6
17	2
18	6
19	6
20	8
21	4
22	3
23	8
24	3
25	5
26	6
27	7
28	4
29	9
30	7
31	2
32	4
33	9
34	8
35	8
36	9
37	7
38	9
39	1
40	6
41	9
42	7
43	3
44	6
45	7
46	6
47	2
48	4
49	1
50	2
51	5
52	5
53	6
54	6
55	5
56	1
57	2
58	2
59	4
60	2
61	3
62	5
63	1
64	9
65	8
66	8
67	1
68	2
69	5
70	9
71	8
72	8
73	2
74	3
75	9
76	5
77	3
78	7
79	6
80	5
81	3
82	1
83	4
84	3
85	7
86	6
87	3
88	4
89	9
90	3
91	6
92	4
93	8
94	1
95	2
96	7
97	4
98	5
99	1
100	3
101	3
102	3
103	5
104	3
105	5
106	1
107	1
108	7
109	9
110	1
111	6
112	9
113	5
114	4
115	4
116	4
117	8
118	3
119	3
120	8
121	3
122	1
123	1
124	3
125	8
126	2
127	6
128	7
129	9
130	8
131	3
132	2
133	1
134	5
135	2
136	7
137	7
138	2
139	7
140	6
141	7
142	3
143	2
144	1
145	1
146	4
147	5
148	5
149	1
150	1
151	3
152	9
153	7
154	3
155	7
156	1
157	4
158	2
159	6
160	4
161	5
162	5
163	8
164	4
165	7
166	3
167	9
168	4
169	2
170	3
171	5
172	2
173	6
174	2
175	8
176	7
177	7
178	4
179	3
180	9
181	9
182	7
183	7
184	4
185	3
186	8
187	3
188	8
189	2
190	1
191	8
192	5
193	4
194	4
195	2
196	6
197	5
198	5
199	4
200	9
201	8
202	3
203	7
204	5
205	9
206	3
207	2
208	2
209	1
210	2
211	2
212	9
213	9
214	2
215	3
216	9
217	2
218	6
219	1
220	4
221	3
222	8
223	9
224	7
225	7
226	6
227	6
228	6
229	8
230	1
231	2
232	1
233	5
234	7
235	7
236	4
237	9
238	1
239	3
240	6
241	4
242	2
243	1
244	7
245	9
246	4
247	2
248	9
249	6
250	5
251	9
252	2
253	6
254	2
255	2
256	9
257	9
258	6
259	4
260	4
261	3
262	9
263	2
264	1
265	7
266	1
267	4
268	2
269	6
270	7
271	9
272	3
273	1
274	4
275	4
276	2
277	9
278	9
279	9
280	4
281	9
282	1
283	3
284	4
285	8
286	2
287	4
288	9
289	7
290	6
291	1
292	5
293	1
294	4
295	1
296	8
297	7
298	1
299	8
300	1
301	8
302	7
303	1
304	8
305	2
306	7
307	1
308	1
309	5
310	9
311	9
312	4
313	5
314	3
315	7
316	8
317	1
318	8
319	8
320	1
321	3
322	4
323	3
324	6
325	7
326	6
327	5
328	6
329	8
330	9
331	5
332	2
333	7
334	3
335	1
336	8
337	9
338	1
339	3
340	5
341	1
342	2
343	3
344	1
345	1
346	6
347	6
348	4
349	6
350	2
351	2
352	9
353	8
354	4
355	3
356	1
357	9
358	8
359	6
360	7
361	1
362	9
363	5
364	4
365	5
366	9
367	2
368	1
369	8
370	6
371	4
372	7
373	5
374	8
375	3
376	8
377	4
378	3
379	7
380	7
381	9
382	9
383	6
384	3
385	2
386	2
387	1
388	5
389	5
390	7
391	3
392	3
393	9
394	5
395	9
396	7
397	9
398	5
399	7
400	5
401	9
TIME_WINDOW_SECTION
1	0	3000
2	1123	2219
3	1363	2186
4	1352	1893
5	592	2316
6	836	2754
7	48	1666
8	663	1372
9	225	1535
10	1130	2665
11	0	1311
12	209	2090
13	633	2588
14	1504	2102
15	1014	1643
16	1153	2951
17	685	2150
18	446	2346
19	1207	1645
20	0	1760
21	248	1696
22	1465	1816
23	264	1596
24	1321	2924
25	834	2333
26	764	1887
27	288	1833
28	168	910
29	1048	2738
30	201	1598
31	688	931
32	2399	2697
33	293	1424
34	1060	2417
35	1147	1392
36	1694	2774
37	1179	2802
38	1329	2609
39	0	1775
40	1402	2353
41	576	1567
42	1339	2430
43	568	1557
44	388	2158
45	13	672
46	1138	1689
47	576	2418
48	809	1855
49	1470	1919
50	432	731
51	324	2014
52	1681	2747
53	806	2253
54	289	1720
55	480	1154
56	259	1355
57	470	1871
58	656	1084
59	1173	3000
60	1482	2473
61	1545	3000
62	81	1996
63	1086	2497
64	1543	2130
65	1456	2756
66	644	1771
67	1250	1518
68	1127	3000
69	172	1147
70	1308	2858
71	2190	2415
72	0	1604
73	517	2061
74	807	2417
75	1636	1849
76	826	2266
77	1218	1688
78	1062	2279
79	1076	2135
80	1488	2999
81	739	2626
82	2002	2623
83	0	1646
84	0	1462
85	1192	1418
86	133	1090
87	565	1909
88	1865	3000
89	1000	2194
90	0	1116
91	863	2651
92	1599	2352
93	1411	1874
94	969	1852
95	1263	2209
96	643	1245
97	1924	3000
98	1171	2318
99	193	2079
100	99	1761
101	546	1335
102	398	1083
103	1729	2325
104	860	1274
105	96	2022
106	1001	1587
107	1128	1653
108	302	2195
109	735	1251
110	910	1740
111	708	1042
112	1679	1904
113	1915	2167
114	37	1432
115	44	1548
116	827	1376
117	1627	2151
118	1051	2126
119	360	955
120	1303	2965
121	1617	2564
122	652	1870
123	1057	2583
124	1823	2121
125	354	1285
126	0	1293
127	55	1098
128	0	1444
129	655	1442
130	1071	2737
131	1780	2013
132	0	1559
133	1633	2640
134	704	2070
135	549	2134
136	1070	1930
137	1332	1555
138	198	1822
139	1153	2916
140	1780	2636
141	1680	2029
142	925	1834
143	1534	1946
144	49	1978
145	1575	2166
146	991	1223
147	227	745
148	679	1519
149	1267	1664
150	1932	2777
151	1045	1578
152	1081	2311
153	1432	2045
154	398	2256
155	1194	2049
156	516	1338
157	195	1538
158	196	1882
159	286	1831
160	812	1764
161	195	1140
162	930	2192
163	1077	2681
164	881	2670
165	268	2160
166	1329	2887
167	533	787
168	515	1858
169	739	1806
170	618	2523
171	735	1797
172	778	1282
173	776	2536
174	415	1437
175	1392	1850
176	0	1266
177	802	1685
178	844	1209
179	23	1192
180	376	1848
181	1956	2324
182	1322	2229
183	0	1680
184	0	1433
185	509	1181
186	0	719
187	1277	1545
188	1248	2665
189	239	1902
190	914	2594
191	1427	1713
192	1766	2380
193	966	2785
194	722	1487
195	545	1897
196	379	1180
197	1256	3000
198	717	1313
199	1488	2683
200	1455	2642
201	311	1948
202	581	1089
203	1275	2908
204	593	1457
205	562	1025
206	1189	2938
207	2082	2883
208	713	2687
209	1903	2322
210	439	1010
211	0	940
212	1589	3000
213	1244	1812
214	1154	2371
215	1867	2294
216	1102	2189
217	1981	3000
218	1422	2735
219	682	2662
220	1943	2221
221	1151	2536
222	2144	2562
223	2039	2682
224	358	2132
225	874	1692
226	638	2330
227	295	1300
228	594	1155
229	1940	2423
230	1610	2144
231	828	2543
232	1196	1532
233	615	2452
234	614	1834
235	938	1695
236	2028	2247
237	1030	1806
238	731	2609
239	1626	3000
240	1761	2784
241	0	952
242	569	934
243	1451	3000
244	0	767
245	1383	3000
246	1027	2644
247	1072	2579
248	487	1260
249	906	2001
250	1635	2033
251	1145	2976
252	62	522
253	1818	3000
254	123	1143
255	675	1467
256	136	1679
257	1559	2361
258	453	1489
259	1481	1682
260	749	2614
261	1245	2898
262	0	1144
263	1243	2180
264	250	1656
265	1710	2019
266	574	2051
267	573	775
268	1393	3000
269	629	2491
270	876	1767
271	648	1424
272	360	1399
273	845	1260
274	672	2534
275	501	878
276	1439	1699
277	761	1242
278	601	899
279	1356	2455
280	1942	2464
281	822	2015
282	341	651
283	1383	2679
284	1403	1677
285	740	1264
286	224	805
287	621	880
288	271	1947
289	436	1664
290	629	1806
291	1636	3000
292	1482	2349
293	1705	2418
294	439	2080
295	1879	2233
296	1061	2853
297	1127	2150
298	0	1181
299	1313	2719
300	1240	2836
301	894	1638
302	154	1881
303	219	870
304	123	503
305	565	1282
306	694	1660
307	368	1535
308	1158	1941
309	1331	2000
310	589	1411
311	221	1266
312	158	1971
313	1300	2182
314	1159	1834
315	1237	1710
316	1005	2961
317	857	1997
318	1300	2665
319	1793	2458
320	478	1184
321	401	2216
322	1058	1986
323	352	1799
324	295	1575
325	1160	1855
326	1238	1774
327	1593	3000
328	863	2690
329	329	1636
330	761	1535
331	1544	2119
332	981	1391
333	650	1204
334	0	1396
335	1465	1811
336	1506	2443
337	644	2399
338	2204	2556
339	1183	2583
340	925	2570
341	1077	1375
342	77	1893
343	1055	2720
344	322	1638
345	1307	2877
346	972	1260
347	279	728
348	1361	2657
349	2240	2534
350	1141	1544
351	1982	2356
352	114	925
353	1916	2383
354	20	946
355	1511	2645
356	650	1310
357	438	1994
358	1268	2063
359	511	2422
360	240	2060
361	1603	2881
362	1726	2629
363	865	2348
364	1104	2465
365	1631	2685
366	1236	2531
367	443	2313
368	2329	2605
369	538	1376
370	930	2722
371	321	1043
372	97	1287
373	0	1938
374	1726	2857
375	1044	2182
376	1245	1902
377	0	1441
378	157	1363
379	0	1516
380	480	1179
381	906	1294
382	827	1716
383	1405	2243
384	871	2786
385	106	1237
386	688	1921
387	1437	2376
388	942	1874
389	0	1558
390	1108	2624
391	898	2180
392	0	868
393	726	2388
394	582	2375
395	0	1668
396	1198	2252
397	2081	2553
398	913	1130
399	1111	1661
400	683	2045
401	417	920
DEPOT_SECTION
1
-1
EOF
