NAME : n401-0024
COMMENT : "Generated by pyvrp_manuel (OVRPTW)"
TYPE : OVRPTW
DIMENSION : 401
EDGE_WEIGHT_TYPE : EUC_2D
CAPACITY : 100
VEHICLES : 400
OPEN_ROUTE : YES
SERVICE_TIME : 200
NODE_COORD_SECTION
1	119	101
2	821	148
3	889	314
4	482	310
5	647	254
6	377	762
7	501	789
8	223	422
9	68	574
10	164	271
11	849	642
12	877	400
13	480	308
14	738	811
15	953	867
16	84	242
17	213	126
18	678	466
19	717	55
20	207	438
21	575	381
22	186	774
23	332	752
24	111	763
25	542	252
26	967	276
27	268	91
28	129	245
29	71	607
30	280	383
31	501	914
32	939	404
33	17	670
34	813	690
35	921	874
36	75	68
37	479	481
38	3	54
39	760	310
40	33	588
41	59	576
42	191	922
43	547	270
44	736	255
45	497	47
46	580	470
47	877	923
48	882	436
49	928	649
50	959	995
51	449	235
52	911	76
53	769	89
54	552	165
55	287	57
56	176	925
57	68	755
58	615	184
59	84	444
60	0	942
61	169	814
62	370	170
63	379	427
64	662	245
65	795	442
66	202	959
67	352	116
68	901	232
69	252	379
70	920	239
71	657	409
72	517	394
73	513	309
74	801	107
75	849	261
76	77	132
77	600	594
78	500	638
79	680	98
80	132	367
81	808	634
82	728	199
83	822	487
84	939	246
85	751	891
86	719	608
87	620	351
88	368	768
89	199	204
90	610	404
91	354	711
92	493	964
93	162	409
94	451	322
95	448	526
96	230	352
97	47	215
98	597	766
99	829	967
100	150	146
101	20	957
102	799	641
103	316	338
104	767	96
105	842	929
106	737	103
107	78	626
108	857	579
109	402	244
110	578	924
111	176	66
112	57	435
113	495	904
114	681	638
115	162	886
116	965	5
117	369	799
118	404	335
119	285	501
120	759	845
121	180	402
122	828	258
123	878	728
124	767	558
125	6	378
126	192	434
127	349	744
128	530	982
129	587	319
130	600	862
131	350	708
132	483	532
133	324	915
134	644	499
135	147	592
136	750	999
137	115	481
138	458	831
139	936	183
140	599	545
141	629	563
142	999	316
143	179	829
144	861	183
145	400	533
146	447	500
147	303	501
148	668	33
149	658	483
150	484	964
151	229	436
152	871	759
153	700	141
154	454	581
155	121	379
156	931	194
157	186	349
158	9	411
159	106	603
160	82	846
161	931	570
162	574	853
163	919	958
164	323	468
165	959	502
166	728	143
167	78	467
168	310	295
169	786	402
170	462	574
171	995	180
172	43	128
173	462	695
174	172	623
175	148	419
176	526	993
177	681	428
178	964	76
179	847	998
180	486	279
181	619	924
182	506	372
183	871	660
184	221	511
185	418	970
186	483	589
187	644	248
188	393	888
189	733	495
190	460	541
191	864	769
192	397	849
193	908	819
194	943	155
195	182	523
196	858	117
197	437	806
198	273	575
199	216	232
200	736	426
201	663	907
202	410	40
203	94	605
204	265	607
205	239	790
206	130	219
207	65	971
208	769	135
209	596	149
210	316	87
211	846	890
212	589	39
213	91	469
214	124	422
215	60	2
216	726	403
217	579	376
218	211	168
219	154	261
220	944	552
221	451	884
222	967	455
223	510	404
224	111	416
225	811	934
226	809	436
227	801	914
228	728	934
229	411	634
230	149	271
231	411	389
232	356	473
233	768	908
234	535	190
235	930	679
236	705	541
237	747	139
238	952	478
239	524	184
240	750	50
241	742	266
242	590	652
243	795	549
244	886	867
245	522	799
246	510	895
247	213	494
248	34	869
249	834	909
250	247	254
251	220	984
252	329	522
253	733	146
254	934	370
255	144	658
256	168	943
257	965	836
258	692	447
259	303	342
260	837	359
261	637	977
262	88	930
263	779	640
264	789	665
265	835	699
266	671	77
267	803	71
268	495	261
269	618	224
270	252	949
271	204	306
272	557	918
273	640	394
274	311	391
275	189	254
276	341	327
277	480	762
278	119	295
279	792	985
280	149	388
281	133	569
282	208	577
283	930	710
284	878	586
285	846	477
286	570	987
287	366	809
288	279	45
289	259	600
290	157	28
291	617	125
292	269	447
293	428	411
294	949	449
295	448	963
296	580	143
297	730	139
298	232	356
299	395	444
300	804	767
301	564	664
302	136	742
303	850	881
304	90	521
305	97	740
306	324	579
307	302	461
308	187	597
309	758	955
310	866	603
311	703	196
312	761	447
313	168	921
314	266	2
315	243	267
316	229	446
317	633	230
318	111	248
319	906	494
320	508	174
321	681	652
322	734	827
323	591	652
324	547	925
325	323	367
326	896	946
327	165	75
328	207	513
329	29	374
330	885	871
331	253	108
332	76	511
333	136	624
334	537	869
335	191	720
336	63	861
337	662	274
338	788	863
339	960	454
340	160	991
341	839	468
342	714	526
343	374	616
344	604	837
345	614	803
346	590	64
347	324	551
348	693	135
349	52	119
350	169	204
351	20	44
352	306	708
353	908	393
354	353	133
355	489	430
356	808	333
357	646	988
358	29	300
359	28	448
360	488	803
361	126	284
362	938	552
363	593	804
364	357	427
365	625	37
366	421	867
367	608	342
368	836	545
369	218	146
370	831	668
371	365	205
372	164	8
373	794	821
374	501	130
375	57	667
376	650	624
377	300	288
378	316	763
379	549	979
380	710	80
381	13	500
382	202	77
383	421	113
384	302	659
385	536	493
386	255	884
387	119	361
388	920	715
389	710	952
390	832	454
391	98	197
392	992	78
393	249	528
394	59	980
395	804	295
396	421	85
397	507	119
398	720	170
399	278	68
400	432	395
401	628	895
DEMAND_SECTION
1	0
2	2
3	7
4	7
5	8
6	8
7	9
8	3
9	2
10	1
11	5
12	5
13	7
14	5
15	9
16	6
17	3
18	9
19	5
20	2
21	4
22	5
23	7
24	9
25	7
26	3
27	9
28	7
29	9
30	5
31	9
32	5
33	1
34	7
35	7
36	6
37	4
38	3
39	1
40	9
41	3
42	3
43	4
44	6
45	3
46	1
47	9
48	9
49	8
50	2
51	1
52	9
53	8
54	7
55	3
56	7
57	1
58	1
59	6
60	3
61	7
62	4
63	6
64	4
65	5
66	8
67	7
68	7
69	3
70	3
71	8
72	6
73	1
74	3
75	1
76	2
77	3
78	9
79	3
80	2
81	2
82	8
83	3
84	7
85	2
86	5
87	6
88	7
89	3
90	6
91	2
92	7
93	5
94	8
95	7
96	4
97	9
98	7
99	5
100	8
101	8
102	1
103	3
104	4
105	8
106	6
107	2
108	4
109	2
110	1
111	6
112	3
113	9
114	3
115	1
116	2
117	7
118	9
119	4
120	2
121	7
122	9
123	3
124	3
125	8
126	3
127	2
128	6
129	7
130	5
131	7
132	9
133	2
134	3
135	2
136	7
137	2
138	8
139	6
140	4
141	5
142	6
143	3
144	7
145	6
146	3
147	1
148	3
149	1
150	8
151	5
152	4
153	3
154	2
155	2
156	7
157	6
158	7
159	1
160	1
161	9
162	8
163	8
164	9
165	5
166	6
167	7
168	2
169	5
170	1
171	3
172	8
173	8
174	3
175	8
176	2
177	2
178	1
179	5
180	8
181	6
182	1
183	3
184	5
185	9
186	5
187	4
188	7
189	4
190	8
191	1
192	1
193	9
194	2
195	7
196	2
197	6
198	2
199	5
200	5
201	9
202	1
203	5
204	5
205	4
206	1
207	9
208	1
209	2
210	4
211	1
212	5
213	5
214	8
215	7
216	5
217	7
218	2
219	5
220	9
221	6
222	2
223	3
224	8
225	4
226	7
227	1
228	5
229	2
230	2
231	6
232	3
233	7
234	8
235	9
236	9
237	3
238	4
239	1
240	1
241	2
242	8
243	7
244	3
245	4
246	5
247	7
248	3
249	7
250	6
251	5
252	2
253	8
254	2
255	9
256	8
257	1
258	3
259	1
260	1
261	2
262	7
263	5
264	6
265	5
266	9
267	1
268	9
269	6
270	6
271	4
272	7
273	2
274	2
275	9
276	2
277	7
278	9
279	1
280	1
281	9
282	2
283	4
284	6
285	8
286	2
287	7
288	5
289	2
290	1
291	3
292	6
293	9
294	7
295	2
296	4
297	4
298	6
299	2
300	9
301	3
302	3
303	4
304	7
305	5
306	2
307	8
308	1
309	8
310	9
311	9
312	5
313	4
314	3
315	8
316	5
317	8
318	6
319	7
320	3
321	1
322	9
323	2
324	2
325	9
326	9
327	2
328	5
329	9
330	5
331	3
332	7
333	3
334	5
335	8
336	3
337	4
338	7
339	2
340	5
341	5
342	4
343	6
344	1
345	2
346	5
347	4
348	6
349	7
350	9
351	2
352	7
353	6
354	6
355	3
356	3
357	9
358	2
359	9
360	9
361	7
362	7
363	2
364	7
365	9
366	3
367	2
368	1
369	3
370	1
371	2
372	4
373	6
374	4
375	2
376	6
377	4
378	5
379	5
380	3
381	4
382	5
383	2
384	4
385	2
386	5
387	5
388	7
389	3
390	1
391	5
392	2
393	6
394	1
395	3
396	5
397	7
398	3
399	7
400	8
401	4
TIME_WINDOW_SECTION
1	0	3000
2	898	1228
3	1390	1705
4	1413	1659
5	187	1342
6	1249	1933
7	1565	2002
8	1058	2993
9	1371	2670
10	250	1034
11	736	2060
12	112	2108
13	405	639
14	828	2345
15	1205	1456
16	1197	2048
17	1069	1947
18	1070	1361
19	804	2211
20	668	1889
21	1363	2014
22	1241	1890
23	0	1656
24	0	1842
25	212	1624
26	747	1761
27	1172	1627
28	118	1895
29	0	1494
30	860	1211
31	929	2745
32	1365	1853
33	567	1741
34	660	1335
35	650	1947
36	2176	2756
37	284	1227
38	630	968
39	244	1803
40	1536	1992
41	1421	2885
42	354	2307
43	1722	2272
44	375	2021
45	806	1729
46	0	1672
47	729	2169
48	258	1576
49	987	2126
50	904	1625
51	491	1340
52	36	1562
53	237	1434
54	1343	2919
55	1978	3000
56	860	1963
57	803	1325
58	733	1472
59	450	1612
60	1009	2483
61	627	1839
62	1830	2716
63	460	883
64	387	1424
65	782	2467
66	1351	2481
67	131	509
68	168	2081
69	1002	2695
70	1529	2275
71	1314	1774
72	1127	2611
73	286	1225
74	328	1385
75	811	2344
76	0	382
77	983	2836
78	1554	2031
79	415	2310
80	180	1244
81	1340	1876
82	647	1879
83	1336	2423
84	0	1890
85	768	1355
86	117	1766
87	1665	2071
88	1148	2612
89	931	2799
90	1050	2137
91	1311	2627
92	702	2672
93	638	1104
94	631	1518
95	1505	1934
96	2104	2373
97	0	1189
98	1048	1442
99	991	1997
100	164	1160
101	607	2555
102	1095	2541
103	892	2703
104	1487	1868
105	882	1349
106	1473	2555
107	1257	2474
108	1008	2491
109	1079	1794
110	1345	2056
111	1716	2838
112	987	1572
113	488	2350
114	1174	2774
115	866	1334
116	856	2811
117	70	1682
118	21	1802
119	1365	2148
120	966	1635
121	66	654
122	1811	2029
123	679	1932
124	1116	1653
125	131	1591
126	403	617
127	572	2311
128	865	2184
129	244	2011
130	1003	2629
131	1346	1884
132	990	1285
133	1215	1596
134	72	1569
135	477	2349
136	1149	1548
137	1206	1737
138	826	2052
139	570	2534
140	561	1868
141	826	2383
142	1016	1548
143	502	2175
144	335	1163
145	1305	1862
146	586	839
147	941	1879
148	549	1377
149	950	1538
150	841	1350
151	861	2247
152	1145	1949
153	162	1318
154	455	1472
155	0	1007
156	486	2155
157	416	1475
158	1813	2805
159	687	2164
160	1163	2230
161	881	1564
162	662	1827
163	1085	1787
164	1823	2748
165	910	1259
166	979	2172
167	458	1493
168	12	1544
169	765	1651
170	380	1351
171	1466	2338
172	0	230
173	1423	2792
174	248	1907
175	0	1423
176	1028	1894
177	1629	2127
178	290	2005
179	693	2215
180	1958	2794
181	326	1958
182	502	2274
183	298	1914
184	263	750
185	1234	1448
186	1092	3000
187	385	1008
188	1309	1702
189	1204	2394
190	836	1874
191	303	1766
192	1560	2267
193	1398	1633
194	287	2088
195	1815	2316
196	939	1514
197	1073	1888
198	857	1386
199	1168	2614
200	991	1487
201	539	1598
202	481	1945
203	124	1135
204	348	1890
205	19	1418
206	585	1203
207	1273	2226
208	556	992
209	940	2412
210	528	2109
211	1357	2076
212	589	884
213	1790	2703
214	1075	2384
215	1141	2352
216	733	1217
217	180	1097
218	580	2203
219	373	1823
220	1011	2678
221	972	1230
222	284	1856
223	993	2985
224	1857	2075
225	562	1775
226	881	2100
227	658	1470
228	1545	1984
229	715	1890
230	2163	2939
231	1195	2994
232	621	1183
233	1442	1831
234	1990	2609
235	913	1453
236	140	1581
237	1483	2281
238	1256	1799
239	347	1548
240	1441	1887
241	946	1207
242	1216	2325
243	1627	2247
244	771	1862
245	1589	1802
246	1339	2452
247	1385	1789
248	693	2325
249	488	2213
250	102	685
251	746	1440
252	507	2137
253	1067	1837
254	980	1841
255	527	1524
256	299	2097
257	892	1666
258	1637	2428
259	1658	2584
260	855	1379
261	571	1619
262	1721	1924
263	640	1664
264	658	1884
265	944	1181
266	0	1378
267	1455	1792
268	831	2830
269	385	1148
270	681	1407
271	0	1562
272	541	1904
273	265	2080
274	167	619
275	1471	2645
276	279	2133
277	814	1996
278	166	1878
279	759	2440
280	98	1033
281	212	1056
282	2153	2376
283	945	2555
284	414	2109
285	800	2193
286	1391	1875
287	338	1229
288	2170	2842
289	693	1356
290	0	1244
291	748	1456
292	1504	2292
293	1274	3000
294	401	1805
295	450	1419
296	754	1696
297	864	1744
298	1681	2445
299	512	1278
300	998	2302
301	118	1710
302	1462	2550
303	332	2026
304	0	1101
305	606	868
306	907	1838
307	0	1511
308	320	1115
309	796	1807
310	410	2178
311	980	1659
312	907	1951
313	580	1160
314	0	1046
315	166	1776
316	1407	2559
317	623	2238
318	401	1781
319	1397	2143
320	0	1164
321	1281	2043
322	856	2745
323	1219	1870
324	648	2072
325	960	2706
326	645	2258
327	1289	3000
328	1052	2968
329	779	2310
330	403	2338
331	1549	1802
332	0	1438
333	370	842
334	676	2031
335	994	2625
336	678	1385
337	603	2354
338	1236	2165
339	1171	1698
340	878	1880
341	711	1442
342	468	1709
343	1492	1774
344	927	2081
345	219	1663
346	720	2247
347	286	1473
348	1198	2358
349	2125	3000
350	0	1559
351	316	1335
352	627	898
353	1635	2044
354	1494	2932
355	611	1775
356	1047	2217
357	549	2065
358	1372	2705
359	403	768
360	806	1197
361	1299	3000
362	1645	2052
363	169	1856
364	309	1525
365	435	1209
366	647	2437
367	1283	2197
368	1007	2339
369	884	2534
370	894	1234
371	876	2830
372	1269	2014
373	956	1804
374	688	2116
375	220	1503
376	787	2456
377	1379	1945
378	347	1234
379	904	1106
380	508	2430
381	292	1705
382	399	2379
383	69	1345
384	594	2566
385	120	1960
386	1435	1784
387	1380	2587
388	592	1899
389	857	1788
390	1028	1311
391	0	1314
392	789	1305
393	209	1136
394	376	2289
395	1060	1320
396	626	888
397	2147	2402
398	956	2885
399	1111	1777
400	1755	2873
401	445	1677
DEPOT_SECTION
1
-1
EOF
