NAME : n401-0038
COMMENT : "Generated by pyvrp_manuel (OVRPTW)"
TYPE : OVRPTW
DIMENSION : 401
EDGE_WEIGHT_TYPE : EUC_2D
CAPACITY : 100
VEHICLES : 400
OPEN_ROUTE : YES
SERVICE_TIME : 200
NODE_COORD_SECTION
1	202	758
2	770	302
3	929	701
4	893	938
5	526	856
6	212	9
7	334	522
8	637	152
9	865	122
10	161	569
11	252	355
12	782	483
13	110	149
14	3	897
15	204	355
16	175	229
17	869	914
18	747	522
19	463	143
20	906	650
21	979	793
22	282	234
23	75	11
24	677	824
25	935	411
26	146	505
27	881	665
28	765	592
29	578	178
30	135	347
31	849	765
32	242	490
33	812	608
34	700	64
35	762	387
36	673	408
37	703	791
38	865	274
39	456	529
40	322	852
41	371	256
42	860	334
43	433	651
44	83	777
45	510	639
46	715	401
47	937	929
48	195	172
49	233	181
50	601	110
51	52	961
52	930	661
53	519	190
54	236	447
55	983	462
56	472	31
57	164	279
58	356	425
59	354	685
60	486	437
61	971	775
62	87	52
63	291	272
64	159	24
65	971	620
66	119	958
67	669	176
68	358	167
69	386	231
70	521	530
71	743	379
72	87	845
73	716	466
74	313	922
75	687	67
76	90	962
77	432	151
78	781	755
79	619	244
80	311	43
81	443	927
82	846	805
83	235	967
84	767	522
85	244	288
86	357	747
87	453	317
88	866	61
89	851	825
90	244	468
91	10	262
92	868	66
93	334	721
94	958	316
95	708	341
96	189	701
97	111	19
98	174	463
99	641	783
100	443	99
101	262	591
102	129	402
103	998	31
104	872	265
105	934	466
106	455	841
107	707	408
108	749	542
109	212	463
110	605	799
111	17	792
112	729	202
113	476	293
114	799	305
115	237	810
116	677	400
117	710	609
118	689	454
119	492	893
120	168	186
121	324	16
122	579	543
123	267	721
124	841	591
125	3	444
126	690	79
127	150	140
128	458	248
129	5	506
130	472	50
131	345	505
132	746	711
133	69	154
134	570	301
135	4	850
136	266	237
137	408	968
138	777	429
139	296	472
140	556	447
141	590	349
142	946	217
143	218	550
144	610	419
145	148	177
146	427	428
147	889	545
148	578	534
149	979	403
150	578	498
151	416	237
152	944	112
153	861	210
154	805	725
155	753	388
156	467	868
157	847	690
158	884	794
159	663	111
160	130	295
161	238	398
162	180	144
163	803	325
164	587	929
165	934	671
166	18	974
167	17	287
168	540	313
169	936	756
170	155	129
171	610	407
172	690	924
173	129	485
174	940	724
175	907	633
176	986	278
177	80	817
178	220	263
179	71	762
180	736	132
181	438	960
182	465	76
183	944	969
184	333	329
185	344	80
186	265	174
187	300	843
188	848	503
189	46	274
190	962	169
191	737	882
192	635	846
193	81	628
194	21	305
195	712	351
196	380	270
197	147	713
198	105	850
199	922	78
200	433	52
201	286	190
202	478	988
203	652	937
204	97	550
205	512	222
206	778	127
207	880	650
208	559	905
209	68	911
210	359	372
211	600	652
212	343	180
213	113	988
214	696	431
215	63	436
216	213	465
217	706	545
218	721	795
219	521	396
220	593	10
221	380	178
222	790	511
223	424	195
224	208	96
225	80	661
226	453	584
227	791	347
228	864	537
229	280	181
230	992	214
231	159	283
232	114	469
233	709	744
234	841	723
235	628	418
236	41	221
237	673	132
238	640	320
239	318	530
240	853	539
241	158	849
242	271	439
243	86	975
244	287	970
245	224	895
246	719	175
247	153	561
248	30	531
249	625	231
250	713	540
251	329	577
252	188	771
253	669	135
254	371	684
255	763	622
256	881	372
257	554	329
258	381	845
259	789	303
260	301	490
261	368	488
262	375	646
263	223	34
264	332	610
265	3	836
266	768	962
267	131	943
268	606	801
269	394	667
270	79	102
271	359	485
272	671	739
273	995	592
274	425	477
275	638	317
276	157	540
277	374	541
278	21	2
279	106	233
280	405	87
281	466	834
282	336	712
283	531	883
284	62	348
285	914	223
286	276	14
287	365	72
288	100	992
289	334	810
290	445	626
291	345	355
292	133	672
293	123	228
294	722	234
295	335	672
296	148	581
297	693	378
298	118	351
299	275	365
300	772	834
301	190	588
302	740	666
303	111	508
304	601	355
305	525	887
306	639	605
307	431	277
308	597	702
309	240	783
310	67	158
311	483	662
312	122	244
313	125	413
314	344	236
315	440	93
316	406	644
317	368	569
318	75	699
319	6	983
320	332	75
321	378	680
322	900	686
323	11	121
324	252	983
325	221	938
326	854	247
327	907	74
328	586	635
329	31	842
330	817	484
331	159	577
332	918	740
333	546	716
334	637	98
335	32	307
336	576	52
337	490	709
338	404	731
339	281	546
340	382	244
341	40	141
342	373	304
343	992	727
344	450	114
345	134	130
346	743	35
347	961	946
348	382	127
349	936	669
350	671	335
351	622	461
352	870	251
353	780	886
354	863	384
355	878	360
356	164	708
357	875	464
358	515	862
359	789	826
360	271	361
361	624	296
362	252	653
363	88	291
364	679	939
365	433	966
366	854	398
367	188	975
368	760	472
369	558	428
370	32	362
371	523	273
372	780	704
373	822	853
374	566	463
375	960	232
376	790	30
377	195	757
378	172	316
379	13	774
380	920	164
381	229	549
382	912	584
383	773	139
384	152	630
385	831	931
386	91	467
387	30	595
388	507	478
389	324	219
390	446	992
391	857	495
392	858	421
393	745	383
394	877	156
395	398	996
396	677	680
397	124	54
398	288	415
399	857	252
400	415	708
401	611	675
DEMAND_SECTION
1	0
2	9
3	3
4	8
5	7
6	8
7	1
8	1
9	5
10	1
11	4
12	2
13	7
14	2
15	8
16	5
17	8
18	2
19	9
20	8
21	3
22	5
23	5
24	7
25	2
26	7
27	8
28	5
29	8
30	8
31	2
32	4
33	4
34	3
35	3
36	1
37	6
38	7
39	4
40	9
41	5
42	6
43	4
44	2
45	8
46	9
47	2
48	1
49	3
50	7
51	2
52	6
53	7
54	5
55	7
56	4
57	4
58	9
59	7
60	2
61	2
62	1
63	4
64	4
65	8
66	6
67	8
68	5
69	6
70	5
71	8
72	4
73	5
74	2
75	3
76	4
77	3
78	6
79	7
80	4
81	9
82	8
83	8
84	7
85	1
86	2
87	4
88	6
89	5
90	9
91	9
92	6
93	7
94	2
95	1
96	2
97	1
98	4
99	4
100	3
101	6
102	2
103	8
104	2
105	9
106	9
107	3
108	6
109	2
110	4
111	1
112	7
113	9
114	4
115	9
116	4
117	7
118	5
119	8
120	4
121	1
122	3
123	9
124	6
125	4
126	4
127	2
128	2
129	7
130	2
131	2
132	5
133	5
134	6
135	2
136	7
137	2
138	8
139	2
140	5
141	9
142	4
143	1
144	2
145	7
146	6
147	4
148	8
149	9
150	7
151	8
152	4
153	5
154	9
155	9
156	9
157	1
158	8
159	9
160	6
161	9
162	2
163	9
164	5
165	7
166	5
167	7
168	9
169	1
170	5
171	6
172	6
173	7
174	1
175	4
176	3
177	7
178	5
179	6
180	1
181	3
182	6
183	5
184	3
185	5
186	1
187	6
188	7
189	7
190	2
191	8
192	8
193	6
194	6
195	8
196	1
197	7
198	7
199	6
200	3
201	3
202	8
203	7
204	8
205	5
206	9
207	9
208	1
209	6
210	7
211	1
212	3
213	1
214	9
215	7
216	8
217	4
218	6
219	2
220	3
221	5
222	2
223	2
224	6
225	1
226	6
227	5
228	4
229	6
230	8
231	1
232	6
233	4
234	6
235	3
236	2
237	6
238	3
239	4
240	6
241	2
242	1
243	1
244	3
245	3
246	5
247	7
248	1
249	9
250	3
251	8
252	1
253	7
254	2
255	1
256	9
257	9
258	4
259	4
260	2
261	6
262	9
263	9
264	4
265	6
266	4
267	6
268	3
269	7
270	1
271	3
272	7
273	5
274	9
275	8
276	1
277	4
278	9
279	4
280	8
281	6
282	8
283	7
284	1
285	1
286	6
287	8
288	1
289	1
290	6
291	7
292	2
293	5
294	9
295	7
296	6
297	3
298	4
299	2
300	5
301	5
302	4
303	2
304	4
305	4
306	6
307	1
308	5
309	1
310	9
311	3
312	6
313	7
314	9
315	9
316	9
317	2
318	4
319	7
320	4
321	6
322	8
323	9
324	3
325	5
326	3
327	6
328	3
329	8
330	7
331	9
332	9
333	7
334	6
335	2
336	3
337	1
338	3
339	4
340	2
341	7
342	9
343	2
344	7
345	2
346	5
347	3
348	1
349	5
350	3
351	7
352	9
353	8
354	4
355	1
356	5
357	9
358	9
359	9
360	3
361	2
362	5
363	9
364	7
365	2
366	4
367	5
368	8
369	1
370	8
371	4
372	6
373	8
374	9
375	1
376	9
377	6
378	5
379	7
380	6
381	5
382	4
383	2
384	4
385	5
386	3
387	5
388	1
389	3
390	8
391	3
392	7
393	9
394	6
395	1
396	7
397	8
398	2
399	7
400	7
401	9
TIME_WINDOW_SECTION
1	0	3000
2	726	2369
3	246	1621
4	906	1504
5	803	1721
6	1690	2397
7	148	1131
8	1392	1804
9	1348	1578
10	406	1966
11	972	2794
12	1004	2197
13	394	952
14	947	1584
15	484	2121
16	1223	2496
17	724	2571
18	552	2222
19	546	2162
20	436	2303
21	1274	1608
22	1333	2007
23	503	1096
24	1398	2703
25	1078	1823
26	1437	2565
27	309	1749
28	1853	2456
29	1610	2033
30	0	1247
31	1487	2664
32	1560	1882
33	1342	2204
34	538	1861
35	659	2302
36	1609	1999
37	1527	1910
38	1161	1602
39	505	2139
40	701	1441
41	1162	1658
42	268	2102
43	1639	3000
44	1659	2974
45	916	1686
46	451	1503
47	0	1718
48	265	1573
49	1274	2094
50	378	1984
51	942	1898
52	0	1795
53	651	1639
54	1701	2616
55	201	2171
56	603	1804
57	512	809
58	221	2133
59	0	1459
60	0	1353
61	972	2914
62	1416	1900
63	514	2398
64	345	1451
65	1099	1923
66	1555	2753
67	790	2641
68	1457	1725
69	1857	2275
70	947	1756
71	827	1884
72	1060	2127
73	251	1412
74	0	555
75	757	1312
76	1992	2201
77	604	2425
78	1492	2712
79	915	1618
80	1149	2040
81	85	1841
82	1088	2030
83	1325	2842
84	1740	2197
85	1285	2607
86	734	1728
87	1248	2419
88	747	1786
89	448	1214
90	270	1394
91	1329	2873
92	695	1235
93	1056	1534
94	1247	1617
95	1433	2058
96	82	760
97	1058	2938
98	857	2739
99	1103	2219
100	1366	2659
101	1083	2693
102	1313	2689
103	1340	1880
104	1819	2108
105	880	2474
106	2207	2644
107	328	1840
108	1726	1997
109	2125	2809
110	204	1121
111	123	1067
112	1611	1940
113	1076	2552
114	1568	2444
115	176	2144
116	916	2537
117	1149	1921
118	689	2632
119	0	940
120	732	1154
121	1203	2073
122	328	1735
123	880	2208
124	318	1383
125	4	1150
126	944	1812
127	1448	2647
128	881	2737
129	178	609
130	1335	2505
131	1312	2939
132	692	1143
133	1751	2042
134	1835	2571
135	1554	2212
136	395	1720
137	799	1008
138	399	1819
139	204	456
140	1522	2052
141	1216	2286
142	719	1708
143	692	2617
144	1439	2005
145	2039	2366
146	836	2145
147	663	1087
148	0	1058
149	1462	2403
150	119	1998
151	1078	1964
152	819	1998
153	501	2111
154	810	1614
155	1661	2078
156	1525	2813
157	1286	1758
158	819	1334
159	727	2050
160	1503	3000
161	1061	2256
162	1306	2964
163	1710	2049
164	1684	2724
165	1053	2197
166	0	1620
167	1888	2439
168	569	2538
169	605	2377
170	1542	2448
171	186	1883
172	1536	2047
173	1063	1632
174	624	1082
175	1164	2973
176	615	1434
177	2127	2961
178	1224	1499
179	569	2463
180	387	1475
181	1074	1664
182	1116	2979
183	1089	1885
184	1317	3000
185	1025	1598
186	1113	2486
187	884	2201
188	320	1217
189	1165	1685
190	323	1983
191	0	1465
192	1564	2068
193	39	1853
194	1657	2681
195	734	2352
196	767	2674
197	2208	3000
198	381	1894
199	719	1567
200	100	1530
201	467	1155
202	724	1307
203	755	2630
204	0	1493
205	1444	1993
206	933	2593
207	1600	2313
208	197	1722
209	1502	2192
210	17	1324
211	907	1642
212	463	947
213	1171	2053
214	1600	1848
215	1503	2488
216	875	1336
217	1531	2967
218	611	1599
219	828	1816
220	525	1197
221	1450	2499
222	599	2203
223	736	2503
224	322	1545
225	1208	1658
226	331	1693
227	1080	1979
228	733	1935
229	422	2250
230	912	2627
231	89	1713
232	582	931
233	589	822
234	219	1092
235	690	2326
236	268	2056
237	1079	2662
238	926	2923
239	1128	2166
240	1388	2819
241	420	1154
242	1553	2953
243	1994	2744
244	114	591
245	1433	3000
246	811	2533
247	284	929
248	790	1551
249	721	1044
250	1299	2126
251	1893	2958
252	0	993
253	772	1312
254	0	1086
255	677	1592
256	0	1715
257	852	1512
258	115	1260
259	730	1565
260	189	1900
261	1271	2905
262	1683	2635
263	669	1327
264	772	2046
265	0	1016
266	1482	2210
267	413	1263
268	1838	2437
269	0	1101
270	1220	3000
271	829	1281
272	1509	2328
273	779	2373
274	240	1119
275	1036	2154
276	0	1344
277	2146	2749
278	969	1564
279	727	1505
280	1016	1632
281	1424	2102
282	2003	3000
283	822	2036
284	897	2055
285	1494	1811
286	645	2637
287	397	2050
288	933	2161
289	1336	2996
290	678	902
291	1069	2339
292	1127	1793
293	557	2143
294	756	2511
295	659	1471
296	0	1164
297	891	2071
298	1179	2232
299	0	1667
300	1755	1960
301	1101	1314
302	506	1900
303	0	764
304	1996	2455
305	1140	3000
306	551	1745
307	1483	2357
308	1872	2525
309	0	1149
310	934	1830
311	0	1668
312	902	1756
313	756	2453
314	0	1701
315	633	922
316	249	1893
317	575	835
318	804	2517
319	683	1549
320	1305	1804
321	907	2322
322	328	1745
323	0	1743
324	1296	1764
325	1508	2751
326	1335	1792
327	577	2211
328	1785	2834
329	0	886
330	494	965
331	792	1131
332	937	2568
333	354	1071
334	319	1641
335	1577	2471
336	727	1510
337	1585	3000
338	50	1586
339	1764	2299
340	1115	2179
341	1411	2533
342	0	1631
343	1278	2184
344	1330	2718
345	741	1483
346	931	2687
347	1463	2538
348	1206	2420
349	1818	2195
350	397	907
351	1773	2182
352	715	1112
353	661	2054
354	909	2004
355	973	1920
356	0	1169
357	725	1589
358	714	1126
359	1918	2188
360	1607	2690
361	1485	1691
362	1493	2588
363	1656	2889
364	804	1567
365	1085	2160
366	806	1892
367	1257	2662
368	267	1098
369	1517	2656
370	163	703
371	960	1463
372	1147	1859
373	344	1285
374	452	1042
375	1350	1661
376	423	1654
377	1076	1277
378	435	1648
379	347	1360
380	1024	2471
381	1960	2651
382	1832	2194
383	882	2185
384	1247	2816
385	571	1222
386	1378	1845
387	1384	2182
388	244	2130
389	845	2762
390	1207	2426
391	1380	1908
392	0	1807
393	135	1655
394	945	2404
395	789	1525
396	0	1608
397	221	1781
398	1320	2083
399	967	2730
400	1541	3000
401	272	758
DEPOT_SECTION
1
-1
EOF
