NAME : n401-0030
COMMENT : "Generated by pyvrp_manuel (OVRPTW)"
TYPE : OVRPTW
DIMENSION : 401
EDGE_WEIGHT_TYPE : EUC_2D
CAPACITY : 100
VEHICLES : 400
OPEN_ROUTE : YES
SERVICE_TIME : 200
NODE_COORD_SECTION
1	444	89
2	73	12
3	519	981
4	592	376
5	103	377
6	278	449
7	591	333
8	506	182
9	605	626
10	71	722
11	370	813
12	142	516
13	913	708
14	458	419
15	758	725
16	143	980
17	297	611
18	773	374
19	671	155
20	750	344
21	131	489
22	170	522
23	692	944
24	274	244
25	620	509
26	668	76
27	16	74
28	932	821
29	645	498
30	715	695
31	272	500
32	404	287
33	165	474
34	944	457
35	109	99
36	899	284
37	199	463
38	68	217
39	443	218
40	278	126
41	854	880
42	585	756
43	758	210
44	602	184
45	114	102
46	952	859
47	529	88
48	911	318
49	482	609
50	93	405
51	998	970
52	678	56
53	275	950
54	49	646
55	562	672
56	127	46
57	577	119
58	847	811
59	642	393
60	71	234
61	268	121
62	736	381
63	607	158
64	696	194
65	926	268
66	374	393
67	290	779
68	752	404
69	41	269
70	832	383
71	298	313
72	632	179
73	809	521
74	874	433
75	381	848
76	464	752
77	135	354
78	483	651
79	518	74
80	484	154
81	173	29
82	544	222
83	924	91
84	307	314
85	731	41
86	999	984
87	428	247
88	597	939
89	115	965
90	509	430
91	896	216
92	61	67
93	354	929
94	863	489
95	522	960
96	283	311
97	531	378
98	941	496
99	866	189
100	890	64
101	619	427
102	947	454
103	625	471
104	96	179
105	88	244
106	862	912
107	279	568
108	649	712
109	882	364
110	250	119
111	972	930
112	188	581
113	534	718
114	372	102
115	75	561
116	781	697
117	69	910
118	860	912
119	951	792
120	493	884
121	32	550
122	388	916
123	428	832
124	215	602
125	517	244
126	346	826
127	373	638
128	67	757
129	177	972
130	48	204
131	413	142
132	34	669
133	870	357
134	292	970
135	227	962
136	237	794
137	893	955
138	295	177
139	195	310
140	166	843
141	138	637
142	402	238
143	864	439
144	459	101
145	163	1000
146	443	275
147	157	31
148	435	92
149	19	9
150	475	375
151	992	685
152	119	911
153	323	518
154	358	931
155	163	544
156	958	347
157	824	154
158	300	885
159	123	815
160	347	902
161	670	527
162	122	555
163	89	814
164	633	461
165	611	505
166	583	833
167	247	850
168	630	987
169	37	570
170	471	185
171	884	235
172	119	779
173	537	22
174	400	134
175	601	522
176	694	779
177	524	609
178	542	990
179	594	145
180	601	497
181	563	702
182	870	332
183	288	890
184	457	510
185	998	57
186	945	475
187	113	212
188	624	800
189	444	453
190	819	56
191	582	985
192	481	182
193	90	385
194	296	107
195	931	204
196	554	156
197	112	766
198	948	629
199	414	177
200	893	712
201	244	913
202	570	525
203	199	303
204	599	226
205	944	836
206	248	579
207	779	187
208	792	87
209	327	571
210	108	76
211	176	172
212	833	85
213	79	904
214	954	657
215	31	556
216	786	895
217	500	855
218	967	850
219	427	708
220	195	735
221	553	403
222	789	651
223	148	615
224	862	998
225	715	371
226	873	256
227	321	183
228	176	357
229	610	903
230	673	771
231	351	43
232	163	532
233	783	226
234	101	237
235	622	185
236	831	51
237	848	436
238	982	262
239	619	718
240	551	686
241	178	428
242	393	628
243	665	312
244	676	203
245	750	148
246	51	277
247	498	42
248	916	679
249	483	859
250	962	355
251	673	761
252	868	318
253	849	696
254	830	101
255	709	802
256	64	539
257	258	76
258	742	754
259	625	331
260	858	718
261	362	473
262	675	853
263	159	822
264	247	605
265	301	67
266	994	103
267	539	103
268	464	71
269	672	347
270	345	725
271	628	17
272	8	974
273	340	762
274	569	291
275	171	312
276	970	514
277	854	585
278	845	856
279	85	285
280	207	325
281	125	676
282	961	986
283	442	385
284	534	371
285	129	414
286	122	996
287	851	731
288	885	522
289	824	771
290	301	771
291	685	355
292	527	813
293	725	162
294	473	617
295	833	725
296	524	907
297	344	864
298	908	214
299	965	480
300	704	695
301	546	172
302	980	608
303	952	775
304	514	373
305	266	357
306	581	257
307	144	216
308	946	831
309	938	878
310	648	153
311	228	372
312	700	691
313	648	509
314	409	852
315	502	963
316	332	220
317	4	346
318	662	20
319	616	165
320	220	806
321	281	112
322	386	804
323	198	981
324	876	626
325	531	170
326	147	531
327	485	508
328	744	871
329	179	902
330	674	397
331	750	862
332	128	662
333	159	40
334	299	174
335	49	858
336	368	922
337	892	369
338	904	198
339	808	91
340	469	929
341	852	261
342	217	222
343	133	192
344	192	269
345	722	932
346	552	172
347	836	41
348	346	927
349	312	321
350	471	929
351	878	121
352	261	29
353	300	278
354	678	129
355	204	769
356	417	253
357	927	814
358	572	893
359	779	608
360	39	84
361	622	558
362	998	418
363	584	189
364	614	952
365	184	149
366	489	115
367	158	906
368	511	284
369	261	3
370	640	368
371	453	880
372	593	644
373	282	461
374	840	492
375	109	251
376	161	110
377	401	30
378	36	521
379	6	284
380	690	665
381	378	139
382	993	512
383	31	465
384	600	710
385	887	7
386	736	749
387	949	585
388	282	723
389	483	706
390	281	992
391	303	584
392	15	327
393	747	137
394	983	785
395	925	184
396	438	979
397	580	399
398	302	562
399	878	124
400	694	8
401	1	320
DEMAND_SECTION
1	0
2	1
3	8
4	3
5	2
6	4
7	5
8	9
9	7
10	7
11	4
12	9
13	5
14	7
15	4
16	7
17	3
18	7
19	8
20	1
21	8
22	9
23	2
24	5
25	8
26	3
27	4
28	9
29	3
30	2
31	1
32	6
33	5
34	4
35	8
36	9
37	2
38	4
39	2
40	9
41	4
42	8
43	4
44	2
45	6
46	4
47	1
48	7
49	6
50	8
51	5
52	9
53	3
54	9
55	9
56	3
57	3
58	8
59	2
60	3
61	8
62	1
63	7
64	5
65	8
66	9
67	3
68	2
69	2
70	9
71	3
72	1
73	9
74	4
75	7
76	3
77	9
78	3
79	9
80	5
81	6
82	2
83	3
84	5
85	1
86	1
87	3
88	1
89	3
90	8
91	1
92	4
93	2
94	7
95	8
96	4
97	9
98	1
99	8
100	4
101	1
102	7
103	7
104	5
105	1
106	6
107	4
108	1
109	5
110	1
111	6
112	3
113	9
114	3
115	7
116	6
117	6
118	9
119	8
120	5
121	7
122	3
123	4
124	5
125	9
126	1
127	5
128	1
129	7
130	9
131	6
132	5
133	6
134	6
135	7
136	4
137	3
138	1
139	4
140	1
141	9
142	6
143	4
144	4
145	8
146	7
147	6
148	5
149	9
150	6
151	2
152	4
153	7
154	3
155	4
156	2
157	1
158	7
159	3
160	8
161	5
162	4
163	5
164	3
165	5
166	3
167	4
168	3
169	3
170	9
171	4
172	8
173	2
174	1
175	8
176	8
177	3
178	4
179	2
180	2
181	8
182	5
183	2
184	4
185	9
186	6
187	3
188	1
189	8
190	4
191	1
192	2
193	5
194	7
195	1
196	4
197	6
198	4
199	3
200	7
201	6
202	9
203	7
204	6
205	3
206	5
207	9
208	6
209	3
210	5
211	3
212	3
213	4
214	3
215	6
216	6
217	7
218	5
219	4
220	5
221	2
222	4
223	9
224	3
225	8
226	7
227	9
228	5
229	5
230	6
231	8
232	4
233	1
234	3
235	9
236	9
237	8
238	5
239	3
240	9
241	3
242	5
243	9
244	3
245	6
246	7
247	4
248	2
249	7
250	6
251	5
252	3
253	7
254	1
255	6
256	7
257	4
258	9
259	6
260	1
261	4
262	8
263	9
264	4
265	9
266	6
267	6
268	7
269	7
270	7
271	8
272	7
273	4
274	3
275	2
276	2
277	5
278	4
279	5
280	6
281	8
282	1
283	3
284	4
285	2
286	9
287	9
288	9
289	8
290	5
291	7
292	9
293	6
294	9
295	5
296	7
297	6
298	5
299	2
300	3
301	3
302	7
303	3
304	2
305	4
306	9
307	8
308	4
309	5
310	4
311	1
312	4
313	4
314	7
315	9
316	2
317	7
318	4
319	9
320	1
321	1
322	5
323	5
324	4
325	7
326	4
327	6
328	1
329	2
330	9
331	3
332	2
333	6
334	6
335	1
336	5
337	7
338	2
339	1
340	1
341	9
342	5
343	8
344	9
345	4
346	2
347	3
348	2
349	2
350	3
351	1
352	4
353	2
354	9
355	9
356	1
357	7
358	3
359	1
360	8
361	5
362	4
363	2
364	2
365	7
366	8
367	1
368	4
369	2
370	6
371	9
372	1
373	9
374	7
375	6
376	7
377	6
378	4
379	6
380	8
381	5
382	1
383	6
384	8
385	6
386	9
387	8
388	6
389	4
390	4
391	5
392	9
393	6
394	9
395	6
396	1
397	7
398	1
399	5
400	6
401	3
TIME_WINDOW_SECTION
1	0	3000
2	481	2311
3	1518	2288
4	1505	2188
5	1135	2291
6	6	1143
7	594	2180
8	1369	2797
9	1538	2190
10	689	1751
11	1301	2105
12	996	2077
13	1271	2115
14	0	1714
15	543	2163
16	337	1773
17	865	2702
18	0	1232
19	1397	2774
20	70	767
21	193	1807
22	1258	2657
23	497	1610
24	58	1487
25	1652	1929
26	1385	3000
27	0	1354
28	777	2327
29	256	1780
30	1140	2534
31	896	1792
32	0	1355
33	897	1486
34	1202	3000
35	483	1818
36	1710	2783
37	1020	2317
38	657	2248
39	571	1853
40	685	2614
41	1174	2102
42	990	2737
43	1357	2675
44	0	928
45	189	1091
46	217	2026
47	1958	3000
48	1689	2579
49	0	1118
50	2096	2543
51	908	2079
52	390	2001
53	312	1598
54	1723	1982
55	1183	2293
56	144	1491
57	1352	1732
58	1496	2054
59	631	1622
60	443	2208
61	384	1807
62	1852	2253
63	1686	2759
64	238	2013
65	808	2106
66	1132	2709
67	1643	2119
68	731	1354
69	1680	1983
70	1365	2627
71	0	1658
72	0	1037
73	1198	2862
74	290	950
75	1340	2661
76	1330	2846
77	377	2150
78	1437	1738
79	222	2160
80	1348	3000
81	812	1578
82	182	2008
83	767	1674
84	1324	2522
85	915	1947
86	526	1729
87	373	1748
88	621	2215
89	1507	2010
90	136	2049
91	795	1570
92	559	2415
93	288	2220
94	1320	2348
95	1081	1664
96	0	1367
97	1513	1978
98	1106	1469
99	0	1012
100	1188	2298
101	469	2310
102	640	2186
103	1070	1485
104	888	2362
105	352	1870
106	1168	1382
107	30	1865
108	428	993
109	0	1892
110	1576	3000
111	394	1882
112	1335	2151
113	0	1342
114	0	831
115	247	2086
116	1560	2359
117	958	2433
118	1310	1526
119	1597	2153
120	1415	2474
121	328	1514
122	1227	1767
123	1423	1715
124	1900	2516
125	550	2136
126	1206	2870
127	742	1034
128	1211	2095
129	852	1836
130	737	1323
131	2053	3000
132	439	1467
133	0	1346
134	1475	1831
135	1223	2192
136	638	950
137	1031	2244
138	1330	2265
139	32	1319
140	0	1959
141	757	1438
142	2180	2593
143	0	1984
144	0	1096
145	1071	2288
146	0	1908
147	1259	2211
148	2418	2957
149	592	2466
150	1297	1570
151	872	2163
152	1361	1905
153	1465	1903
154	735	1191
155	679	2670
156	396	1263
157	1447	3000
158	643	1078
159	914	1377
160	343	2282
161	1053	1347
162	365	1725
163	993	2122
164	1079	2575
165	1493	2963
166	700	1813
167	1201	2794
168	684	1770
169	313	2161
170	123	1105
171	1178	2513
172	998	1223
173	736	2302
174	0	1042
175	445	909
176	674	2473
177	806	1548
178	1182	1555
179	280	1246
180	1026	1758
181	0	1457
182	1534	2733
183	367	1506
184	1376	1930
185	1187	2123
186	254	1366
187	0	1344
188	1357	2676
189	1743	1998
190	1570	2645
191	1478	1706
192	910	2586
193	1286	2296
194	553	775
195	1899	2628
196	0	1394
197	957	1788
198	832	1079
199	702	2502
200	1191	1558
201	1189	2650
202	981	2522
203	1084	1677
204	0	1320
205	1057	1504
206	161	1506
207	1200	2893
208	905	1187
209	158	1182
210	2051	2582
211	925	1799
212	1415	3000
213	108	2095
214	1695	1929
215	1302	2469
216	1382	2155
217	924	2408
218	1170	1694
219	406	1436
220	760	2357
221	151	1032
222	1292	2216
223	273	1088
224	1015	2580
225	0	1171
226	1199	2154
227	122	913
228	0	1693
229	978	1868
230	1036	1781
231	390	1535
232	1235	3000
233	1209	1760
234	87	1063
235	1295	2268
236	1720	2680
237	1031	2581
238	1873	2206
239	1932	2205
240	95	1427
241	440	2347
242	50	1314
243	1421	2628
244	314	2047
245	1246	2044
246	1786	2921
247	0	243
248	272	1504
249	1097	2826
250	626	1118
251	438	1696
252	368	1907
253	593	1393
254	288	2091
255	1083	2886
256	536	2109
257	1465	2341
258	1677	2326
259	0	1287
260	247	1575
261	242	807
262	1402	2359
263	884	2119
264	1548	1807
265	0	578
266	142	1267
267	1867	2431
268	0	478
269	1022	1285
270	1037	2570
271	0	1573
272	604	2517
273	814	1648
274	1965	2470
275	1118	1637
276	1093	2954
277	0	1391
278	666	1626
279	1354	2625
280	213	1209
281	146	1598
282	1202	1666
283	400	1369
284	1681	2908
285	375	1729
286	1305	2121
287	681	1655
288	376	1437
289	651	1776
290	522	1950
291	1552	3000
292	1454	2342
293	0	1274
294	748	2354
295	525	2230
296	101	1779
297	1043	1687
298	416	1323
299	752	2621
300	1499	2048
301	1283	1491
302	956	2017
303	1799	2048
304	1580	3000
305	804	1428
306	501	1368
307	1392	1819
308	989	1254
309	1230	1695
310	0	952
311	1512	3000
312	298	1399
313	226	930
314	947	2425
315	1092	1701
316	1291	2215
317	123	1452
318	0	1742
319	2074	2800
320	324	1947
321	1778	2007
322	1532	2580
323	646	2402
324	1504	2678
325	0	1028
326	675	1997
327	602	1374
328	336	1363
329	395	2342
330	1517	2382
331	727	2189
332	751	1547
333	375	2153
334	523	2184
335	697	1498
336	926	2247
337	1626	2742
338	881	2794
339	226	990
340	20	1901
341	1434	1999
342	1253	2131
343	674	1212
344	0	1514
345	881	2016
346	186	1228
347	449	1305
348	956	2281
349	1607	3000
350	1441	2117
351	0	1637
352	1708	2458
353	0	861
354	0	1238
355	162	1493
356	973	1329
357	693	2166
358	999	1671
359	471	1908
360	158	1404
361	711	1484
362	1661	2377
363	780	2216
364	907	2083
365	1982	2382
366	2	1981
367	1080	2759
368	1507	2606
369	706	2569
370	785	2320
371	1050	1491
372	1612	2636
373	1831	2487
374	1047	1417
375	3	1823
376	816	1656
377	2068	3000
378	244	1467
379	157	1295
380	1215	2375
381	1409	1895
382	887	2333
383	1037	1309
384	305	1007
385	1081	1657
386	516	2193
387	531	2173
388	1453	2643
389	1465	2444
390	1348	2367
391	796	1767
392	818	2217
393	0	1116
394	749	1899
395	1718	2145
396	879	1219
397	1118	1855
398	0	1260
399	1073	1664
400	188	1006
401	115	1691
DEPOT_SECTION
1
-1
EOF
