NAME : n401-0046
COMMENT : "Generated by pyvrp_manuel (OVRPTW)"
TYPE : OVRPTW
DIMENSION : 401
EDGE_WEIGHT_TYPE : EUC_2D
CAPACITY : 100
VEHICLES : 400
OPEN_ROUTE : YES
SERVICE_TIME : 200
NODE_COORD_SECTION
1	360	571
2	626	220
3	538	94
4	480	427
5	869	906
6	908	157
7	115	683
8	316	905
9	537	215
10	925	411
11	360	275
12	818	89
13	86	316
14	785	965
15	240	782
16	935	877
17	99	169
18	553	461
19	993	482
20	823	106
21	280	577
22	64	127
23	925	891
24	729	989
25	209	25
26	535	216
27	835	184
28	545	264
29	402	939
30	611	774
31	525	988
32	727	267
33	153	731
34	639	201
35	817	61
36	262	387
37	999	689
38	696	586
39	788	599
40	463	856
41	739	579
42	903	20
43	290	249
44	991	432
45	166	474
46	931	842
47	855	775
48	152	823
49	583	615
50	85	678
51	903	834
52	480	541
53	599	507
54	775	857
55	768	923
56	597	270
57	590	361
58	221	195
59	746	403
60	416	707
61	152	386
62	627	530
63	581	248
64	267	267
65	579	693
66	964	138
67	187	946
68	607	877
69	961	602
70	113	871
71	482	928
72	403	767
73	552	724
74	927	149
75	314	962
76	774	367
77	839	860
78	606	947
79	223	840
80	226	90
81	538	678
82	941	158
83	985	400
84	428	805
85	220	994
86	722	8
87	885	849
88	284	312
89	928	890
90	421	303
91	421	591
92	384	209
93	784	502
94	231	643
95	507	45
96	292	198
97	964	580
98	483	780
99	470	13
100	435	812
101	911	58
102	67	323
103	484	199
104	161	565
105	25	425
106	891	3
107	746	165
108	608	578
109	508	114
110	704	422
111	301	272
112	110	247
113	694	25
114	807	114
115	140	555
116	610	39
117	272	409
118	853	339
119	565	984
120	828	283
121	771	360
122	319	205
123	764	647
124	901	215
125	300	263
126	569	146
127	428	672
128	492	167
129	813	294
130	245	610
131	610	445
132	818	660
133	275	253
134	783	296
135	564	351
136	58	84
137	959	128
138	257	353
139	308	777
140	685	620
141	784	610
142	71	495
143	218	720
144	26	459
145	140	847
146	800	119
147	892	582
148	936	710
149	880	106
150	614	625
151	808	129
152	795	700
153	516	956
154	557	146
155	98	251
156	646	579
157	741	734
158	615	651
159	230	102
160	703	317
161	752	166
162	892	515
163	334	451
164	447	530
165	151	129
166	860	354
167	677	634
168	408	469
169	161	145
170	669	417
171	101	238
172	201	638
173	11	574
174	664	391
175	536	593
176	222	537
177	552	603
178	593	610
179	144	835
180	47	205
181	667	946
182	543	684
183	297	551
184	648	691
185	930	218
186	88	280
187	650	592
188	820	995
189	723	896
190	475	238
191	206	540
192	719	663
193	472	654
194	408	652
195	282	175
196	320	760
197	110	106
198	522	222
199	927	342
200	588	393
201	993	98
202	982	285
203	138	258
204	402	344
205	731	565
206	749	826
207	328	840
208	451	189
209	72	122
210	481	131
211	505	288
212	350	734
213	515	557
214	10	417
215	240	3
216	108	32
217	298	146
218	458	647
219	302	951
220	209	986
221	441	174
222	477	674
223	266	8
224	621	71
225	264	353
226	642	453
227	334	914
228	175	822
229	98	919
230	526	232
231	884	327
232	925	359
233	37	615
234	283	685
235	882	662
236	136	420
237	327	809
238	576	918
239	266	63
240	384	569
241	762	478
242	977	555
243	949	558
244	320	629
245	81	442
246	851	573
247	203	495
248	397	852
249	355	344
250	210	579
251	728	658
252	873	753
253	751	248
254	484	76
255	239	473
256	475	357
257	98	188
258	451	480
259	946	681
260	140	544
261	202	83
262	17	128
263	61	809
264	438	380
265	461	300
266	573	640
267	558	779
268	231	864
269	736	50
270	647	421
271	223	885
272	150	58
273	70	20
274	387	766
275	852	891
276	295	281
277	531	897
278	256	289
279	939	318
280	6	174
281	817	648
282	764	766
283	244	33
284	806	770
285	986	112
286	597	349
287	526	4
288	356	64
289	322	754
290	529	72
291	216	23
292	821	452
293	153	938
294	66	118
295	105	264
296	214	843
297	650	731
298	566	118
299	87	155
300	665	46
301	941	484
302	908	216
303	467	998
304	398	312
305	578	872
306	693	295
307	542	644
308	468	193
309	611	327
310	774	891
311	248	219
312	666	343
313	776	312
314	68	839
315	404	504
316	540	795
317	678	518
318	262	438
319	403	418
320	294	673
321	317	798
322	394	993
323	951	468
324	923	110
325	718	170
326	958	375
327	522	688
328	881	120
329	799	274
330	913	558
331	193	971
332	151	403
333	911	458
334	951	667
335	173	720
336	465	808
337	553	107
338	322	573
339	273	271
340	606	106
341	754	541
342	998	918
343	143	399
344	849	840
345	465	698
346	666	426
347	979	97
348	786	244
349	709	358
350	274	639
351	589	415
352	59	692
353	652	828
354	250	146
355	528	517
356	356	562
357	960	571
358	885	171
359	785	83
360	290	528
361	940	886
362	843	936
363	302	458
364	210	56
365	930	119
366	811	760
367	89	976
368	307	894
369	761	409
370	827	421
371	19	540
372	868	985
373	155	562
374	833	388
375	308	793
376	144	406
377	639	489
378	748	993
379	634	379
380	933	560
381	382	545
382	690	578
383	834	656
384	175	571
385	587	734
386	640	658
387	342	541
388	723	636
389	506	728
390	834	297
391	238	102
392	288	361
393	438	426
394	184	126
395	513	301
396	193	113
397	986	995
398	776	889
399	582	384
400	354	197
401	871	544
DEMAND_SECTION
1	0
2	3
3	9
4	5
5	8
6	3
7	5
8	1
9	4
10	7
11	1
12	3
13	7
14	2
15	8
16	9
17	8
18	7
19	2
20	3
21	1
22	4
23	2
24	4
25	5
26	4
27	4
28	9
29	6
30	1
31	3
32	8
33	7
34	6
35	5
36	6
37	7
38	4
39	1
40	3
41	8
42	8
43	4
44	5
45	3
46	2
47	9
48	1
49	6
50	1
51	5
52	4
53	6
54	6
55	1
56	9
57	2
58	9
59	9
60	2
61	4
62	7
63	9
64	3
65	5
66	5
67	5
68	3
69	6
70	5
71	1
72	3
73	2
74	8
75	9
76	4
77	4
78	4
79	3
80	9
81	9
82	3
83	4
84	5
85	3
86	2
87	2
88	7
89	7
90	6
91	1
92	6
93	3
94	5
95	6
96	1
97	5
98	3
99	2
100	1
101	7
102	2
103	5
104	8
105	9
106	1
107	4
108	2
109	3
110	6
111	9
112	6
113	4
114	7
115	8
116	5
117	5
118	5
119	6
120	5
121	4
122	2
123	4
124	1
125	2
126	7
127	1
128	6
129	1
130	2
131	2
132	4
133	8
134	8
135	2
136	3
137	9
138	3
139	3
140	5
141	2
142	8
143	6
144	2
145	5
146	2
147	6
148	1
149	8
150	9
151	3
152	9
153	5
154	6
155	2
156	5
157	7
158	3
159	1
160	1
161	5
162	9
163	8
164	4
165	5
166	6
167	4
168	8
169	2
170	3
171	6
172	2
173	6
174	8
175	1
176	8
177	1
178	4
179	8
180	3
181	4
182	5
183	2
184	4
185	8
186	3
187	1
188	2
189	4
190	6
191	1
192	2
193	7
194	2
195	4
196	6
197	9
198	6
199	5
200	5
201	9
202	8
203	4
204	2
205	7
206	9
207	6
208	1
209	5
210	1
211	8
212	3
213	2
214	9
215	3
216	6
217	5
218	3
219	3
220	1
221	6
222	5
223	2
224	3
225	4
226	5
227	1
228	1
229	3
230	6
231	9
232	4
233	7
234	8
235	8
236	8
237	2
238	2
239	6
240	1
241	5
242	4
243	8
244	9
245	1
246	8
247	6
248	5
249	4
250	9
251	1
252	2
253	8
254	9
255	2
256	3
257	5
258	3
259	2
260	3
261	8
262	6
263	9
264	8
265	6
266	3
267	6
268	8
269	4
270	7
271	4
272	1
273	3
274	9
275	7
276	7
277	3
278	3
279	2
280	9
281	5
282	6
283	4
284	1
285	1
286	2
287	6
288	9
289	1
290	5
291	3
292	4
293	6
294	8
295	2
296	6
297	6
298	4
299	6
300	1
301	8
302	6
303	4
304	9
305	2
306	4
307	4
308	4
309	3
310	4
311	4
312	6
313	4
314	5
315	8
316	3
317	1
318	4
319	7
320	7
321	3
322	5
323	1
324	8
325	9
326	6
327	5
328	4
329	9
330	9
331	8
332	9
333	2
334	9
335	6
336	2
337	4
338	3
339	5
340	3
341	1
342	2
343	9
344	7
345	2
346	7
347	2
348	7
349	3
350	7
351	3
352	2
353	5
354	2
355	8
356	9
357	9
358	6
359	8
360	1
361	8
362	1
363	8
364	9
365	9
366	6
367	8
368	5
369	5
370	2
371	3
372	9
373	1
374	1
375	9
376	5
377	5
378	5
379	2
380	7
381	8
382	4
383	3
384	6
385	4
386	1
387	2
388	7
389	6
390	9
391	3
392	1
393	9
394	8
395	1
396	1
397	2
398	5
399	8
400	4
401	8
TIME_WINDOW_SECTION
1	0	3000
2	1117	2477
3	1704	2285
4	1361	3000
5	583	1117
6	1633	2260
7	670	1317
8	1799	2106
9	760	1283
10	1183	2607
11	1486	2776
12	349	1895
13	672	1014
14	1525	1758
15	1512	3000
16	1872	2385
17	952	1225
18	777	2438
19	1464	1700
20	1398	2191
21	0	1111
22	965	1564
23	606	2475
24	492	1093
25	128	1585
26	0	1432
27	1804	2332
28	1561	3000
29	713	2146
30	1100	2980
31	1999	2639
32	935	2824
33	1190	1544
34	723	1788
35	209	1833
36	1769	3000
37	170	2099
38	0	1356
39	1	1210
40	139	1622
41	424	1705
42	72	1772
43	0	1515
44	219	1557
45	1149	3000
46	76	1753
47	1487	1982
48	313	1421
49	125	2070
50	1469	2241
51	46	1331
52	767	1018
53	0	1619
54	1168	2235
55	402	1546
56	158	903
57	0	1254
58	1620	2619
59	355	830
60	395	775
61	1236	1442
62	0	1520
63	979	2766
64	1496	1883
65	0	1268
66	794	2334
67	1316	2633
68	625	2225
69	798	1094
70	1025	2384
71	0	1143
72	1560	3000
73	901	1438
74	1121	2857
75	733	1093
76	781	2406
77	679	2588
78	1073	1564
79	743	1661
80	796	2088
81	1477	3000
82	592	1352
83	355	2132
84	2207	2848
85	2174	2402
86	702	1820
87	1289	3000
88	1299	2080
89	648	2342
90	205	1989
91	0	1812
92	1893	2407
93	660	2370
94	1247	2954
95	1506	2603
96	1292	1818
97	940	1247
98	20	927
99	407	1507
100	1116	2701
101	930	2371
102	127	1080
103	667	2426
104	1726	3000
105	836	1196
106	968	2442
107	986	1530
108	2104	2610
109	384	716
110	740	2291
111	1676	1930
112	169	2079
113	1249	2372
114	0	1474
115	1674	2053
116	316	1741
117	362	1866
118	1105	2771
119	0	1067
120	1223	1859
121	0	1361
122	381	664
123	551	2001
124	793	2736
125	1653	2445
126	980	2364
127	2185	2689
128	854	2725
129	1056	2319
130	286	1968
131	651	1768
132	1269	1844
133	1039	2897
134	0	1588
135	1321	1945
136	25	1171
137	1037	1438
138	0	1540
139	0	1286
140	1384	2825
141	707	1950
142	1762	2951
143	1830	2131
144	102	943
145	1491	3000
146	1687	2012
147	937	2003
148	943	2236
149	924	1848
150	190	1809
151	849	2781
152	437	1743
153	1558	2494
154	424	1136
155	1050	2821
156	0	998
157	1556	2936
158	1858	2993
159	1081	2430
160	229	2050
161	976	2462
162	1254	2286
163	0	1666
164	219	524
165	1342	1706
166	683	1404
167	219	2208
168	1276	2625
169	1053	2080
170	1345	2598
171	1472	2405
172	1374	3000
173	127	1440
174	1161	1886
175	1079	1670
176	702	1525
177	260	1026
178	1681	2781
179	978	1543
180	1378	2945
181	440	2403
182	1582	2019
183	1037	2996
184	1343	2500
185	603	2112
186	1348	2052
187	168	1348
188	267	1811
189	1182	2349
190	1347	3000
191	60	1394
192	15	1807
193	183	894
194	1430	3000
195	1702	3000
196	0	1109
197	1741	2460
198	1285	2863
199	1379	2368
200	991	2765
201	1178	1955
202	407	1197
203	232	1292
204	1080	1844
205	793	2609
206	408	2068
207	774	1690
208	1489	2633
209	907	2152
210	1202	2056
211	0	1163
212	619	1893
213	1211	1529
214	221	1845
215	575	1510
216	1243	2120
217	1215	2992
218	0	1046
219	1488	1776
220	1774	2936
221	90	1637
222	711	1825
223	1858	2508
224	363	1672
225	0	1409
226	862	1751
227	1466	2905
228	772	1820
229	1553	3000
230	1198	2955
231	345	1967
232	1526	2359
233	278	1317
234	1733	2800
235	1508	2115
236	384	1370
237	1026	2154
238	0	1357
239	588	986
240	0	1198
241	686	1450
242	1076	3000
243	65	1657
244	1153	2039
245	0	1437
246	324	2052
247	699	1323
248	222	1820
249	651	1935
250	1851	2732
251	734	1820
252	907	1720
253	121	1180
254	279	1481
255	1190	1700
256	753	1004
257	454	1883
258	549	2153
259	1505	1909
260	0	1812
261	1717	2570
262	311	1357
263	0	1214
264	2119	2771
265	1563	2037
266	0	1593
267	1528	1761
268	1253	2463
269	1443	2597
270	967	1955
271	2214	2538
272	0	1549
273	0	1376
274	1911	2278
275	800	1513
276	1855	2704
277	2108	2742
278	1868	3000
279	602	1351
280	57	1266
281	1877	2133
282	464	1660
283	634	2555
284	1115	2038
285	292	1737
286	1517	2641
287	762	970
288	0	1453
289	1477	3000
290	1283	2650
291	2065	2275
292	1391	2563
293	1251	2215
294	996	1938
295	920	1534
296	0	1731
297	0	1298
298	1164	1471
299	330	1523
300	178	2008
301	795	1869
302	0	1713
303	886	2273
304	835	2214
305	322	914
306	513	882
307	0	1001
308	184	1813
309	0	1723
310	1585	2783
311	866	2373
312	69	1589
313	2031	2399
314	754	1670
315	1607	3000
316	1335	2634
317	788	2626
318	335	1334
319	394	1278
320	0	871
321	1273	3000
322	1680	2661
323	1065	2258
324	503	1344
325	418	1811
326	810	1346
327	1084	2689
328	1596	1891
329	939	1225
330	636	1218
331	157	1690
332	1002	2050
333	1372	1879
334	855	1899
335	1981	2943
336	1201	1804
337	765	2265
338	74	1076
339	1036	2595
340	785	2256
341	1831	2568
342	1615	2290
343	1811	2020
344	939	2692
345	1643	2150
346	1743	2606
347	446	1450
348	1343	1620
349	5	1659
350	2117	2694
351	196	1738
352	148	915
353	753	2627
354	638	1845
355	1428	1974
356	1942	2475
357	1865	2361
358	1165	1884
359	775	2391
360	1312	2249
361	1411	1903
362	272	1818
363	1491	1756
364	712	1209
365	1678	2152
366	0	1802
367	1631	2517
368	805	2005
369	345	997
370	318	1603
371	556	1156
372	924	1366
373	1528	3000
374	9	1688
375	590	1685
376	279	1205
377	0	1330
378	0	1738
379	1601	3000
380	1662	2364
381	1333	3000
382	1492	3000
383	555	837
384	1701	2922
385	740	1515
386	1077	1486
387	1284	1618
388	1827	2378
389	0	921
390	1550	2914
391	0	1194
392	1267	2094
393	463	1836
394	265	1893
395	1603	3000
396	834	2021
397	0	1778
398	907	1924
399	311	1849
400	605	1987
401	171	1203
DEPOT_SECTION
1
-1
EOF
