NAME : n401-0003
COMMENT : "Generated by pyvrp_manuel (OVRPTW)"
TYPE : OVRPTW
DIMENSION : 401
EDGE_WEIGHT_TYPE : EUC_2D
CAPACITY : 100
VEHICLES : 400
OPEN_ROUTE : YES
SERVICE_TIME : 200
NODE_COORD_SECTION
1	252	809
2	874	364
3	168	374
4	475	309
5	451	320
6	195	580
7	345	847
8	962	328
9	253	832
10	864	775
11	194	809
12	83	103
13	639	625
14	771	706
15	983	679
16	47	798
17	266	697
18	16	675
19	244	452
20	417	872
21	680	839
22	661	245
23	811	791
24	524	158
25	551	821
26	885	788
27	282	309
28	641	547
29	232	743
30	517	898
31	811	55
32	970	1
33	257	278
34	733	18
35	469	982
36	944	686
37	487	2
38	834	618
39	539	66
40	497	708
41	455	458
42	641	276
43	279	819
44	451	359
45	628	407
46	474	922
47	756	892
48	595	859
49	933	576
50	700	61
51	746	572
52	18	6
53	37	582
54	358	991
55	343	751
56	496	743
57	131	282
58	162	458
59	562	90
60	130	939
61	275	514
62	725	43
63	877	289
64	513	458
65	938	186
66	68	283
67	157	553
68	215	497
69	186	568
70	174	98
71	251	964
72	36	366
73	939	9
74	155	681
75	589	55
76	130	765
77	384	633
78	418	671
79	52	335
80	757	852
81	989	905
82	702	432
83	996	174
84	191	316
85	654	359
86	449	781
87	692	388
88	710	811
89	649	92
90	406	649
91	259	829
92	808	550
93	798	904
94	232	478
95	244	667
96	934	601
97	574	723
98	75	223
99	167	749
100	761	208
101	169	847
102	802	512
103	897	396
104	963	317
105	417	984
106	792	812
107	165	138
108	491	339
109	116	739
110	639	684
111	796	738
112	448	921
113	953	508
114	823	853
115	481	880
116	958	543
117	511	266
118	503	329
119	675	715
120	387	477
121	217	989
122	248	378
123	565	97
124	204	215
125	263	849
126	810	303
127	513	324
128	321	786
129	525	567
130	474	865
131	22	181
132	311	56
133	906	344
134	727	657
135	757	503
136	219	771
137	223	975
138	787	22
139	340	796
140	821	498
141	814	251
142	522	254
143	461	836
144	244	439
145	578	691
146	236	204
147	674	804
148	364	710
149	479	753
150	30	119
151	451	217
152	150	933
153	995	488
154	316	694
155	729	300
156	245	358
157	782	235
158	123	579
159	492	511
160	729	513
161	736	14
162	953	441
163	460	779
164	821	515
165	903	531
166	747	703
167	957	464
168	540	716
169	30	243
170	954	486
171	810	26
172	414	100
173	540	37
174	692	225
175	660	412
176	93	243
177	189	447
178	926	509
179	474	462
180	790	365
181	396	370
182	927	173
183	346	868
184	639	692
185	598	539
186	520	436
187	716	383
188	796	81
189	580	750
190	837	646
191	837	99
192	962	976
193	957	808
194	887	398
195	86	682
196	782	842
197	282	912
198	603	899
199	535	658
200	485	819
201	6	18
202	104	197
203	33	150
204	568	829
205	420	361
206	164	587
207	117	658
208	655	920
209	48	589
210	959	349
211	519	563
212	268	64
213	985	941
214	553	51
215	541	789
216	517	65
217	636	630
218	687	826
219	277	828
220	761	25
221	187	217
222	3	542
223	531	122
224	716	295
225	163	134
226	875	632
227	192	88
228	848	525
229	5	7
230	961	821
231	328	102
232	534	504
233	823	655
234	627	691
235	164	239
236	471	454
237	736	658
238	362	867
239	859	639
240	271	297
241	369	733
242	181	12
243	653	724
244	627	955
245	244	373
246	399	855
247	77	589
248	614	562
249	63	484
250	568	307
251	929	343
252	868	541
253	246	849
254	622	771
255	881	809
256	659	589
257	503	130
258	564	410
259	753	719
260	994	62
261	35	288
262	217	788
263	780	8
264	522	215
265	771	82
266	548	636
267	80	957
268	391	167
269	231	358
270	799	864
271	780	171
272	730	410
273	784	680
274	529	214
275	693	400
276	457	175
277	714	491
278	569	221
279	556	964
280	978	549
281	473	358
282	896	986
283	882	318
284	310	358
285	447	624
286	752	755
287	746	612
288	260	187
289	866	595
290	194	858
291	441	196
292	541	664
293	545	581
294	87	325
295	871	57
296	53	306
297	318	211
298	101	247
299	152	631
300	585	28
301	944	161
302	820	59
303	624	849
304	341	488
305	86	58
306	198	793
307	833	132
308	862	254
309	722	293
310	220	60
311	215	128
312	406	670
313	154	158
314	169	41
315	730	961
316	580	157
317	122	367
318	897	789
319	700	823
320	104	186
321	252	684
322	695	143
323	0	121
324	238	696
325	200	795
326	488	402
327	405	384
328	360	982
329	267	98
330	229	648
331	248	27
332	54	686
333	621	200
334	321	861
335	714	954
336	190	295
337	787	91
338	438	389
339	75	900
340	911	937
341	812	524
342	2	763
343	646	188
344	877	588
345	727	25
346	182	454
347	826	320
348	133	956
349	314	541
350	318	538
351	595	995
352	419	248
353	58	699
354	420	883
355	568	750
356	62	293
357	528	35
358	181	364
359	239	93
360	52	429
361	948	254
362	129	541
363	619	956
364	478	251
365	104	243
366	880	26
367	881	687
368	2	968
369	922	135
370	980	559
371	776	268
372	782	761
373	508	853
374	269	598
375	33	362
376	880	651
377	811	4
378	585	317
379	556	214
380	470	680
381	179	111
382	663	710
383	372	997
384	569	485
385	236	737
386	309	186
387	142	539
388	848	851
389	853	604
390	363	131
391	570	403
392	804	18
393	343	433
394	881	757
395	752	661
396	887	812
397	555	286
398	55	131
399	490	143
400	343	675
401	831	571
DEMAND_SECTION
1	0
2	4
3	7
4	5
5	1
6	9
7	3
8	8
9	3
10	1
11	5
12	5
13	4
14	5
15	1
16	7
17	5
18	9
19	8
20	7
21	7
22	1
23	1
24	3
25	1
26	4
27	9
28	5
29	9
30	3
31	5
32	7
33	6
34	5
35	8
36	3
37	6
38	4
39	3
40	6
41	1
42	4
43	6
44	6
45	6
46	7
47	7
48	8
49	9
50	5
51	6
52	7
53	9
54	3
55	4
56	7
57	3
58	3
59	5
60	2
61	2
62	5
63	1
64	5
65	5
66	6
67	8
68	6
69	5
70	9
71	7
72	1
73	5
74	2
75	3
76	9
77	3
78	7
79	3
80	5
81	4
82	1
83	2
84	1
85	3
86	6
87	8
88	3
89	4
90	7
91	7
92	4
93	6
94	9
95	1
96	5
97	2
98	3
99	9
100	5
101	9
102	9
103	3
104	8
105	8
106	5
107	6
108	2
109	6
110	2
111	7
112	9
113	6
114	1
115	9
116	1
117	2
118	5
119	9
120	5
121	1
122	9
123	9
124	3
125	4
126	3
127	5
128	2
129	9
130	6
131	4
132	8
133	1
134	5
135	3
136	8
137	8
138	8
139	9
140	4
141	3
142	4
143	5
144	5
145	5
146	7
147	2
148	2
149	8
150	5
151	6
152	6
153	4
154	1
155	5
156	3
157	9
158	6
159	2
160	2
161	7
162	5
163	8
164	9
165	8
166	7
167	1
168	2
169	3
170	3
171	8
172	6
173	8
174	1
175	9
176	9
177	3
178	5
179	5
180	9
181	6
182	5
183	8
184	9
185	1
186	8
187	9
188	4
189	3
190	9
191	9
192	3
193	6
194	9
195	7
196	3
197	8
198	3
199	7
200	3
201	3
202	3
203	7
204	1
205	4
206	1
207	8
208	5
209	3
210	7
211	2
212	8
213	6
214	1
215	4
216	3
217	7
218	5
219	8
220	1
221	4
222	7
223	7
224	6
225	9
226	9
227	8
228	5
229	6
230	7
231	1
232	5
233	9
234	8
235	8
236	3
237	3
238	8
239	7
240	1
241	2
242	4
243	7
244	3
245	8
246	6
247	9
248	5
249	5
250	2
251	3
252	6
253	7
254	9
255	9
256	2
257	5
258	4
259	8
260	3
261	8
262	5
263	8
264	2
265	8
266	1
267	1
268	1
269	3
270	8
271	7
272	6
273	5
274	1
275	5
276	5
277	9
278	1
279	4
280	9
281	9
282	3
283	9
284	3
285	6
286	5
287	9
288	7
289	5
290	8
291	6
292	6
293	6
294	1
295	4
296	1
297	8
298	9
299	2
300	9
301	9
302	3
303	3
304	2
305	1
306	4
307	7
308	1
309	3
310	7
311	4
312	4
313	5
314	1
315	4
316	5
317	7
318	7
319	6
320	3
321	6
322	8
323	7
324	9
325	3
326	5
327	1
328	4
329	8
330	6
331	4
332	9
333	5
334	1
335	2
336	4
337	2
338	5
339	9
340	3
341	3
342	4
343	8
344	9
345	4
346	1
347	9
348	8
349	7
350	3
351	1
352	1
353	1
354	3
355	9
356	7
357	8
358	5
359	3
360	2
361	5
362	8
363	9
364	2
365	3
366	6
367	5
368	2
369	8
370	6
371	9
372	2
373	4
374	5
375	3
376	8
377	9
378	9
379	1
380	2
381	6
382	8
383	5
384	1
385	6
386	2
387	6
388	8
389	2
390	2
391	5
392	8
393	3
394	3
395	9
396	2
397	9
398	3
399	8
400	4
401	6
TIME_WINDOW_SECTION
1	0	3000
2	585	1644
3	1797	2522
4	454	1356
5	318	2165
6	299	937
7	0	1131
8	781	2089
9	484	1164
10	369	1982
11	1248	2854
12	960	1847
13	769	1107
14	0	1211
15	925	1140
16	1215	2197
17	2002	2982
18	1087	2507
19	1129	1892
20	1244	1713
21	579	2161
22	293	1257
23	1528	2412
24	917	2461
25	474	1050
26	1388	1962
27	1409	1959
28	123	1703
29	1744	2714
30	953	1297
31	1054	1589
32	926	1693
33	681	2601
34	767	1390
35	285	1574
36	794	1505
37	891	2417
38	393	1462
39	932	1181
40	1143	1957
41	0	1538
42	671	1784
43	0	881
44	512	1824
45	305	1890
46	340	1447
47	673	1017
48	1137	2565
49	294	1695
50	1004	2034
51	1362	2674
52	238	1440
53	520	1988
54	994	1939
55	1361	1761
56	383	1811
57	249	1543
58	112	1747
59	1600	2068
60	541	755
61	790	2196
62	284	1649
63	706	2355
64	65	1381
65	569	2523
66	656	2063
67	136	2092
68	505	1058
69	0	1229
70	1013	2227
71	628	2425
72	1066	2432
73	1088	1690
74	1499	3000
75	1238	2677
76	1061	2900
77	0	1589
78	0	649
79	460	1952
80	1190	2045
81	611	2550
82	538	897
83	669	2328
84	1615	2567
85	1164	2720
86	1514	1930
87	414	2336
88	1110	2202
89	222	1640
90	107	656
91	706	1024
92	1262	2949
93	1054	2025
94	0	1358
95	0	880
96	1047	2900
97	267	505
98	876	1360
99	941	1486
100	369	2047
101	1663	2334
102	899	1326
103	327	1641
104	1228	2566
105	0	1311
106	215	2040
107	507	883
108	1600	2638
109	1903	2192
110	18	807
111	0	1429
112	547	1220
113	580	1095
114	124	1975
115	0	1542
116	1088	1392
117	0	1807
118	1645	2723
119	423	2293
120	516	1743
121	243	1596
122	1557	3000
123	1288	2105
124	0	1530
125	1397	3000
126	1104	2122
127	411	1206
128	2242	2941
129	1196	2108
130	647	1784
131	701	1235
132	611	2310
133	288	1403
134	0	1362
135	321	2058
136	0	1017
137	56	1716
138	1044	1617
139	0	958
140	849	2490
141	467	1539
142	0	1493
143	1750	2586
144	699	1644
145	2191	2541
146	1120	2887
147	1700	2642
148	2081	2972
149	721	1076
150	414	1502
151	308	1700
152	0	1470
153	1237	1558
154	0	1256
155	821	2369
156	1221	1865
157	602	1723
158	0	1334
159	1902	2583
160	1666	2234
161	507	2222
162	644	1600
163	335	1713
164	341	2272
165	733	1605
166	1592	2491
167	345	1705
168	0	1415
169	1369	2638
170	165	1618
171	1241	2181
172	1667	1887
173	961	1985
174	866	2496
175	0	1518
176	1288	2899
177	129	879
178	933	2492
179	557	1730
180	432	1658
181	1711	2062
182	974	2068
183	0	1186
184	1448	1946
185	931	1147
186	1142	2157
187	252	1784
188	797	1501
189	397	1644
190	1095	2137
191	847	1111
192	1396	2014
193	1091	1902
194	1547	2428
195	685	999
196	1519	2897
197	12	1576
198	1195	1509
199	630	2525
200	2174	2473
201	1522	2044
202	990	2036
203	870	1740
204	1083	1555
205	1915	2282
206	1069	1828
207	0	993
208	21	1210
209	1296	2335
210	24	1774
211	761	2207
212	972	1558
213	1001	1941
214	1218	2576
215	390	923
216	309	1638
217	1587	2351
218	1172	3000
219	0	925
220	840	2639
221	596	2269
222	0	1177
223	1238	2857
224	164	1386
225	850	2336
226	627	2555
227	491	1646
228	856	1255
229	635	1515
230	633	1166
231	1610	2201
232	1010	1672
233	739	2505
234	417	2236
235	430	1795
236	1485	2262
237	1080	2330
238	286	1838
239	970	2883
240	646	1889
241	0	1685
242	1712	2073
243	206	1327
244	1961	2322
245	1511	1860
246	1688	2668
247	606	1618
248	420	1063
249	0	1710
250	579	1679
251	399	2004
252	317	1471
253	0	517
254	0	957
255	0	1573
256	1694	2861
257	474	2457
258	939	1954
259	960	2604
260	1198	1969
261	162	1908
262	574	2269
263	1462	2209
264	1097	2154
265	1189	2297
266	217	2213
267	0	509
268	186	1796
269	148	993
270	285	1891
271	1242	2245
272	1175	3000
273	1889	2143
274	645	1073
275	799	1981
276	1303	2209
277	1849	2386
278	472	1482
279	0	1160
280	261	1634
281	1068	2101
282	817	1127
283	727	1396
284	1206	1477
285	1805	2445
286	1008	2154
287	1315	1646
288	924	1316
289	630	1905
290	707	1022
291	1473	1722
292	2226	2614
293	0	1112
294	855	2607
295	777	2359
296	325	1391
297	1310	2358
298	1209	1691
299	1327	1672
300	585	2301
301	802	1606
302	817	1579
303	1439	2169
304	0	1651
305	574	2459
306	0	1478
307	509	2208
308	949	1884
309	1419	2062
310	251	2193
311	617	905
312	0	634
313	1617	2377
314	1071	1869
315	53	1374
316	751	1066
317	2055	2572
318	1579	1878
319	0	1118
320	1739	2533
321	1111	2664
322	1168	1606
323	1399	2232
324	0	780
325	0	1242
326	457	722
327	983	1794
328	1126	2406
329	294	1419
330	76	1721
331	548	1364
332	217	1059
333	783	2704
334	1783	2029
335	1391	2411
336	283	1337
337	774	2061
338	1504	2086
339	1774	2975
340	657	2527
341	307	2183
342	1454	2197
343	1426	2192
344	377	2086
345	1405	1961
346	2228	2551
347	115	1886
348	113	576
349	260	660
350	521	1495
351	565	2157
352	748	2358
353	1759	2045
354	1958	2628
355	951	2250
356	213	1515
357	243	1861
358	529	1177
359	1286	2352
360	739	1482
361	1080	1408
362	0	1002
363	686	2248
364	527	1546
365	759	1071
366	138	1949
367	885	2676
368	266	868
369	822	1678
370	463	1697
371	264	1448
372	199	918
373	1505	3000
374	0	1420
375	840	2278
376	623	1024
377	1002	2116
378	1905	2488
379	1650	2516
380	262	909
381	656	2225
382	490	1817
383	0	883
384	327	2017
385	54	563
386	1937	2290
387	715	2449
388	1362	2480
389	1222	1654
390	805	2500
391	776	2328
392	845	2607
393	1463	1912
394	669	2534
395	1224	1588
396	1322	2949
397	162	1283
398	503	1807
399	957	2187
400	420	1807
401	662	2288
DEPOT_SECTION
1
-1
EOF
