NAME : n501-0021
COMMENT : "Generated by pyvrp_manuel (VRPBL)"
TYPE : VRPBL
DIMENSION : 501
EDGE_WEIGHT_TYPE : EUC_2D
CAPACITY : 100
VEHICLES : 500
DISTANCE : 3000
NODE_COORD_SECTION
1	529	377
2	620	772
3	525	270
4	543	141
5	799	197
6	656	444
7	390	604
8	846	561
9	568	220
10	221	871
11	26	471
12	901	231
13	745	195
14	210	954
15	607	56
16	784	335
17	168	542
18	16	5
19	496	616
20	905	214
21	370	391
22	396	490
23	753	544
24	118	512
25	111	620
26	818	621
27	783	600
28	816	999
29	742	105
30	102	641
31	813	760
32	680	904
33	500	260
34	402	76
35	118	8
36	668	196
37	937	180
38	688	61
39	820	755
40	480	621
41	73	892
42	465	620
43	205	457
44	55	235
45	335	118
46	62	355
47	794	729
48	442	307
49	285	604
50	75	288
51	78	532
52	346	918
53	665	849
54	563	703
55	700	135
56	444	872
57	306	308
58	197	362
59	53	490
60	550	834
61	196	866
62	10	546
63	50	426
64	617	353
65	531	282
66	481	955
67	654	416
68	252	773
69	193	495
70	368	350
71	567	828
72	166	826
73	144	834
74	452	317
75	216	490
76	774	33
77	550	307
78	868	928
79	270	29
80	732	252
81	224	411
82	253	20
83	414	663
84	929	411
85	767	490
86	367	347
87	329	56
88	91	749
89	201	120
90	695	135
91	218	170
92	612	234
93	236	999
94	701	929
95	99	356
96	690	627
97	4	738
98	5	798
99	912	345
100	23	513
101	364	934
102	900	509
103	708	20
104	76	912
105	562	468
106	441	406
107	719	736
108	750	724
109	926	777
110	936	440
111	863	447
112	157	5
113	893	756
114	174	414
115	817	872
116	488	75
117	93	290
118	370	611
119	397	797
120	873	826
121	305	80
122	892	437
123	179	661
124	312	787
125	332	729
126	160	1
127	639	141
128	758	296
129	608	74
130	364	806
131	329	658
132	740	393
133	270	50
134	187	349
135	149	279
136	761	267
137	856	30
138	935	453
139	851	485
140	305	523
141	664	217
142	885	953
143	779	262
144	165	53
145	452	756
146	168	390
147	770	272
148	652	704
149	430	397
150	227	969
151	866	816
152	578	519
153	30	777
154	371	557
155	517	408
156	597	929
157	994	98
158	811	184
159	506	34
160	582	142
161	42	489
162	957	629
163	16	560
164	330	224
165	564	879
166	919	761
167	347	229
168	481	470
169	409	376
170	882	710
171	508	558
172	512	308
173	357	747
174	45	558
175	642	875
176	623	451
177	221	112
178	233	532
179	86	190
180	918	373
181	363	604
182	219	44
183	967	784
184	225	190
185	661	304
186	981	877
187	355	896
188	469	193
189	378	330
190	129	890
191	488	742
192	441	84
193	512	412
194	232	332
195	521	902
196	452	47
197	500	743
198	732	691
199	819	3
200	743	103
201	141	87
202	206	377
203	782	260
204	828	156
205	559	390
206	78	518
207	235	453
208	739	268
209	867	848
210	572	895
211	679	707
212	314	158
213	33	850
214	159	126
215	383	858
216	223	755
217	930	693
218	519	363
219	150	361
220	214	503
221	663	215
222	823	184
223	852	464
224	185	416
225	626	338
226	946	376
227	624	417
228	603	208
229	230	691
230	359	74
231	700	607
232	826	87
233	546	259
234	128	4
235	161	245
236	259	196
237	115	288
238	276	779
239	945	516
240	288	385
241	817	614
242	426	577
243	88	884
244	332	205
245	583	837
246	233	473
247	28	106
248	827	305
249	471	622
250	714	948
251	989	291
252	939	740
253	112	398
254	515	209
255	800	459
256	771	423
257	746	348
258	996	54
259	928	696
260	783	392
261	442	782
262	472	743
263	15	385
264	633	504
265	154	636
266	929	13
267	812	235
268	115	677
269	528	885
270	14	698
271	218	634
272	996	71
273	416	874
274	531	926
275	78	447
276	279	793
277	551	336
278	796	520
279	112	70
280	754	991
281	704	209
282	601	267
283	352	265
284	235	752
285	167	586
286	747	390
287	88	728
288	794	714
289	816	413
290	410	249
291	765	263
292	665	130
293	645	71
294	206	712
295	41	85
296	625	721
297	770	309
298	920	916
299	81	448
300	224	114
301	587	787
302	880	107
303	680	716
304	351	490
305	425	338
306	272	85
307	424	398
308	355	865
309	142	121
310	429	661
311	135	235
312	351	950
313	903	580
314	544	841
315	28	733
316	460	617
317	932	643
318	804	841
319	66	391
320	409	413
321	192	21
322	949	668
323	673	181
324	11	732
325	731	287
326	290	417
327	853	367
328	843	861
329	610	440
330	675	404
331	105	433
332	156	871
333	569	482
334	166	595
335	353	624
336	868	565
337	841	171
338	683	51
339	310	586
340	545	93
341	859	741
342	827	445
343	553	99
344	459	172
345	897	959
346	825	939
347	360	384
348	128	484
349	310	941
350	115	0
351	811	334
352	607	97
353	850	995
354	591	650
355	398	502
356	150	474
357	141	168
358	940	357
359	470	732
360	698	874
361	51	255
362	700	402
363	939	732
364	835	692
365	461	768
366	358	814
367	694	76
368	586	950
369	742	870
370	324	472
371	573	942
372	58	761
373	327	707
374	890	939
375	764	317
376	135	237
377	793	761
378	594	234
379	659	545
380	120	594
381	917	139
382	511	850
383	810	220
384	507	875
385	980	872
386	49	808
387	258	142
388	463	144
389	590	262
390	764	479
391	668	653
392	672	22
393	417	330
394	421	214
395	66	729
396	469	692
397	293	788
398	369	987
399	927	440
400	197	701
401	737	231
402	901	248
403	557	443
404	386	43
405	660	808
406	317	971
407	515	757
408	204	143
409	236	927
410	364	250
411	253	385
412	633	261
413	80	462
414	516	938
415	408	66
416	834	380
417	613	349
418	582	866
419	19	955
420	986	403
421	711	393
422	750	110
423	459	960
424	656	651
425	176	75
426	319	860
427	930	413
428	167	642
429	904	256
430	826	802
431	442	533
432	825	982
433	14	458
434	261	13
435	81	297
436	795	98
437	980	325
438	210	236
439	207	391
440	123	494
441	555	477
442	102	257
443	892	144
444	494	11
445	643	190
446	889	493
447	418	297
448	514	728
449	772	593
450	373	759
451	133	87
452	326	352
453	796	560
454	990	597
455	765	311
456	981	48
457	598	645
458	558	195
459	431	214
460	109	545
461	593	498
462	352	270
463	526	682
464	356	974
465	966	823
466	525	750
467	240	254
468	863	880
469	847	857
470	194	885
471	487	629
472	378	183
473	866	734
474	844	254
475	914	5
476	1000	526
477	388	97
478	245	440
479	841	456
480	380	389
481	213	21
482	322	891
483	403	855
484	465	351
485	645	448
486	45	2
487	666	641
488	45	389
489	645	981
490	987	483
491	443	532
492	345	732
493	446	671
494	434	920
495	398	766
496	534	188
497	63	695
498	407	409
499	50	422
500	202	121
501	918	736
DEMAND_SECTION
1	0
2	7
3	9
4	1
5	2
6	8
7	6
8	1
9	6
10	3
11	6
12	7
13	4
14	3
15	1
16	8
17	9
18	5
19	4
20	7
21	2
22	8
23	2
24	7
25	5
26	7
27	3
28	1
29	3
30	7
31	4
32	3
33	6
34	9
35	4
36	7
37	5
38	8
39	4
40	2
41	8
42	5
43	8
44	8
45	4
46	3
47	6
48	6
49	7
50	4
51	3
52	4
53	1
54	9
55	5
56	2
57	3
58	8
59	4
60	9
61	2
62	4
63	8
64	9
65	3
66	6
67	5
68	6
69	4
70	5
71	3
72	3
73	8
74	6
75	3
76	4
77	6
78	5
79	1
80	5
81	1
82	7
83	4
84	3
85	2
86	6
87	6
88	7
89	4
90	4
91	1
92	1
93	3
94	6
95	2
96	3
97	9
98	4
99	1
100	3
101	9
102	3
103	1
104	7
105	2
106	9
107	2
108	6
109	8
110	9
111	6
112	3
113	5
114	4
115	2
116	4
117	4
118	9
119	3
120	6
121	1
122	5
123	4
124	6
125	5
126	5
127	2
128	2
129	7
130	5
131	8
132	9
133	2
134	6
135	5
136	2
137	5
138	4
139	1
140	3
141	7
142	6
143	2
144	8
145	8
146	5
147	5
148	3
149	6
150	8
151	6
152	5
153	6
154	9
155	7
156	8
157	2
158	4
159	9
160	6
161	3
162	9
163	5
164	1
165	4
166	3
167	5
168	4
169	8
170	8
171	7
172	8
173	5
174	4
175	4
176	2
177	7
178	1
179	4
180	6
181	9
182	5
183	8
184	9
185	7
186	8
187	5
188	7
189	8
190	9
191	5
192	5
193	4
194	5
195	9
196	3
197	6
198	3
199	2
200	2
201	4
202	2
203	2
204	6
205	3
206	6
207	5
208	6
209	9
210	4
211	5
212	3
213	3
214	1
215	6
216	9
217	7
218	1
219	8
220	2
221	9
222	2
223	7
224	1
225	9
226	2
227	6
228	9
229	8
230	6
231	3
232	4
233	5
234	9
235	5
236	5
237	4
238	3
239	8
240	6
241	1
242	9
243	4
244	4
245	4
246	4
247	8
248	4
249	8
250	2
251	1
252	5
253	8
254	3
255	1
256	8
257	1
258	2
259	5
260	9
261	2
262	3
263	8
264	7
265	4
266	8
267	6
268	9
269	7
270	4
271	5
272	3
273	6
274	8
275	2
276	2
277	6
278	2
279	6
280	4
281	2
282	7
283	6
284	4
285	3
286	1
287	2
288	5
289	8
290	6
291	9
292	8
293	7
294	7
295	8
296	5
297	4
298	9
299	6
300	9
301	1
302	9
303	8
304	9
305	5
306	3
307	6
308	9
309	5
310	1
311	7
312	5
313	2
314	2
315	8
316	7
317	1
318	6
319	8
320	6
321	7
322	6
323	8
324	4
325	2
326	5
327	4
328	8
329	4
330	2
331	4
332	6
333	3
334	5
335	3
336	5
337	7
338	1
339	5
340	2
341	9
342	6
343	7
344	3
345	6
346	9
347	7
348	4
349	9
350	6
351	5
352	2
353	7
354	1
355	8
356	6
357	8
358	3
359	6
360	6
361	8
362	8
363	6
364	2
365	8
366	8
367	6
368	1
369	2
370	2
371	8
372	9
373	9
374	8
375	5
376	6
377	4
378	2
379	1
380	9
381	7
382	2
383	8
384	7
385	1
386	4
387	3
388	7
389	2
390	3
391	9
392	1
393	7
394	5
395	3
396	7
397	7
398	9
399	4
400	8
401	6
402	7
403	1
404	9
405	5
406	8
407	8
408	3
409	6
410	4
411	5
412	5
413	5
414	1
415	6
416	1
417	8
418	7
419	7
420	2
421	4
422	6
423	4
424	3
425	7
426	6
427	4
428	7
429	5
430	4
431	1
432	2
433	6
434	2
435	5
436	7
437	2
438	3
439	9
440	1
441	5
442	1
443	3
444	9
445	3
446	3
447	9
448	5
449	3
450	3
451	5
452	6
453	9
454	1
455	2
456	3
457	4
458	5
459	6
460	2
461	1
462	1
463	1
464	4
465	9
466	4
467	5
468	9
469	3
470	3
471	5
472	9
473	1
474	1
475	7
476	1
477	4
478	2
479	1
480	9
481	9
482	5
483	5
484	2
485	9
486	4
487	4
488	2
489	7
490	7
491	8
492	2
493	4
494	4
495	9
496	6
497	3
498	4
499	6
500	2
501	9
BACKHAUL_SECTION
7	13	14	17	21	27	28	35	40	47	48	51	62	63	64	65	68	73	78	90	99	103	107	117	120	132	133	145	148	152	153	155	160	165	175	176	183	185	187	197	204	205	206	207	212	218	227	228	232	238	249	250	259	261	266	269	282	284	291	299	303	314	323	332	338	344	348	350	357	359	374	375	376	377	380	383	390	392	395	399	401	402	404	406	407	413	416	417	422	430	434	448	466	467	476	481	488	489	493	501	-1
DEPOT_SECTION
1
-1
EOF
