NAME : n501-0034
COMMENT : "Generated by pyvrp_manuel (VRPBL)"
TYPE : VRPBL
DIMENSION : 501
EDGE_WEIGHT_TYPE : EUC_2D
CAPACITY : 100
VEHICLES : 500
DISTANCE : 3000
NODE_COORD_SECTION
1	926	231
2	465	435
3	699	190
4	567	805
5	801	230
6	661	832
7	179	589
8	725	706
9	134	951
10	247	249
11	153	589
12	474	396
13	189	198
14	172	943
15	616	82
16	334	983
17	11	885
18	782	540
19	561	862
20	290	904
21	392	526
22	811	854
23	514	567
24	899	530
25	222	586
26	5	511
27	685	57
28	532	599
29	844	678
30	104	271
31	248	144
32	715	89
33	114	1000
34	509	367
35	404	51
36	794	731
37	709	665
38	738	414
39	548	65
40	198	526
41	779	621
42	158	69
43	886	841
44	521	818
45	429	708
46	730	657
47	626	37
48	193	179
49	490	855
50	169	727
51	715	712
52	687	642
53	185	616
54	658	164
55	348	172
56	309	213
57	511	2
58	838	539
59	487	748
60	785	122
61	611	91
62	673	858
63	419	934
64	352	547
65	694	559
66	633	527
67	255	136
68	949	386
69	594	927
70	685	663
71	268	836
72	52	822
73	409	470
74	578	556
75	828	773
76	728	682
77	711	796
78	601	811
79	867	502
80	618	891
81	463	894
82	604	208
83	954	925
84	770	66
85	505	409
86	674	880
87	339	610
88	766	754
89	521	746
90	834	258
91	360	970
92	220	30
93	618	758
94	891	876
95	736	2
96	572	850
97	768	978
98	819	989
99	464	979
100	532	278
101	880	146
102	373	785
103	157	243
104	929	479
105	759	807
106	860	613
107	404	81
108	41	779
109	750	939
110	454	337
111	603	840
112	740	956
113	625	569
114	371	876
115	992	977
116	203	793
117	521	117
118	573	50
119	856	127
120	213	447
121	133	12
122	248	562
123	644	623
124	22	241
125	818	259
126	590	486
127	564	498
128	178	841
129	807	432
130	124	683
131	37	223
132	802	384
133	248	673
134	634	931
135	891	526
136	62	197
137	486	323
138	768	925
139	902	550
140	980	783
141	669	432
142	452	674
143	18	359
144	316	334
145	816	578
146	767	748
147	342	868
148	557	278
149	611	222
150	396	442
151	739	432
152	683	954
153	253	18
154	125	594
155	507	817
156	431	197
157	394	250
158	123	831
159	167	877
160	704	12
161	840	846
162	244	327
163	552	290
164	553	88
165	522	268
166	878	773
167	824	835
168	884	263
169	713	432
170	484	373
171	383	436
172	800	408
173	383	443
174	168	230
175	703	409
176	155	960
177	113	596
178	688	585
179	347	954
180	763	42
181	629	723
182	984	200
183	205	577
184	647	450
185	531	849
186	500	151
187	302	648
188	886	227
189	473	569
190	219	755
191	369	415
192	703	124
193	255	441
194	333	711
195	958	534
196	726	940
197	364	491
198	571	625
199	347	980
200	897	730
201	87	969
202	310	262
203	375	894
204	380	435
205	835	8
206	301	585
207	845	786
208	152	424
209	454	424
210	20	356
211	529	521
212	802	983
213	402	29
214	584	715
215	142	879
216	670	374
217	322	495
218	32	313
219	336	417
220	758	990
221	703	696
222	393	419
223	381	988
224	955	3
225	249	809
226	832	357
227	515	66
228	150	916
229	888	594
230	524	231
231	106	218
232	825	888
233	518	82
234	696	37
235	280	236
236	331	169
237	195	161
238	145	998
239	359	466
240	976	159
241	318	514
242	259	170
243	391	105
244	902	982
245	705	954
246	487	260
247	761	655
248	673	827
249	221	591
250	381	439
251	377	534
252	21	339
253	110	67
254	587	108
255	558	464
256	786	49
257	319	605
258	310	911
259	851	464
260	203	378
261	196	324
262	750	673
263	91	576
264	879	890
265	795	20
266	783	295
267	624	686
268	195	413
269	810	228
270	347	750
271	653	856
272	959	126
273	687	72
274	880	21
275	653	549
276	407	195
277	605	800
278	871	338
279	548	462
280	138	962
281	766	515
282	636	341
283	983	211
284	153	866
285	979	517
286	257	400
287	821	567
288	803	862
289	647	62
290	358	314
291	809	834
292	471	162
293	126	286
294	917	888
295	529	783
296	871	216
297	906	668
298	236	271
299	382	430
300	122	190
301	583	455
302	216	647
303	417	225
304	803	285
305	650	106
306	195	760
307	766	460
308	687	930
309	709	187
310	481	470
311	546	183
312	63	968
313	733	169
314	982	157
315	237	777
316	903	348
317	358	548
318	427	215
319	182	350
320	557	187
321	339	256
322	118	830
323	434	819
324	132	688
325	912	112
326	50	138
327	217	241
328	717	970
329	462	156
330	905	981
331	289	809
332	129	66
333	813	492
334	655	52
335	535	336
336	899	596
337	786	390
338	387	189
339	136	897
340	949	609
341	906	309
342	478	429
343	860	706
344	146	337
345	154	106
346	730	166
347	9	164
348	883	932
349	944	73
350	954	219
351	65	907
352	318	758
353	10	291
354	671	227
355	230	850
356	520	360
357	507	691
358	777	506
359	376	650
360	344	877
361	857	330
362	351	483
363	676	563
364	232	272
365	253	774
366	514	952
367	317	199
368	782	807
369	820	686
370	585	282
371	810	818
372	548	843
373	226	376
374	333	699
375	205	783
376	682	630
377	60	382
378	971	171
379	736	66
380	587	416
381	643	695
382	435	448
383	92	785
384	385	58
385	278	335
386	25	919
387	545	493
388	898	633
389	96	662
390	983	754
391	579	273
392	512	201
393	682	615
394	259	740
395	81	865
396	474	527
397	391	221
398	740	874
399	169	346
400	94	631
401	616	196
402	674	794
403	137	38
404	703	203
405	711	56
406	65	10
407	369	121
408	851	869
409	26	974
410	347	265
411	132	760
412	958	626
413	598	869
414	542	886
415	199	549
416	208	380
417	440	507
418	857	23
419	690	490
420	347	451
421	369	878
422	449	871
423	163	380
424	497	79
425	763	766
426	817	52
427	888	614
428	292	396
429	999	39
430	123	381
431	558	526
432	513	249
433	842	666
434	963	966
435	309	324
436	709	112
437	280	529
438	348	618
439	372	31
440	616	744
441	152	143
442	886	30
443	182	835
444	779	847
445	817	770
446	17	752
447	788	94
448	939	567
449	262	931
450	161	87
451	594	910
452	474	150
453	244	962
454	274	983
455	927	111
456	209	918
457	354	494
458	503	442
459	876	256
460	125	800
461	915	895
462	499	473
463	164	752
464	972	522
465	181	81
466	485	400
467	339	905
468	417	350
469	370	656
470	579	501
471	164	962
472	657	768
473	836	325
474	918	919
475	890	98
476	839	391
477	525	686
478	77	439
479	511	467
480	528	561
481	450	984
482	209	256
483	968	823
484	667	1000
485	208	673
486	310	698
487	903	542
488	541	274
489	2	503
490	151	485
491	32	989
492	946	976
493	764	520
494	638	924
495	941	308
496	552	729
497	212	277
498	807	805
499	197	499
500	118	767
501	593	691
DEMAND_SECTION
1	0
2	3
3	6
4	3
5	6
6	4
7	2
8	1
9	6
10	4
11	7
12	7
13	7
14	4
15	8
16	9
17	4
18	4
19	5
20	2
21	2
22	1
23	1
24	3
25	7
26	4
27	3
28	1
29	2
30	1
31	2
32	8
33	2
34	5
35	9
36	3
37	7
38	6
39	8
40	9
41	8
42	9
43	6
44	5
45	5
46	2
47	2
48	9
49	6
50	5
51	1
52	5
53	1
54	3
55	1
56	5
57	7
58	3
59	4
60	3
61	4
62	4
63	8
64	6
65	5
66	4
67	9
68	3
69	6
70	6
71	4
72	6
73	3
74	2
75	3
76	2
77	9
78	6
79	4
80	8
81	7
82	2
83	9
84	5
85	9
86	3
87	7
88	9
89	3
90	8
91	3
92	6
93	7
94	2
95	5
96	8
97	2
98	6
99	2
100	2
101	1
102	9
103	2
104	5
105	1
106	8
107	2
108	1
109	5
110	2
111	6
112	8
113	6
114	7
115	3
116	7
117	6
118	9
119	2
120	1
121	7
122	6
123	3
124	5
125	4
126	6
127	5
128	8
129	2
130	8
131	5
132	5
133	5
134	6
135	3
136	2
137	3
138	4
139	9
140	5
141	5
142	9
143	1
144	4
145	2
146	7
147	9
148	4
149	4
150	6
151	6
152	7
153	4
154	9
155	8
156	9
157	2
158	4
159	3
160	6
161	3
162	4
163	4
164	4
165	6
166	9
167	8
168	1
169	2
170	1
171	4
172	8
173	4
174	1
175	6
176	1
177	3
178	7
179	6
180	1
181	1
182	9
183	9
184	6
185	5
186	6
187	2
188	4
189	4
190	3
191	8
192	4
193	7
194	3
195	2
196	5
197	6
198	5
199	3
200	2
201	8
202	7
203	7
204	1
205	6
206	8
207	7
208	9
209	1
210	5
211	9
212	8
213	1
214	1
215	7
216	8
217	4
218	9
219	6
220	7
221	5
222	9
223	4
224	7
225	8
226	4
227	1
228	1
229	3
230	9
231	9
232	9
233	3
234	9
235	4
236	5
237	7
238	8
239	3
240	1
241	2
242	9
243	7
244	6
245	5
246	6
247	2
248	7
249	8
250	4
251	1
252	6
253	9
254	2
255	8
256	9
257	6
258	4
259	9
260	1
261	4
262	1
263	5
264	9
265	9
266	9
267	8
268	7
269	5
270	7
271	2
272	9
273	3
274	4
275	7
276	7
277	1
278	2
279	5
280	1
281	5
282	4
283	1
284	2
285	9
286	3
287	5
288	5
289	1
290	4
291	9
292	7
293	7
294	1
295	3
296	3
297	8
298	5
299	6
300	3
301	5
302	6
303	1
304	6
305	2
306	1
307	4
308	2
309	4
310	9
311	1
312	9
313	1
314	8
315	8
316	8
317	1
318	3
319	3
320	5
321	7
322	7
323	5
324	9
325	1
326	2
327	6
328	8
329	2
330	3
331	4
332	7
333	7
334	8
335	8
336	9
337	2
338	2
339	6
340	2
341	5
342	9
343	4
344	7
345	7
346	4
347	1
348	5
349	2
350	3
351	4
352	8
353	1
354	2
355	9
356	6
357	7
358	7
359	2
360	7
361	6
362	8
363	2
364	9
365	8
366	2
367	3
368	2
369	1
370	6
371	4
372	2
373	5
374	9
375	8
376	6
377	6
378	8
379	5
380	8
381	5
382	3
383	2
384	7
385	2
386	5
387	8
388	4
389	2
390	4
391	9
392	3
393	4
394	5
395	6
396	5
397	7
398	8
399	5
400	1
401	2
402	1
403	9
404	1
405	2
406	8
407	6
408	7
409	4
410	3
411	5
412	1
413	5
414	6
415	7
416	9
417	3
418	9
419	6
420	2
421	9
422	1
423	3
424	5
425	8
426	5
427	7
428	5
429	9
430	4
431	4
432	1
433	2
434	3
435	7
436	8
437	6
438	9
439	8
440	5
441	2
442	8
443	4
444	2
445	9
446	8
447	9
448	8
449	1
450	9
451	7
452	4
453	7
454	8
455	4
456	7
457	3
458	4
459	9
460	5
461	3
462	9
463	8
464	9
465	6
466	5
467	6
468	2
469	3
470	1
471	3
472	4
473	5
474	9
475	2
476	7
477	1
478	2
479	3
480	5
481	6
482	8
483	1
484	8
485	6
486	1
487	1
488	2
489	9
490	5
491	7
492	1
493	2
494	2
495	4
496	5
497	4
498	4
499	7
500	7
501	5
BACKHAUL_SECTION
7	13	14	17	21	27	28	35	40	47	48	51	62	63	64	65	68	73	78	90	99	103	107	117	120	132	133	145	148	152	153	155	160	165	175	176	183	185	187	197	204	205	206	207	212	218	227	228	232	238	249	250	259	261	266	269	282	284	291	299	303	314	323	332	338	344	348	350	357	359	374	375	376	377	380	383	390	392	395	399	401	402	404	406	407	413	416	417	422	430	434	448	466	467	476	481	488	489	493	501	-1
DEPOT_SECTION
1
-1
EOF
