NAME : n501-0030
COMMENT : "Generated by pyvrp_manuel (VRPBL)"
TYPE : VRPBL
DIMENSION : 501
EDGE_WEIGHT_TYPE : EUC_2D
CAPACITY : 100
VEHICLES : 500
DISTANCE : 3000
NODE_COORD_SECTION
1	663	658
2	358	645
3	923	544
4	87	603
5	161	203
6	348	83
7	891	702
8	244	910
9	691	999
10	274	877
11	823	172
12	827	252
13	656	303
14	158	974
15	65	978
16	697	328
17	847	362
18	655	405
19	127	578
20	790	525
21	434	77
22	86	2
23	452	795
24	33	830
25	87	91
26	960	347
27	902	517
28	793	957
29	192	200
30	506	929
31	990	272
32	786	591
33	972	162
34	296	389
35	981	214
36	626	717
37	896	221
38	574	23
39	0	58
40	193	717
41	537	684
42	702	602
43	291	185
44	369	665
45	206	139
46	613	213
47	283	912
48	370	514
49	965	83
50	529	983
51	201	632
52	502	358
53	785	949
54	107	330
55	376	888
56	447	185
57	996	918
58	593	606
59	124	431
60	281	684
61	517	684
62	182	183
63	982	667
64	935	262
65	157	332
66	155	454
67	477	146
68	146	233
69	896	579
70	160	42
71	76	705
72	273	518
73	769	777
74	623	252
75	989	77
76	448	429
77	285	305
78	58	692
79	797	917
80	537	325
81	101	78
82	831	559
83	349	810
84	492	480
85	792	968
86	374	968
87	272	825
88	275	741
89	213	76
90	18	71
91	776	269
92	357	405
93	624	408
94	378	393
95	777	178
96	420	413
97	915	531
98	12	262
99	232	895
100	419	730
101	711	573
102	735	253
103	609	851
104	782	767
105	495	22
106	547	431
107	703	337
108	694	584
109	28	443
110	331	532
111	22	424
112	323	398
113	708	119
114	719	232
115	178	950
116	94	35
117	893	980
118	314	448
119	687	444
120	445	113
121	87	964
122	887	401
123	968	848
124	902	548
125	975	320
126	968	916
127	722	471
128	477	984
129	466	435
130	947	372
131	376	425
132	315	463
133	280	334
134	582	993
135	189	901
136	811	516
137	553	343
138	188	981
139	51	527
140	546	879
141	299	503
142	197	620
143	903	676
144	297	124
145	737	726
146	860	318
147	686	128
148	915	118
149	6	133
150	823	865
151	254	590
152	216	486
153	209	557
154	978	618
155	829	727
156	259	423
157	30	816
158	484	762
159	107	211
160	823	761
161	659	282
162	765	249
163	969	426
164	557	819
165	439	616
166	814	173
167	578	286
168	978	470
169	660	880
170	658	633
171	342	162
172	75	257
173	703	103
174	517	936
175	832	642
176	816	824
177	18	855
178	548	288
179	728	467
180	964	253
181	632	230
182	249	329
183	975	965
184	790	261
185	22	806
186	733	319
187	716	123
188	174	405
189	79	304
190	845	17
191	6	694
192	192	467
193	917	912
194	77	981
195	910	820
196	122	1
197	107	872
198	940	344
199	215	8
200	975	844
201	930	384
202	342	771
203	985	63
204	120	8
205	515	736
206	456	337
207	42	348
208	747	525
209	956	167
210	347	70
211	358	676
212	601	718
213	173	646
214	388	596
215	908	344
216	621	436
217	393	272
218	712	627
219	969	469
220	755	547
221	944	540
222	181	283
223	198	65
224	245	30
225	81	563
226	109	560
227	894	1
228	409	874
229	520	286
230	717	923
231	101	774
232	106	774
233	30	859
234	387	999
235	115	796
236	685	780
237	69	707
238	446	146
239	902	683
240	23	139
241	11	465
242	943	441
243	122	361
244	240	802
245	115	187
246	966	293
247	823	24
248	345	928
249	782	397
250	743	663
251	51	843
252	103	158
253	247	5
254	45	638
255	455	129
256	858	457
257	114	988
258	400	341
259	711	785
260	856	23
261	878	453
262	222	398
263	242	218
264	201	813
265	912	711
266	88	146
267	449	687
268	355	596
269	682	987
270	666	294
271	387	195
272	704	357
273	930	616
274	958	867
275	15	800
276	915	687
277	94	958
278	887	327
279	339	358
280	289	577
281	740	627
282	425	419
283	353	513
284	785	568
285	537	90
286	931	204
287	942	488
288	284	257
289	857	254
290	160	193
291	317	769
292	271	705
293	518	204
294	272	41
295	80	559
296	406	646
297	77	77
298	419	161
299	482	98
300	757	920
301	642	604
302	446	655
303	998	493
304	647	442
305	749	566
306	942	486
307	930	981
308	42	449
309	870	351
310	915	435
311	716	819
312	583	424
313	524	42
314	76	818
315	412	221
316	300	718
317	79	898
318	840	398
319	278	202
320	936	43
321	402	190
322	764	968
323	269	145
324	234	528
325	686	305
326	148	835
327	345	688
328	511	52
329	483	378
330	352	795
331	863	399
332	13	398
333	566	845
334	601	201
335	449	659
336	310	364
337	78	332
338	58	808
339	210	258
340	149	442
341	694	714
342	987	388
343	285	644
344	847	104
345	604	312
346	816	874
347	175	819
348	706	841
349	178	890
350	539	946
351	201	680
352	403	857
353	810	606
354	397	132
355	280	908
356	222	506
357	829	786
358	784	138
359	545	420
360	888	903
361	980	293
362	77	524
363	110	374
364	381	563
365	283	677
366	395	768
367	983	661
368	148	293
369	926	301
370	626	241
371	280	268
372	144	574
373	473	187
374	206	138
375	787	861
376	192	472
377	920	748
378	271	948
379	196	307
380	231	2
381	387	665
382	493	370
383	380	321
384	537	716
385	223	525
386	559	714
387	215	839
388	999	237
389	415	147
390	619	213
391	766	345
392	201	208
393	174	805
394	814	461
395	214	367
396	951	99
397	973	547
398	510	196
399	750	225
400	175	244
401	693	172
402	273	144
403	225	795
404	47	443
405	988	943
406	616	139
407	630	815
408	229	908
409	389	40
410	637	347
411	624	789
412	100	221
413	11	644
414	624	510
415	543	971
416	864	395
417	463	580
418	283	742
419	195	484
420	837	670
421	194	169
422	840	480
423	773	301
424	122	592
425	955	920
426	812	389
427	948	363
428	641	383
429	563	147
430	897	504
431	597	890
432	926	795
433	896	672
434	787	285
435	196	889
436	593	172
437	507	152
438	182	606
439	925	124
440	557	912
441	493	120
442	33	901
443	472	348
444	433	320
445	471	323
446	875	959
447	514	789
448	470	39
449	394	119
450	936	413
451	748	982
452	883	657
453	748	7
454	919	197
455	992	622
456	514	855
457	61	873
458	694	945
459	732	773
460	17	158
461	110	777
462	3	583
463	821	860
464	462	441
465	872	201
466	334	623
467	860	817
468	430	657
469	14	647
470	990	888
471	493	370
472	170	501
473	674	886
474	373	350
475	854	530
476	439	826
477	895	916
478	755	842
479	93	195
480	708	604
481	18	890
482	84	925
483	629	173
484	761	912
485	472	382
486	135	916
487	39	831
488	864	470
489	163	572
490	71	275
491	932	608
492	353	932
493	879	766
494	957	776
495	681	294
496	394	130
497	290	379
498	821	886
499	782	60
500	35	217
501	239	458
DEMAND_SECTION
1	0
2	9
3	1
4	5
5	3
6	4
7	1
8	9
9	9
10	8
11	8
12	8
13	6
14	4
15	4
16	5
17	3
18	3
19	4
20	6
21	4
22	5
23	8
24	7
25	5
26	1
27	1
28	9
29	2
30	8
31	3
32	2
33	7
34	4
35	1
36	4
37	2
38	5
39	1
40	3
41	6
42	6
43	8
44	7
45	2
46	7
47	8
48	3
49	7
50	4
51	2
52	5
53	5
54	6
55	9
56	8
57	5
58	1
59	4
60	4
61	7
62	2
63	1
64	5
65	5
66	8
67	5
68	4
69	6
70	7
71	7
72	3
73	3
74	4
75	3
76	3
77	6
78	4
79	3
80	9
81	5
82	3
83	6
84	1
85	4
86	8
87	1
88	7
89	2
90	8
91	7
92	6
93	2
94	3
95	4
96	6
97	1
98	8
99	6
100	4
101	7
102	8
103	6
104	7
105	1
106	8
107	2
108	5
109	4
110	3
111	5
112	8
113	9
114	1
115	8
116	7
117	1
118	2
119	7
120	7
121	8
122	7
123	4
124	6
125	6
126	9
127	7
128	9
129	6
130	8
131	6
132	5
133	7
134	1
135	1
136	4
137	8
138	2
139	7
140	6
141	6
142	2
143	6
144	9
145	6
146	9
147	3
148	1
149	8
150	1
151	8
152	7
153	3
154	9
155	9
156	8
157	7
158	8
159	2
160	9
161	4
162	1
163	3
164	3
165	7
166	9
167	3
168	2
169	8
170	4
171	2
172	1
173	7
174	4
175	6
176	4
177	1
178	1
179	7
180	2
181	6
182	7
183	7
184	3
185	6
186	5
187	5
188	2
189	9
190	6
191	7
192	2
193	4
194	1
195	6
196	3
197	6
198	3
199	8
200	4
201	6
202	8
203	7
204	5
205	6
206	1
207	3
208	5
209	7
210	4
211	1
212	6
213	7
214	3
215	7
216	3
217	5
218	6
219	7
220	6
221	3
222	7
223	7
224	6
225	5
226	8
227	9
228	5
229	2
230	8
231	9
232	5
233	4
234	4
235	4
236	7
237	7
238	9
239	4
240	7
241	9
242	7
243	6
244	5
245	5
246	5
247	6
248	8
249	9
250	4
251	5
252	2
253	8
254	7
255	6
256	2
257	7
258	8
259	6
260	8
261	5
262	7
263	6
264	2
265	7
266	1
267	8
268	1
269	3
270	8
271	4
272	9
273	2
274	8
275	3
276	2
277	2
278	8
279	6
280	3
281	1
282	8
283	6
284	8
285	9
286	8
287	9
288	7
289	5
290	6
291	1
292	8
293	8
294	9
295	8
296	3
297	4
298	6
299	3
300	8
301	1
302	3
303	7
304	7
305	4
306	4
307	6
308	9
309	3
310	4
311	4
312	9
313	4
314	9
315	2
316	9
317	7
318	5
319	3
320	1
321	3
322	8
323	5
324	1
325	4
326	7
327	5
328	6
329	6
330	7
331	7
332	1
333	4
334	6
335	1
336	7
337	6
338	1
339	9
340	1
341	6
342	3
343	9
344	3
345	1
346	1
347	6
348	2
349	6
350	4
351	2
352	1
353	1
354	1
355	1
356	4
357	5
358	5
359	6
360	1
361	3
362	7
363	3
364	9
365	8
366	8
367	6
368	8
369	2
370	8
371	4
372	5
373	8
374	9
375	9
376	5
377	1
378	8
379	6
380	6
381	4
382	2
383	3
384	3
385	9
386	9
387	4
388	4
389	1
390	7
391	1
392	6
393	1
394	7
395	3
396	2
397	5
398	3
399	2
400	6
401	5
402	5
403	2
404	6
405	2
406	1
407	1
408	3
409	3
410	2
411	8
412	1
413	5
414	5
415	5
416	9
417	5
418	9
419	4
420	1
421	6
422	2
423	9
424	5
425	2
426	6
427	1
428	6
429	4
430	1
431	3
432	6
433	8
434	9
435	2
436	2
437	5
438	9
439	4
440	8
441	9
442	1
443	6
444	5
445	5
446	8
447	6
448	2
449	8
450	4
451	9
452	3
453	7
454	5
455	9
456	3
457	3
458	7
459	4
460	5
461	4
462	4
463	9
464	9
465	7
466	7
467	2
468	3
469	1
470	5
471	1
472	2
473	7
474	7
475	2
476	5
477	1
478	1
479	3
480	3
481	1
482	6
483	2
484	5
485	6
486	5
487	2
488	2
489	2
490	6
491	3
492	7
493	2
494	2
495	2
496	2
497	7
498	9
499	2
500	4
501	2
BACKHAUL_SECTION
7	13	14	17	21	27	28	35	40	47	48	51	62	63	64	65	68	73	78	90	99	103	107	117	120	132	133	145	148	152	153	155	160	165	175	176	183	185	187	197	204	205	206	207	212	218	227	228	232	238	249	250	259	261	266	269	282	284	291	299	303	314	323	332	338	344	348	350	357	359	374	375	376	377	380	383	390	392	395	399	401	402	404	406	407	413	416	417	422	430	434	448	466	467	476	481	488	489	493	501	-1
DEPOT_SECTION
1
-1
EOF
