NAME : n501-0012
COMMENT : "Generated by pyvrp_manuel (VRPBL)"
TYPE : VRPBL
DIMENSION : 501
EDGE_WEIGHT_TYPE : EUC_2D
CAPACITY : 100
VEHICLES : 500
DISTANCE : 3000
NODE_COORD_SECTION
1	588	986
2	870	673
3	299	368
4	762	891
5	314	321
6	898	799
7	938	325
8	250	527
9	728	820
10	606	140
11	855	82
12	127	364
13	645	992
14	68	662
15	27	415
16	649	431
17	942	408
18	349	196
19	308	36
20	263	970
21	986	674
22	325	260
23	854	973
24	671	894
25	552	241
26	774	289
27	646	450
28	937	268
29	145	301
30	205	167
31	446	949
32	13	732
33	386	703
34	792	981
35	484	12
36	666	237
37	527	983
38	163	553
39	899	114
40	433	341
41	935	441
42	322	638
43	565	863
44	156	768
45	685	815
46	433	407
47	555	341
48	158	390
49	757	902
50	212	740
51	814	717
52	612	669
53	722	788
54	340	530
55	345	98
56	819	575
57	576	348
58	520	92
59	377	731
60	825	119
61	742	838
62	265	503
63	472	150
64	591	946
65	462	198
66	333	797
67	473	162
68	776	480
69	963	200
70	766	769
71	471	563
72	884	406
73	916	590
74	102	15
75	48	144
76	815	726
77	117	400
78	832	380
79	955	951
80	696	330
81	731	719
82	72	658
83	968	177
84	90	728
85	219	955
86	50	214
87	504	297
88	128	94
89	129	254
90	406	102
91	668	950
92	641	918
93	728	718
94	930	993
95	688	797
96	106	768
97	148	216
98	681	258
99	688	483
100	933	42
101	137	63
102	926	369
103	702	810
104	344	38
105	196	375
106	461	587
107	227	998
108	221	685
109	848	302
110	521	626
111	466	647
112	954	93
113	598	231
114	156	764
115	818	565
116	609	489
117	37	957
118	600	121
119	582	302
120	530	663
121	953	388
122	477	444
123	14	257
124	717	943
125	510	973
126	200	655
127	548	137
128	773	791
129	597	475
130	177	346
131	217	915
132	670	200
133	457	736
134	577	900
135	370	704
136	620	970
137	294	544
138	787	884
139	214	132
140	811	387
141	278	737
142	456	52
143	534	12
144	934	787
145	225	201
146	558	702
147	371	65
148	35	917
149	117	656
150	283	357
151	533	173
152	309	131
153	762	74
154	654	14
155	577	680
156	305	894
157	173	752
158	200	186
159	872	176
160	705	941
161	435	350
162	774	953
163	774	315
164	848	457
165	256	289
166	555	918
167	997	353
168	957	415
169	400	430
170	10	653
171	187	681
172	6	168
173	809	263
174	673	202
175	617	883
176	624	354
177	500	216
178	235	673
179	612	142
180	389	658
181	208	931
182	1	947
183	989	638
184	743	473
185	531	615
186	585	900
187	936	149
188	111	930
189	819	459
190	931	401
191	972	150
192	303	51
193	911	730
194	998	476
195	185	932
196	180	257
197	212	619
198	468	203
199	901	939
200	935	230
201	240	346
202	646	689
203	680	187
204	259	979
205	757	430
206	835	747
207	27	84
208	800	568
209	28	563
210	657	524
211	49	391
212	522	120
213	69	21
214	110	74
215	866	921
216	869	139
217	434	192
218	709	237
219	263	218
220	131	345
221	228	780
222	173	710
223	488	22
224	705	757
225	275	498
226	293	33
227	226	352
228	518	12
229	982	671
230	620	120
231	639	27
232	974	808
233	754	882
234	873	790
235	507	55
236	544	506
237	667	860
238	623	314
239	372	280
240	29	746
241	682	604
242	911	520
243	112	370
244	15	719
245	621	914
246	812	413
247	512	260
248	717	959
249	695	410
250	836	753
251	657	371
252	67	462
253	928	225
254	379	766
255	46	609
256	791	758
257	632	935
258	956	153
259	715	295
260	433	726
261	998	975
262	211	534
263	862	134
264	951	454
265	662	789
266	481	829
267	819	776
268	999	106
269	118	971
270	229	565
271	198	832
272	713	664
273	618	754
274	931	466
275	167	80
276	800	726
277	964	755
278	138	235
279	975	358
280	319	150
281	296	456
282	368	878
283	613	41
284	857	921
285	431	784
286	977	39
287	747	807
288	849	583
289	612	34
290	627	758
291	737	722
292	411	274
293	343	112
294	802	576
295	655	594
296	556	429
297	989	75
298	903	177
299	633	179
300	500	422
301	895	447
302	510	274
303	716	954
304	20	666
305	645	175
306	515	764
307	915	775
308	218	982
309	371	816
310	998	483
311	698	599
312	809	638
313	211	567
314	683	904
315	392	518
316	639	193
317	580	944
318	995	214
319	774	552
320	551	235
321	762	187
322	581	689
323	631	743
324	742	747
325	800	3
326	655	262
327	1	698
328	197	117
329	654	408
330	915	789
331	374	151
332	762	624
333	588	799
334	11	345
335	68	466
336	27	800
337	261	689
338	792	518
339	729	246
340	532	849
341	729	120
342	605	583
343	378	593
344	780	990
345	429	85
346	594	684
347	825	61
348	683	134
349	787	251
350	282	360
351	471	262
352	641	832
353	855	116
354	68	811
355	15	782
356	506	195
357	623	786
358	679	686
359	592	19
360	275	462
361	281	266
362	334	658
363	672	496
364	390	282
365	61	597
366	689	614
367	288	543
368	374	493
369	430	256
370	224	740
371	323	868
372	37	883
373	165	744
374	934	380
375	594	432
376	733	761
377	545	424
378	734	577
379	235	61
380	761	83
381	131	674
382	733	958
383	351	349
384	301	20
385	516	343
386	910	97
387	953	17
388	314	105
389	947	76
390	246	226
391	259	566
392	189	623
393	905	139
394	521	618
395	657	423
396	139	834
397	709	227
398	214	476
399	898	457
400	435	570
401	962	841
402	572	324
403	906	182
404	472	747
405	692	963
406	846	450
407	488	900
408	373	487
409	634	880
410	347	216
411	915	54
412	192	182
413	844	556
414	909	480
415	30	772
416	291	949
417	849	929
418	462	666
419	648	890
420	794	929
421	510	206
422	458	244
423	393	389
424	687	532
425	620	625
426	24	132
427	685	76
428	718	944
429	705	83
430	314	466
431	82	214
432	153	508
433	603	340
434	993	308
435	225	538
436	239	721
437	181	852
438	454	287
439	613	972
440	532	300
441	61	686
442	794	694
443	940	236
444	4	554
445	934	385
446	474	333
447	342	492
448	839	402
449	895	278
450	477	488
451	375	474
452	72	865
453	504	430
454	730	683
455	171	916
456	822	634
457	9	988
458	874	887
459	535	738
460	564	621
461	107	284
462	242	939
463	29	152
464	349	774
465	808	484
466	525	652
467	711	93
468	493	421
469	819	709
470	104	793
471	674	313
472	284	103
473	472	503
474	382	922
475	931	539
476	106	487
477	277	563
478	714	213
479	766	169
480	462	813
481	180	175
482	178	415
483	327	78
484	466	612
485	12	683
486	199	617
487	716	308
488	647	330
489	460	556
490	215	355
491	982	861
492	389	152
493	761	205
494	62	766
495	350	706
496	46	796
497	139	762
498	285	572
499	132	525
500	121	445
501	348	205
DEMAND_SECTION
1	0
2	6
3	3
4	9
5	5
6	8
7	1
8	4
9	2
10	5
11	1
12	2
13	3
14	8
15	6
16	7
17	9
18	1
19	2
20	2
21	3
22	2
23	1
24	6
25	7
26	6
27	6
28	6
29	9
30	3
31	9
32	7
33	4
34	7
35	5
36	7
37	2
38	3
39	4
40	4
41	1
42	7
43	1
44	8
45	9
46	2
47	5
48	4
49	4
50	8
51	3
52	5
53	8
54	9
55	4
56	5
57	3
58	5
59	1
60	5
61	4
62	9
63	7
64	1
65	1
66	5
67	4
68	2
69	9
70	6
71	3
72	3
73	6
74	8
75	4
76	9
77	8
78	2
79	3
80	9
81	3
82	9
83	7
84	4
85	6
86	5
87	2
88	4
89	5
90	5
91	5
92	6
93	7
94	2
95	3
96	6
97	2
98	5
99	4
100	4
101	3
102	3
103	6
104	2
105	2
106	2
107	9
108	3
109	7
110	3
111	7
112	8
113	1
114	2
115	5
116	6
117	9
118	4
119	4
120	1
121	1
122	6
123	5
124	9
125	9
126	7
127	7
128	7
129	3
130	7
131	5
132	3
133	6
134	1
135	2
136	2
137	7
138	7
139	1
140	6
141	5
142	7
143	7
144	6
145	5
146	7
147	6
148	8
149	1
150	6
151	8
152	9
153	2
154	9
155	4
156	5
157	1
158	6
159	8
160	3
161	6
162	1
163	8
164	9
165	9
166	2
167	9
168	2
169	2
170	3
171	7
172	6
173	2
174	2
175	2
176	5
177	2
178	7
179	3
180	9
181	3
182	8
183	2
184	2
185	3
186	3
187	2
188	8
189	9
190	7
191	4
192	6
193	7
194	4
195	2
196	7
197	9
198	4
199	9
200	2
201	4
202	4
203	5
204	9
205	8
206	4
207	9
208	6
209	3
210	2
211	1
212	1
213	4
214	6
215	1
216	6
217	5
218	8
219	3
220	6
221	6
222	7
223	3
224	8
225	1
226	8
227	6
228	7
229	2
230	7
231	2
232	9
233	9
234	5
235	3
236	1
237	7
238	5
239	9
240	3
241	8
242	6
243	6
244	1
245	5
246	3
247	7
248	2
249	8
250	8
251	1
252	7
253	9
254	9
255	4
256	4
257	8
258	9
259	1
260	4
261	2
262	2
263	1
264	9
265	2
266	8
267	8
268	7
269	8
270	2
271	2
272	6
273	1
274	6
275	5
276	1
277	1
278	5
279	1
280	7
281	8
282	3
283	6
284	1
285	1
286	9
287	1
288	9
289	3
290	2
291	7
292	6
293	8
294	5
295	5
296	8
297	5
298	8
299	3
300	5
301	5
302	8
303	2
304	3
305	8
306	4
307	3
308	6
309	2
310	6
311	5
312	9
313	2
314	3
315	7
316	4
317	9
318	2
319	9
320	9
321	2
322	4
323	6
324	3
325	6
326	5
327	9
328	4
329	8
330	5
331	6
332	3
333	5
334	5
335	2
336	3
337	7
338	2
339	2
340	9
341	9
342	1
343	5
344	8
345	6
346	9
347	9
348	7
349	6
350	8
351	2
352	2
353	8
354	7
355	3
356	3
357	9
358	6
359	6
360	7
361	4
362	5
363	3
364	2
365	5
366	2
367	6
368	9
369	7
370	9
371	8
372	9
373	8
374	5
375	4
376	8
377	8
378	1
379	7
380	2
381	1
382	8
383	2
384	1
385	8
386	2
387	4
388	2
389	2
390	7
391	8
392	8
393	1
394	4
395	5
396	1
397	5
398	7
399	2
400	2
401	3
402	8
403	8
404	3
405	1
406	5
407	1
408	4
409	4
410	1
411	2
412	6
413	2
414	5
415	6
416	5
417	3
418	9
419	1
420	9
421	8
422	5
423	4
424	9
425	8
426	8
427	6
428	3
429	4
430	3
431	7
432	9
433	4
434	5
435	9
436	1
437	8
438	1
439	2
440	8
441	9
442	3
443	4
444	5
445	2
446	2
447	1
448	9
449	3
450	7
451	3
452	1
453	3
454	4
455	7
456	2
457	1
458	8
459	9
460	1
461	1
462	1
463	1
464	5
465	3
466	2
467	5
468	4
469	7
470	6
471	9
472	9
473	7
474	5
475	3
476	1
477	6
478	1
479	1
480	1
481	6
482	8
483	7
484	9
485	4
486	7
487	2
488	7
489	3
490	5
491	3
492	4
493	3
494	5
495	4
496	1
497	4
498	8
499	6
500	3
501	5
BACKHAUL_SECTION
7	13	14	17	21	27	28	35	40	47	48	51	62	63	64	65	68	73	78	90	99	103	107	117	120	132	133	145	148	152	153	155	160	165	175	176	183	185	187	197	204	205	206	207	212	218	227	228	232	238	249	250	259	261	266	269	282	284	291	299	303	314	323	332	338	344	348	350	357	359	374	375	376	377	380	383	390	392	395	399	401	402	404	406	407	413	416	417	422	430	434	448	466	467	476	481	488	489	493	501	-1
DEPOT_SECTION
1
-1
EOF
