NAME : n501-0017
COMMENT : "Generated by pyvrp_manuel (VRPBL)"
TYPE : VRPBL
DIMENSION : 501
EDGE_WEIGHT_TYPE : EUC_2D
CAPACITY : 100
VEHICLES : 500
DISTANCE : 3000
NODE_COORD_SECTION
1	166	181
2	702	84
3	667	155
4	617	647
5	646	15
6	152	219
7	144	256
8	742	100
9	107	332
10	268	654
11	83	985
12	888	771
13	433	662
14	376	242
15	180	661
16	180	457
17	708	116
18	143	920
19	489	630
20	363	728
21	829	391
22	378	811
23	252	872
24	663	852
25	41	547
26	824	676
27	752	451
28	575	531
29	20	264
30	952	53
31	213	904
32	225	880
33	237	115
34	111	704
35	419	75
36	61	407
37	834	733
38	344	294
39	821	801
40	91	805
41	861	253
42	736	377
43	854	126
44	263	464
45	291	681
46	18	440
47	927	115
48	834	729
49	922	28
50	235	84
51	454	112
52	121	609
53	166	842
54	95	377
55	744	983
56	701	832
57	57	134
58	515	338
59	969	324
60	951	501
61	53	311
62	613	42
63	310	519
64	205	47
65	431	677
66	96	682
67	122	466
68	966	88
69	181	969
70	397	481
71	586	319
72	116	532
73	542	245
74	913	984
75	113	726
76	301	593
77	338	978
78	874	984
79	343	414
80	455	315
81	559	865
82	574	625
83	256	346
84	227	985
85	653	719
86	572	942
87	240	648
88	838	843
89	260	282
90	237	260
91	405	67
92	754	330
93	362	811
94	87	510
95	747	553
96	665	641
97	918	408
98	671	73
99	524	651
100	638	645
101	667	212
102	806	872
103	397	37
104	777	477
105	639	151
106	986	654
107	318	870
108	303	470
109	54	421
110	655	514
111	622	414
112	337	149
113	558	585
114	526	496
115	369	887
116	649	474
117	146	227
118	510	911
119	596	695
120	77	920
121	73	5
122	934	927
123	11	750
124	85	23
125	134	77
126	210	868
127	283	146
128	252	797
129	829	259
130	199	74
131	455	898
132	212	104
133	696	539
134	538	441
135	913	97
136	379	217
137	364	197
138	215	63
139	831	791
140	58	781
141	350	347
142	163	351
143	944	736
144	882	216
145	823	861
146	131	163
147	705	339
148	832	152
149	43	368
150	156	554
151	528	175
152	63	51
153	731	239
154	38	894
155	656	299
156	369	43
157	905	862
158	505	907
159	423	409
160	506	601
161	670	626
162	557	989
163	238	601
164	762	966
165	354	709
166	900	313
167	771	466
168	474	141
169	94	754
170	231	441
171	402	289
172	689	504
173	526	630
174	769	495
175	378	450
176	37	118
177	361	273
178	27	311
179	639	465
180	349	785
181	227	321
182	972	72
183	308	630
184	907	800
185	372	971
186	676	154
187	165	539
188	244	421
189	23	677
190	513	583
191	588	526
192	965	885
193	462	526
194	520	788
195	553	358
196	446	305
197	544	732
198	301	106
199	478	963
200	82	434
201	661	412
202	8	8
203	654	443
204	831	427
205	598	723
206	761	301
207	983	97
208	839	538
209	51	437
210	787	420
211	534	698
212	149	388
213	622	699
214	116	283
215	800	527
216	527	784
217	357	5
218	826	953
219	114	375
220	408	95
221	296	484
222	432	879
223	807	59
224	486	728
225	898	640
226	492	881
227	866	352
228	883	767
229	984	540
230	985	273
231	395	342
232	12	419
233	880	15
234	773	556
235	591	277
236	278	258
237	779	198
238	679	625
239	319	644
240	818	826
241	479	345
242	21	161
243	416	699
244	222	991
245	161	760
246	655	34
247	881	552
248	832	589
249	170	898
250	777	3
251	51	599
252	720	482
253	933	56
254	471	272
255	668	359
256	966	978
257	735	812
258	432	200
259	102	961
260	508	988
261	390	363
262	102	61
263	122	911
264	246	121
265	922	406
266	662	866
267	443	220
268	48	283
269	276	361
270	567	320
271	938	537
272	214	188
273	421	901
274	557	778
275	7	823
276	609	488
277	406	812
278	754	603
279	348	505
280	799	810
281	567	953
282	297	599
283	125	400
284	598	150
285	207	175
286	55	199
287	375	78
288	115	366
289	154	571
290	869	747
291	537	96
292	797	127
293	1000	505
294	394	603
295	446	989
296	970	952
297	863	890
298	781	205
299	940	76
300	163	944
301	961	886
302	365	167
303	863	869
304	129	146
305	199	266
306	655	25
307	344	591
308	988	849
309	609	281
310	641	733
311	231	583
312	526	75
313	284	700
314	874	982
315	178	205
316	62	418
317	276	560
318	181	750
319	518	433
320	326	787
321	969	137
322	867	295
323	363	358
324	690	23
325	949	526
326	188	368
327	833	530
328	249	578
329	736	17
330	512	937
331	806	465
332	770	133
333	197	190
334	311	540
335	15	148
336	395	314
337	38	286
338	7	427
339	425	87
340	517	996
341	671	657
342	380	568
343	570	584
344	800	906
345	853	680
346	259	144
347	898	930
348	575	173
349	968	641
350	455	450
351	557	26
352	207	149
353	341	211
354	923	978
355	352	592
356	679	903
357	371	898
358	933	698
359	216	585
360	940	488
361	141	510
362	35	36
363	591	193
364	861	1
365	261	744
366	93	32
367	255	105
368	511	319
369	556	891
370	826	400
371	520	303
372	217	65
373	448	563
374	825	751
375	931	896
376	677	694
377	392	625
378	322	122
379	53	313
380	164	877
381	876	100
382	842	874
383	769	515
384	737	995
385	261	618
386	792	896
387	108	983
388	455	598
389	807	22
390	951	548
391	420	67
392	351	803
393	607	217
394	142	328
395	48	507
396	362	910
397	666	299
398	217	255
399	438	310
400	10	408
401	784	439
402	21	399
403	952	445
404	481	963
405	958	723
406	927	817
407	501	660
408	166	95
409	496	932
410	589	883
411	635	275
412	12	227
413	876	195
414	858	82
415	761	929
416	196	744
417	935	759
418	551	651
419	418	984
420	341	341
421	765	694
422	88	821
423	391	957
424	360	548
425	473	63
426	607	282
427	434	746
428	787	579
429	234	66
430	822	789
431	956	812
432	664	939
433	598	161
434	646	516
435	546	768
436	153	14
437	409	932
438	760	371
439	392	254
440	249	30
441	684	719
442	137	432
443	233	300
444	26	219
445	0	576
446	210	544
447	235	958
448	795	767
449	649	413
450	80	627
451	935	983
452	866	24
453	383	345
454	403	113
455	670	17
456	256	825
457	371	938
458	861	75
459	400	966
460	927	437
461	649	916
462	413	772
463	651	365
464	27	301
465	414	64
466	317	206
467	664	314
468	756	636
469	319	739
470	976	806
471	790	671
472	523	46
473	237	624
474	623	556
475	524	622
476	336	150
477	624	989
478	854	876
479	488	92
480	251	372
481	22	386
482	984	800
483	113	786
484	592	183
485	370	15
486	580	893
487	520	796
488	720	200
489	244	103
490	898	861
491	713	14
492	731	350
493	43	268
494	754	845
495	687	273
496	671	295
497	697	68
498	914	68
499	851	98
500	680	776
501	23	38
DEMAND_SECTION
1	0
2	7
3	6
4	4
5	5
6	8
7	7
8	9
9	6
10	8
11	6
12	5
13	4
14	9
15	2
16	9
17	5
18	2
19	3
20	6
21	3
22	9
23	2
24	3
25	5
26	2
27	4
28	5
29	6
30	4
31	5
32	2
33	5
34	9
35	3
36	2
37	2
38	7
39	9
40	4
41	4
42	4
43	6
44	5
45	2
46	4
47	8
48	4
49	3
50	3
51	8
52	7
53	6
54	7
55	9
56	1
57	9
58	9
59	6
60	8
61	2
62	7
63	2
64	2
65	5
66	3
67	5
68	6
69	8
70	5
71	8
72	5
73	6
74	3
75	2
76	4
77	9
78	8
79	4
80	9
81	7
82	7
83	1
84	2
85	7
86	9
87	1
88	4
89	2
90	8
91	5
92	3
93	5
94	2
95	8
96	1
97	6
98	5
99	2
100	1
101	5
102	3
103	5
104	3
105	6
106	7
107	4
108	6
109	3
110	6
111	3
112	2
113	9
114	8
115	4
116	2
117	5
118	6
119	5
120	7
121	6
122	4
123	1
124	2
125	3
126	5
127	2
128	3
129	8
130	8
131	7
132	7
133	6
134	9
135	2
136	3
137	9
138	2
139	3
140	4
141	3
142	1
143	2
144	6
145	2
146	8
147	5
148	2
149	6
150	8
151	4
152	9
153	8
154	6
155	9
156	9
157	3
158	1
159	9
160	8
161	6
162	4
163	1
164	2
165	3
166	2
167	8
168	3
169	4
170	3
171	8
172	4
173	3
174	9
175	4
176	1
177	1
178	8
179	2
180	1
181	9
182	4
183	5
184	9
185	9
186	8
187	6
188	4
189	8
190	5
191	6
192	6
193	9
194	6
195	6
196	8
197	7
198	4
199	9
200	4
201	5
202	1
203	8
204	9
205	5
206	8
207	2
208	2
209	5
210	8
211	6
212	2
213	9
214	2
215	8
216	4
217	8
218	3
219	3
220	2
221	7
222	3
223	2
224	9
225	8
226	7
227	1
228	2
229	3
230	9
231	6
232	7
233	9
234	7
235	6
236	7
237	9
238	1
239	6
240	4
241	9
242	8
243	8
244	4
245	7
246	3
247	2
248	9
249	6
250	3
251	5
252	9
253	3
254	2
255	3
256	5
257	6
258	2
259	7
260	2
261	9
262	3
263	6
264	6
265	7
266	8
267	1
268	2
269	5
270	3
271	2
272	2
273	8
274	8
275	3
276	4
277	5
278	6
279	9
280	6
281	9
282	9
283	8
284	1
285	7
286	2
287	8
288	3
289	9
290	8
291	8
292	5
293	2
294	7
295	5
296	6
297	3
298	8
299	7
300	2
301	1
302	7
303	8
304	8
305	6
306	3
307	3
308	2
309	1
310	8
311	8
312	7
313	9
314	8
315	9
316	2
317	8
318	9
319	2
320	4
321	6
322	1
323	3
324	3
325	9
326	9
327	3
328	7
329	8
330	3
331	1
332	3
333	8
334	4
335	4
336	8
337	5
338	4
339	6
340	5
341	6
342	3
343	9
344	4
345	2
346	2
347	2
348	7
349	3
350	2
351	1
352	2
353	8
354	1
355	6
356	3
357	3
358	6
359	7
360	6
361	7
362	8
363	5
364	9
365	4
366	9
367	8
368	5
369	5
370	3
371	8
372	6
373	5
374	1
375	6
376	5
377	2
378	2
379	7
380	2
381	8
382	5
383	6
384	5
385	1
386	7
387	8
388	2
389	2
390	6
391	9
392	9
393	5
394	3
395	5
396	2
397	4
398	1
399	9
400	6
401	3
402	4
403	1
404	7
405	2
406	6
407	2
408	4
409	7
410	4
411	8
412	6
413	2
414	6
415	7
416	5
417	8
418	9
419	4
420	4
421	2
422	1
423	8
424	1
425	1
426	6
427	6
428	5
429	8
430	3
431	1
432	7
433	6
434	7
435	7
436	6
437	4
438	5
439	3
440	7
441	7
442	3
443	1
444	1
445	9
446	1
447	6
448	1
449	9
450	2
451	6
452	1
453	1
454	7
455	2
456	7
457	9
458	6
459	1
460	1
461	6
462	1
463	4
464	5
465	3
466	8
467	7
468	2
469	3
470	4
471	9
472	8
473	8
474	1
475	1
476	3
477	7
478	9
479	8
480	6
481	5
482	6
483	8
484	1
485	1
486	4
487	9
488	4
489	8
490	2
491	6
492	7
493	6
494	6
495	2
496	3
497	7
498	2
499	7
500	3
501	7
BACKHAUL_SECTION
7	13	14	17	21	27	28	35	40	47	48	51	62	63	64	65	68	73	78	90	99	103	107	117	120	132	133	145	148	152	153	155	160	165	175	176	183	185	187	197	204	205	206	207	212	218	227	228	232	238	249	250	259	261	266	269	282	284	291	299	303	314	323	332	338	344	348	350	357	359	374	375	376	377	380	383	390	392	395	399	401	402	404	406	407	413	416	417	422	430	434	448	466	467	476	481	488	489	493	501	-1
DEPOT_SECTION
1
-1
EOF
