NAME : n501-0001
COMMENT : "Generated by pyvrp_manuel (VRPBL)"
TYPE : VRPBL
DIMENSION : 501
EDGE_WEIGHT_TYPE : EUC_2D
CAPACITY : 100
VEHICLES : 500
DISTANCE : 3000
NODE_COORD_SECTION
1	322	659
2	336	663
3	637	243
4	957	685
5	602	23
6	159	626
7	274	521
8	256	426
9	603	572
10	819	515
11	55	815
12	335	304
13	530	792
14	834	380
15	332	566
16	652	551
17	527	476
18	523	601
19	705	567
20	108	609
21	705	769
22	316	868
23	701	960
24	494	752
25	520	174
26	279	280
27	267	707
28	391	274
29	427	316
30	546	37
31	961	881
32	104	483
33	958	306
34	791	775
35	182	882
36	637	165
37	163	658
38	833	360
39	260	730
40	736	278
41	464	688
42	964	131
43	882	21
44	817	657
45	852	109
46	682	502
47	743	477
48	60	477
49	200	839
50	852	569
51	72	991
52	289	825
53	62	8
54	456	314
55	795	715
56	505	711
57	511	593
58	764	776
59	794	760
60	208	975
61	613	860
62	453	709
63	262	973
64	386	119
65	936	885
66	121	171
67	277	402
68	589	535
69	775	276
70	279	1
71	160	122
72	347	68
73	344	671
74	259	898
75	78	808
76	16	886
77	960	526
78	188	199
79	418	330
80	601	439
81	953	480
82	442	390
83	603	561
84	202	520
85	851	460
86	18	35
87	667	135
88	730	630
89	128	207
90	852	566
91	507	188
92	419	106
93	673	258
94	106	426
95	146	438
96	291	346
97	550	67
98	745	809
99	863	82
100	237	547
101	566	491
102	419	20
103	72	346
104	29	954
105	891	944
106	795	289
107	414	454
108	368	939
109	968	73
110	765	482
111	476	660
112	546	744
113	461	973
114	186	522
115	761	376
116	311	530
117	134	165
118	768	644
119	566	802
120	738	375
121	344	401
122	939	183
123	564	90
124	709	812
125	711	339
126	290	640
127	948	882
128	497	394
129	864	473
130	721	745
131	917	291
132	435	339
133	32	797
134	843	342
135	136	283
136	594	37
137	889	108
138	595	139
139	383	343
140	529	100
141	312	539
142	163	885
143	230	963
144	756	686
145	658	480
146	28	299
147	948	599
148	612	94
149	591	594
150	114	856
151	298	161
152	425	185
153	160	982
154	838	602
155	326	8
156	927	699
157	155	80
158	823	849
159	809	578
160	685	869
161	739	106
162	272	980
163	895	693
164	722	720
165	954	984
166	110	806
167	700	835
168	409	234
169	294	300
170	287	652
171	773	857
172	742	972
173	686	648
174	118	760
175	377	821
176	839	578
177	125	741
178	224	753
179	922	398
180	127	153
181	463	498
182	633	34
183	513	52
184	799	565
185	845	666
186	939	938
187	622	146
188	913	78
189	306	34
190	30	464
191	243	150
192	963	807
193	254	614
194	256	56
195	372	305
196	340	66
197	85	172
198	343	186
199	183	760
200	111	41
201	157	938
202	231	891
203	203	289
204	754	35
205	966	529
206	18	22
207	82	530
208	685	423
209	119	336
210	128	822
211	762	955
212	634	270
213	780	451
214	104	7
215	187	997
216	216	409
217	260	572
218	996	542
219	112	836
220	799	814
221	783	164
222	346	754
223	918	606
224	143	242
225	893	302
226	890	636
227	869	977
228	407	890
229	51	617
230	790	393
231	757	202
232	269	532
233	305	984
234	850	651
235	681	477
236	141	786
237	921	769
238	825	631
239	934	599
240	675	268
241	938	805
242	848	14
243	312	918
244	189	438
245	445	145
246	200	97
247	175	181
248	24	884
249	844	173
250	12	253
251	819	469
252	933	932
253	649	936
254	736	959
255	376	146
256	905	139
257	797	412
258	62	175
259	828	491
260	405	809
261	877	354
262	875	943
263	909	830
264	340	619
265	186	737
266	136	629
267	453	305
268	719	701
269	315	876
270	370	745
271	150	837
272	968	330
273	310	756
274	81	545
275	588	137
276	424	735
277	129	754
278	716	198
279	113	992
280	651	862
281	307	135
282	50	479
283	578	573
284	535	345
285	465	76
286	383	103
287	72	420
288	827	548
289	952	264
290	374	623
291	542	540
292	792	883
293	867	252
294	743	651
295	988	790
296	824	635
297	266	603
298	422	539
299	32	384
300	451	220
301	966	895
302	110	175
303	156	431
304	34	58
305	116	930
306	826	200
307	649	685
308	286	91
309	142	948
310	251	973
311	426	984
312	278	610
313	516	720
314	36	857
315	63	562
316	767	262
317	102	415
318	603	242
319	32	534
320	739	423
321	609	904
322	602	304
323	291	980
324	450	6
325	313	448
326	69	833
327	237	728
328	127	267
329	137	943
330	813	193
331	790	1
332	613	261
333	718	198
334	332	380
335	690	981
336	597	692
337	541	503
338	676	321
339	246	678
340	549	104
341	868	672
342	773	512
343	110	874
344	225	592
345	488	25
346	249	763
347	367	461
348	197	529
349	310	876
350	515	603
351	94	301
352	161	971
353	466	754
354	519	943
355	264	484
356	876	229
357	737	13
358	300	641
359	45	29
360	532	383
361	269	944
362	758	221
363	449	336
364	355	448
365	192	9
366	625	56
367	153	731
368	262	983
369	601	255
370	798	720
371	766	117
372	566	759
373	409	234
374	791	323
375	682	798
376	193	318
377	154	442
378	971	273
379	607	887
380	515	996
381	578	824
382	849	754
383	299	508
384	464	895
385	910	459
386	744	58
387	387	909
388	56	337
389	549	963
390	109	282
391	714	311
392	311	378
393	127	684
394	693	631
395	359	968
396	345	997
397	644	894
398	196	423
399	6	679
400	230	670
401	686	872
402	938	827
403	443	415
404	576	130
405	451	349
406	147	195
407	706	284
408	653	817
409	153	750
410	977	598
411	575	943
412	76	268
413	44	675
414	464	428
415	886	375
416	643	724
417	776	808
418	913	744
419	27	295
420	198	696
421	971	759
422	771	641
423	803	723
424	312	448
425	861	31
426	259	728
427	418	969
428	362	260
429	311	630
430	802	954
431	311	288
432	173	938
433	403	987
434	188	466
435	915	301
436	133	703
437	696	606
438	736	559
439	804	948
440	942	856
441	340	176
442	422	663
443	98	46
444	549	581
445	610	62
446	168	349
447	759	547
448	190	508
449	951	688
450	583	423
451	468	637
452	88	348
453	53	20
454	120	551
455	158	245
456	347	598
457	690	561
458	932	192
459	373	566
460	343	827
461	117	851
462	954	504
463	953	606
464	916	713
465	481	206
466	392	867
467	656	648
468	974	403
469	583	491
470	47	104
471	923	800
472	206	621
473	118	64
474	548	144
475	717	978
476	925	797
477	46	661
478	369	707
479	28	765
480	500	277
481	828	313
482	911	117
483	714	821
484	312	128
485	672	707
486	990	199
487	96	118
488	761	361
489	631	210
490	918	222
491	91	413
492	500	136
493	27	818
494	62	894
495	240	104
496	472	923
497	87	869
498	840	963
499	785	720
500	996	140
501	273	486
DEMAND_SECTION
1	0
2	9
3	2
4	4
5	3
6	6
7	4
8	1
9	3
10	8
11	8
12	1
13	6
14	6
15	2
16	8
17	5
18	9
19	9
20	1
21	8
22	5
23	4
24	4
25	9
26	6
27	5
28	5
29	5
30	3
31	6
32	2
33	6
34	1
35	6
36	9
37	9
38	3
39	8
40	6
41	9
42	3
43	7
44	5
45	6
46	4
47	1
48	4
49	7
50	4
51	8
52	7
53	8
54	8
55	7
56	8
57	9
58	3
59	3
60	1
61	6
62	5
63	8
64	7
65	6
66	9
67	3
68	8
69	2
70	3
71	6
72	8
73	6
74	4
75	3
76	1
77	7
78	7
79	2
80	3
81	1
82	1
83	6
84	5
85	5
86	3
87	4
88	4
89	9
90	9
91	4
92	2
93	1
94	1
95	6
96	5
97	7
98	8
99	4
100	1
101	3
102	9
103	5
104	9
105	8
106	4
107	6
108	5
109	9
110	7
111	9
112	6
113	4
114	9
115	6
116	3
117	3
118	5
119	9
120	4
121	6
122	3
123	1
124	3
125	7
126	8
127	2
128	6
129	3
130	1
131	7
132	8
133	9
134	7
135	8
136	8
137	6
138	1
139	8
140	1
141	6
142	5
143	4
144	3
145	8
146	3
147	5
148	3
149	1
150	5
151	3
152	1
153	2
154	6
155	1
156	3
157	8
158	6
159	4
160	3
161	9
162	5
163	2
164	9
165	2
166	2
167	9
168	3
169	7
170	1
171	2
172	4
173	5
174	9
175	7
176	7
177	2
178	5
179	6
180	9
181	4
182	7
183	5
184	7
185	1
186	2
187	2
188	8
189	2
190	4
191	2
192	2
193	5
194	2
195	3
196	1
197	6
198	9
199	1
200	1
201	3
202	2
203	3
204	2
205	6
206	7
207	4
208	7
209	7
210	7
211	6
212	6
213	5
214	1
215	9
216	4
217	7
218	4
219	9
220	4
221	4
222	2
223	7
224	7
225	7
226	2
227	7
228	6
229	6
230	9
231	7
232	3
233	1
234	8
235	4
236	7
237	8
238	6
239	4
240	6
241	1
242	7
243	2
244	4
245	8
246	1
247	6
248	8
249	1
250	3
251	3
252	1
253	2
254	4
255	8
256	2
257	7
258	7
259	9
260	2
261	6
262	5
263	2
264	5
265	6
266	9
267	8
268	6
269	8
270	9
271	8
272	2
273	5
274	1
275	9
276	7
277	8
278	4
279	9
280	6
281	1
282	6
283	1
284	4
285	3
286	3
287	6
288	7
289	5
290	7
291	9
292	8
293	9
294	2
295	7
296	9
297	2
298	2
299	7
300	1
301	6
302	8
303	2
304	2
305	3
306	9
307	3
308	4
309	5
310	4
311	4
312	6
313	9
314	6
315	8
316	9
317	3
318	4
319	6
320	6
321	7
322	9
323	1
324	9
325	1
326	4
327	2
328	4
329	2
330	9
331	9
332	4
333	1
334	4
335	1
336	1
337	9
338	2
339	3
340	4
341	3
342	1
343	8
344	7
345	9
346	7
347	5
348	1
349	1
350	4
351	1
352	5
353	1
354	7
355	7
356	4
357	4
358	6
359	8
360	7
361	1
362	8
363	1
364	8
365	6
366	3
367	7
368	9
369	9
370	8
371	3
372	9
373	1
374	9
375	8
376	8
377	9
378	6
379	8
380	2
381	8
382	9
383	1
384	8
385	8
386	3
387	2
388	8
389	9
390	7
391	5
392	9
393	6
394	9
395	6
396	9
397	3
398	2
399	3
400	6
401	1
402	4
403	9
404	8
405	4
406	8
407	9
408	5
409	7
410	5
411	8
412	9
413	1
414	5
415	6
416	6
417	3
418	1
419	9
420	2
421	1
422	1
423	9
424	6
425	3
426	4
427	1
428	7
429	3
430	1
431	4
432	5
433	8
434	2
435	2
436	2
437	9
438	3
439	6
440	8
441	5
442	2
443	5
444	4
445	4
446	3
447	7
448	4
449	1
450	4
451	5
452	4
453	4
454	1
455	6
456	5
457	9
458	5
459	1
460	2
461	5
462	7
463	7
464	1
465	7
466	5
467	4
468	4
469	3
470	9
471	5
472	6
473	7
474	5
475	9
476	6
477	9
478	7
479	8
480	9
481	6
482	8
483	4
484	2
485	3
486	3
487	5
488	7
489	8
490	3
491	4
492	8
493	9
494	1
495	8
496	8
497	3
498	9
499	4
500	9
501	2
BACKHAUL_SECTION
7	13	14	17	21	27	28	35	40	47	48	51	62	63	64	65	68	73	78	90	99	103	107	117	120	132	133	145	148	152	153	155	160	165	175	176	183	185	187	197	204	205	206	207	212	218	227	228	232	238	249	250	259	261	266	269	282	284	291	299	303	314	323	332	338	344	348	350	357	359	374	375	376	377	380	383	390	392	395	399	401	402	404	406	407	413	416	417	422	430	434	448	466	467	476	481	488	489	493	501	-1
DEPOT_SECTION
1
-1
EOF
