NAME : n501-0036
COMMENT : "Generated by pyvrp_manuel (VRPBL)"
TYPE : VRPBL
DIMENSION : 501
EDGE_WEIGHT_TYPE : EUC_2D
CAPACITY : 100
VEHICLES : 500
DISTANCE : 3000
NODE_COORD_SECTION
1	513	128
2	852	558
3	134	869
4	838	809
5	699	954
6	754	162
7	441	979
8	290	672
9	785	79
10	803	555
11	483	479
12	975	364
13	41	982
14	599	838
15	433	257
16	234	736
17	259	661
18	39	142
19	313	134
20	508	535
21	990	481
22	724	352
23	916	22
24	511	407
25	653	563
26	869	295
27	58	239
28	601	430
29	924	939
30	919	221
31	621	644
32	353	467
33	29	100
34	375	867
35	745	347
36	854	445
37	99	542
38	263	561
39	261	960
40	372	535
41	616	680
42	808	613
43	439	913
44	758	538
45	542	572
46	174	725
47	329	122
48	632	219
49	651	88
50	814	114
51	195	863
52	711	652
53	755	205
54	493	534
55	640	15
56	156	67
57	154	903
58	605	645
59	612	792
60	85	895
61	268	809
62	741	320
63	651	657
64	930	213
65	699	767
66	713	602
67	691	158
68	909	874
69	589	260
70	427	130
71	624	727
72	290	845
73	862	948
74	386	645
75	596	248
76	111	882
77	334	608
78	141	622
79	729	291
80	570	93
81	226	623
82	471	399
83	525	573
84	131	211
85	880	326
86	953	613
87	790	872
88	606	204
89	378	187
90	629	354
91	126	98
92	778	731
93	872	944
94	913	525
95	604	24
96	709	184
97	235	396
98	544	924
99	98	329
100	612	746
101	961	191
102	292	812
103	708	223
104	659	5
105	923	633
106	18	999
107	717	420
108	845	168
109	972	353
110	761	174
111	408	217
112	263	446
113	894	982
114	318	758
115	99	580
116	81	233
117	892	613
118	373	85
119	322	231
120	980	269
121	107	620
122	178	975
123	854	262
124	993	672
125	568	961
126	83	736
127	534	605
128	94	413
129	180	629
130	73	466
131	999	219
132	36	160
133	300	758
134	464	272
135	971	27
136	875	366
137	533	746
138	269	191
139	465	344
140	926	524
141	736	120
142	783	930
143	780	570
144	324	544
145	116	335
146	571	1
147	929	87
148	85	878
149	822	359
150	978	234
151	566	579
152	973	88
153	79	855
154	400	312
155	871	753
156	336	509
157	884	169
158	299	487
159	334	900
160	39	208
161	146	382
162	276	628
163	963	39
164	181	246
165	395	840
166	306	735
167	478	720
168	968	204
169	987	881
170	945	516
171	479	287
172	695	671
173	555	519
174	430	471
175	494	291
176	593	792
177	7	541
178	169	250
179	836	467
180	220	181
181	522	739
182	209	804
183	509	109
184	187	910
185	284	890
186	309	735
187	774	573
188	459	46
189	849	87
190	388	648
191	598	583
192	296	785
193	121	319
194	712	231
195	920	569
196	550	552
197	3	755
198	396	101
199	546	878
200	274	18
201	145	109
202	46	130
203	129	685
204	495	864
205	455	259
206	629	538
207	105	401
208	126	326
209	407	797
210	444	706
211	865	637
212	771	569
213	932	319
214	360	735
215	574	503
216	577	587
217	213	735
218	970	549
219	788	820
220	137	463
221	284	760
222	173	232
223	209	565
224	271	895
225	825	24
226	863	909
227	337	116
228	77	603
229	130	0
230	142	855
231	905	561
232	471	222
233	490	90
234	90	804
235	870	922
236	494	588
237	936	732
238	57	92
239	81	904
240	755	140
241	471	37
242	173	650
243	759	843
244	721	830
245	275	198
246	226	381
247	54	874
248	712	203
249	71	514
250	574	400
251	118	132
252	96	499
253	970	916
254	704	622
255	518	649
256	546	593
257	880	355
258	324	797
259	242	849
260	400	571
261	853	154
262	728	748
263	794	413
264	102	880
265	777	250
266	915	275
267	81	383
268	798	62
269	233	185
270	340	661
271	888	973
272	23	924
273	5	200
274	9	279
275	775	896
276	231	771
277	685	86
278	808	701
279	59	781
280	958	866
281	721	338
282	120	753
283	931	529
284	346	511
285	27	692
286	263	496
287	930	942
288	576	463
289	469	9
290	561	1
291	302	421
292	16	756
293	31	321
294	769	37
295	776	612
296	748	576
297	266	246
298	672	717
299	421	762
300	315	73
301	250	856
302	293	655
303	123	422
304	10	265
305	69	561
306	445	894
307	26	445
308	855	239
309	54	579
310	959	726
311	159	678
312	426	812
313	845	285
314	590	920
315	75	914
316	429	660
317	822	604
318	729	481
319	692	462
320	640	398
321	158	494
322	92	317
323	744	800
324	727	928
325	719	658
326	381	919
327	723	27
328	976	477
329	492	57
330	585	832
331	817	647
332	182	909
333	205	141
334	960	781
335	721	633
336	102	532
337	451	331
338	538	231
339	656	962
340	811	40
341	620	274
342	179	820
343	578	798
344	969	723
345	473	472
346	961	104
347	850	42
348	259	154
349	574	698
350	815	782
351	261	27
352	860	323
353	605	976
354	921	328
355	264	438
356	185	191
357	825	634
358	101	593
359	880	40
360	811	204
361	68	35
362	560	73
363	480	414
364	155	397
365	270	82
366	631	459
367	992	778
368	865	933
369	434	349
370	210	162
371	455	111
372	492	255
373	396	264
374	279	160
375	551	413
376	679	707
377	116	40
378	156	72
379	694	392
380	724	515
381	706	720
382	883	899
383	350	962
384	301	983
385	410	478
386	606	513
387	156	653
388	904	853
389	392	504
390	491	380
391	960	866
392	346	666
393	158	277
394	628	716
395	965	692
396	875	553
397	236	427
398	319	894
399	261	226
400	926	890
401	468	296
402	472	217
403	545	39
404	194	907
405	269	511
406	988	17
407	699	610
408	435	79
409	735	117
410	399	949
411	641	164
412	755	279
413	688	761
414	205	459
415	618	250
416	248	29
417	752	577
418	621	655
419	930	298
420	861	855
421	460	23
422	28	294
423	568	293
424	158	108
425	233	467
426	554	467
427	500	599
428	134	911
429	394	375
430	531	821
431	119	421
432	479	50
433	100	321
434	671	653
435	653	737
436	434	52
437	666	782
438	169	931
439	355	21
440	582	817
441	569	609
442	834	981
443	375	580
444	385	789
445	390	40
446	255	584
447	140	532
448	528	431
449	591	773
450	395	112
451	298	749
452	841	25
453	338	59
454	466	27
455	162	306
456	935	754
457	782	188
458	246	550
459	36	455
460	618	742
461	65	907
462	473	241
463	832	502
464	420	22
465	161	144
466	508	645
467	498	832
468	852	255
469	879	286
470	279	534
471	990	171
472	530	26
473	938	377
474	776	247
475	960	945
476	917	455
477	947	29
478	202	795
479	808	107
480	786	137
481	379	813
482	957	115
483	217	165
484	830	422
485	358	789
486	691	506
487	168	133
488	834	61
489	550	841
490	254	112
491	592	177
492	419	401
493	485	327
494	761	978
495	541	710
496	191	576
497	281	174
498	718	317
499	686	582
500	507	163
501	577	430
DEMAND_SECTION
1	0
2	5
3	8
4	6
5	9
6	9
7	1
8	6
9	3
10	4
11	4
12	9
13	7
14	2
15	6
16	4
17	2
18	7
19	9
20	1
21	4
22	5
23	1
24	8
25	5
26	7
27	3
28	2
29	8
30	7
31	7
32	5
33	9
34	4
35	7
36	3
37	1
38	1
39	7
40	7
41	2
42	8
43	8
44	2
45	7
46	3
47	5
48	2
49	4
50	3
51	2
52	4
53	5
54	9
55	1
56	4
57	7
58	5
59	2
60	5
61	4
62	4
63	1
64	9
65	7
66	5
67	4
68	8
69	6
70	5
71	2
72	9
73	6
74	3
75	3
76	4
77	1
78	9
79	8
80	5
81	5
82	6
83	2
84	2
85	1
86	5
87	3
88	6
89	9
90	7
91	3
92	5
93	5
94	3
95	1
96	5
97	7
98	9
99	9
100	2
101	6
102	7
103	1
104	9
105	3
106	3
107	9
108	7
109	5
110	3
111	3
112	1
113	8
114	5
115	3
116	9
117	9
118	2
119	7
120	3
121	2
122	4
123	1
124	7
125	3
126	6
127	5
128	4
129	7
130	7
131	9
132	2
133	5
134	4
135	8
136	7
137	3
138	1
139	3
140	5
141	5
142	2
143	5
144	3
145	3
146	6
147	8
148	3
149	8
150	1
151	6
152	8
153	2
154	7
155	4
156	2
157	5
158	1
159	4
160	1
161	3
162	6
163	7
164	8
165	3
166	2
167	4
168	5
169	5
170	8
171	5
172	3
173	2
174	8
175	8
176	8
177	5
178	5
179	1
180	6
181	6
182	1
183	8
184	3
185	2
186	4
187	2
188	2
189	2
190	7
191	5
192	1
193	8
194	4
195	2
196	1
197	4
198	9
199	1
200	1
201	3
202	9
203	7
204	1
205	6
206	3
207	7
208	7
209	5
210	9
211	1
212	1
213	7
214	4
215	6
216	3
217	2
218	4
219	4
220	5
221	6
222	9
223	8
224	6
225	9
226	3
227	2
228	6
229	3
230	8
231	3
232	4
233	7
234	3
235	4
236	2
237	5
238	1
239	2
240	2
241	6
242	2
243	4
244	7
245	1
246	4
247	5
248	8
249	5
250	5
251	2
252	1
253	2
254	4
255	4
256	4
257	7
258	8
259	3
260	5
261	8
262	2
263	8
264	1
265	4
266	3
267	7
268	5
269	9
270	7
271	1
272	5
273	9
274	6
275	7
276	6
277	8
278	6
279	8
280	8
281	3
282	1
283	2
284	7
285	7
286	1
287	5
288	3
289	9
290	1
291	7
292	4
293	5
294	7
295	3
296	1
297	7
298	4
299	2
300	1
301	8
302	1
303	2
304	6
305	8
306	9
307	9
308	9
309	9
310	3
311	7
312	3
313	3
314	3
315	8
316	2
317	7
318	7
319	6
320	7
321	4
322	1
323	2
324	2
325	2
326	4
327	3
328	2
329	8
330	1
331	6
332	2
333	9
334	5
335	6
336	4
337	4
338	3
339	9
340	4
341	4
342	3
343	3
344	7
345	2
346	7
347	3
348	3
349	7
350	1
351	2
352	4
353	2
354	9
355	3
356	3
357	6
358	8
359	4
360	4
361	9
362	2
363	6
364	7
365	5
366	8
367	1
368	4
369	6
370	5
371	9
372	3
373	1
374	4
375	8
376	4
377	7
378	8
379	6
380	4
381	4
382	8
383	4
384	1
385	5
386	8
387	9
388	5
389	7
390	7
391	3
392	1
393	7
394	1
395	7
396	3
397	5
398	4
399	8
400	7
401	6
402	8
403	6
404	2
405	2
406	8
407	8
408	3
409	1
410	1
411	1
412	9
413	1
414	8
415	5
416	9
417	4
418	3
419	1
420	6
421	1
422	8
423	5
424	4
425	2
426	9
427	2
428	8
429	7
430	4
431	3
432	8
433	2
434	3
435	1
436	5
437	4
438	1
439	9
440	1
441	7
442	9
443	5
444	5
445	4
446	4
447	3
448	6
449	8
450	8
451	7
452	4
453	9
454	1
455	4
456	6
457	7
458	5
459	6
460	6
461	6
462	9
463	8
464	8
465	9
466	4
467	4
468	9
469	5
470	4
471	8
472	6
473	7
474	3
475	3
476	1
477	5
478	2
479	9
480	3
481	6
482	4
483	4
484	2
485	4
486	3
487	6
488	6
489	2
490	4
491	5
492	1
493	2
494	5
495	8
496	6
497	9
498	8
499	4
500	9
501	4
BACKHAUL_SECTION
7	13	14	17	21	27	28	35	40	47	48	51	62	63	64	65	68	73	78	90	99	103	107	117	120	132	133	145	148	152	153	155	160	165	175	176	183	185	187	197	204	205	206	207	212	218	227	228	232	238	249	250	259	261	266	269	282	284	291	299	303	314	323	332	338	344	348	350	357	359	374	375	376	377	380	383	390	392	395	399	401	402	404	406	407	413	416	417	422	430	434	448	466	467	476	481	488	489	493	501	-1
DEPOT_SECTION
1
-1
EOF
