NAME : n501-0048
COMMENT : "Generated by pyvrp_manuel (VRPBL)"
TYPE : VRPBL
DIMENSION : 501
EDGE_WEIGHT_TYPE : EUC_2D
CAPACITY : 100
VEHICLES : 500
DISTANCE : 3000
NODE_COORD_SECTION
1	789	428
2	160	330
3	205	972
4	204	193
5	625	116
6	419	362
7	693	721
8	682	510
9	302	916
10	943	984
11	653	208
12	868	437
13	617	489
14	69	816
15	143	306
16	207	95
17	461	94
18	719	896
19	76	859
20	741	428
21	141	569
22	188	709
23	207	812
24	243	55
25	766	898
26	21	875
27	991	383
28	139	240
29	892	754
30	222	762
31	763	443
32	900	806
33	75	580
34	49	20
35	370	352
36	607	129
37	166	572
38	57	268
39	846	765
40	272	261
41	928	190
42	4	778
43	671	8
44	259	962
45	33	226
46	612	710
47	930	857
48	335	137
49	929	588
50	13	527
51	171	203
52	296	733
53	151	947
54	312	260
55	62	92
56	699	461
57	817	693
58	944	425
59	188	949
60	410	267
61	309	601
62	957	823
63	591	583
64	669	868
65	9	130
66	613	649
67	973	175
68	709	657
69	442	665
70	624	570
71	849	549
72	848	88
73	832	601
74	440	83
75	71	333
76	555	91
77	468	661
78	984	532
79	3	14
80	414	153
81	676	956
82	329	932
83	563	667
84	91	171
85	950	577
86	581	899
87	221	457
88	422	724
89	785	606
90	416	732
91	69	356
92	907	812
93	992	373
94	97	545
95	654	671
96	233	147
97	471	484
98	95	298
99	125	903
100	254	429
101	765	399
102	787	306
103	819	611
104	499	193
105	545	732
106	216	292
107	955	700
108	191	42
109	821	19
110	352	891
111	35	883
112	434	496
113	496	5
114	80	923
115	425	635
116	807	687
117	474	446
118	649	258
119	777	101
120	768	248
121	107	945
122	409	344
123	388	908
124	64	880
125	165	219
126	219	815
127	621	579
128	22	887
129	756	949
130	156	646
131	943	981
132	818	865
133	461	862
134	385	738
135	489	176
136	47	676
137	115	825
138	284	748
139	606	697
140	153	810
141	842	3
142	66	279
143	943	442
144	565	361
145	150	655
146	777	428
147	762	276
148	386	203
149	442	560
150	678	311
151	73	27
152	400	676
153	169	948
154	806	395
155	712	648
156	267	4
157	178	83
158	781	497
159	393	249
160	136	572
161	90	182
162	429	239
163	333	825
164	928	516
165	262	2
166	432	766
167	223	857
168	619	403
169	872	285
170	641	379
171	917	374
172	301	656
173	661	254
174	875	605
175	493	844
176	766	295
177	181	685
178	820	15
179	426	527
180	413	622
181	719	498
182	744	854
183	141	89
184	409	770
185	625	908
186	559	745
187	658	205
188	111	491
189	375	612
190	546	41
191	948	179
192	355	510
193	35	757
194	614	317
195	381	937
196	572	665
197	797	778
198	588	956
199	512	199
200	269	896
201	366	766
202	587	448
203	174	131
204	899	972
205	589	651
206	13	956
207	264	571
208	999	976
209	248	277
210	568	814
211	512	105
212	778	984
213	417	187
214	951	745
215	562	579
216	575	256
217	588	585
218	666	895
219	847	398
220	799	356
221	61	40
222	744	441
223	240	528
224	807	147
225	409	655
226	483	745
227	770	192
228	690	410
229	164	606
230	89	135
231	46	871
232	957	727
233	572	732
234	722	543
235	780	952
236	641	146
237	692	844
238	619	313
239	359	537
240	384	459
241	194	926
242	826	357
243	526	508
244	508	141
245	768	609
246	184	476
247	599	207
248	216	234
249	66	354
250	546	709
251	558	705
252	940	376
253	8	441
254	76	511
255	348	14
256	25	403
257	313	940
258	604	378
259	526	884
260	732	201
261	257	288
262	266	230
263	973	846
264	218	563
265	515	264
266	501	107
267	296	270
268	196	750
269	25	802
270	166	5
271	883	623
272	165	893
273	247	584
274	708	601
275	503	719
276	433	999
277	964	534
278	642	7
279	97	830
280	651	733
281	338	590
282	46	253
283	179	310
284	645	738
285	148	302
286	153	109
287	5	166
288	404	864
289	875	626
290	993	322
291	266	505
292	866	481
293	464	725
294	446	535
295	607	490
296	98	243
297	987	455
298	536	762
299	60	518
300	396	774
301	299	810
302	509	937
303	147	30
304	646	179
305	214	200
306	266	514
307	288	540
308	480	921
309	683	640
310	375	604
311	973	306
312	673	550
313	16	120
314	453	592
315	255	329
316	178	775
317	676	112
318	850	212
319	376	820
320	708	727
321	716	148
322	482	144
323	745	403
324	641	481
325	31	242
326	217	407
327	919	733
328	891	823
329	143	249
330	119	155
331	262	575
332	61	35
333	802	762
334	18	720
335	669	128
336	578	660
337	945	528
338	535	963
339	960	449
340	549	72
341	343	817
342	377	243
343	981	795
344	142	200
345	147	61
346	352	519
347	60	682
348	4	457
349	710	938
350	887	537
351	483	623
352	525	269
353	25	497
354	374	111
355	911	84
356	331	185
357	241	570
358	738	992
359	225	533
360	441	922
361	449	902
362	373	624
363	889	643
364	732	565
365	42	732
366	540	622
367	321	571
368	914	358
369	11	825
370	299	20
371	365	297
372	476	995
373	556	835
374	763	76
375	543	897
376	689	578
377	4	419
378	678	678
379	977	187
380	952	933
381	370	484
382	617	867
383	749	212
384	839	216
385	753	191
386	130	240
387	669	421
388	113	856
389	240	176
390	649	188
391	976	497
392	152	544
393	499	153
394	123	602
395	319	615
396	833	470
397	962	702
398	793	94
399	626	993
400	946	6
401	406	785
402	743	934
403	315	497
404	107	305
405	543	413
406	682	931
407	124	316
408	7	727
409	284	123
410	443	643
411	138	976
412	440	449
413	901	451
414	353	534
415	723	121
416	228	482
417	757	574
418	942	400
419	162	475
420	845	873
421	879	582
422	317	59
423	237	608
424	309	829
425	390	424
426	187	964
427	91	105
428	749	921
429	718	749
430	756	982
431	957	965
432	445	742
433	972	836
434	879	240
435	737	128
436	557	631
437	732	640
438	249	357
439	637	262
440	931	192
441	86	221
442	774	483
443	765	381
444	39	564
445	595	430
446	294	832
447	837	271
448	933	153
449	604	119
450	888	375
451	538	603
452	662	23
453	435	39
454	541	235
455	619	0
456	559	839
457	356	749
458	965	343
459	683	709
460	610	876
461	909	636
462	217	111
463	452	505
464	12	981
465	721	75
466	68	834
467	796	195
468	959	615
469	337	584
470	163	175
471	591	30
472	249	411
473	308	438
474	680	900
475	345	735
476	586	963
477	939	463
478	916	336
479	219	834
480	421	357
481	907	50
482	35	394
483	212	17
484	255	189
485	542	221
486	103	881
487	828	554
488	220	478
489	934	466
490	679	819
491	468	833
492	504	981
493	882	187
494	669	605
495	202	474
496	773	998
497	697	44
498	141	361
499	569	555
500	962	787
501	420	574
DEMAND_SECTION
1	0
2	7
3	4
4	5
5	3
6	5
7	2
8	8
9	4
10	3
11	5
12	5
13	7
14	1
15	6
16	2
17	1
18	7
19	8
20	1
21	3
22	1
23	6
24	1
25	9
26	1
27	9
28	6
29	2
30	9
31	5
32	1
33	7
34	4
35	4
36	9
37	6
38	4
39	1
40	1
41	6
42	6
43	7
44	1
45	4
46	8
47	5
48	9
49	2
50	4
51	5
52	4
53	3
54	8
55	3
56	5
57	1
58	6
59	5
60	9
61	9
62	1
63	7
64	7
65	8
66	3
67	1
68	7
69	7
70	8
71	6
72	4
73	3
74	9
75	8
76	2
77	7
78	9
79	5
80	8
81	6
82	3
83	8
84	7
85	8
86	3
87	8
88	3
89	7
90	7
91	1
92	8
93	2
94	4
95	3
96	1
97	2
98	3
99	6
100	8
101	5
102	2
103	3
104	4
105	8
106	2
107	7
108	5
109	3
110	8
111	6
112	1
113	8
114	6
115	8
116	1
117	8
118	9
119	1
120	7
121	1
122	7
123	1
124	8
125	6
126	5
127	2
128	7
129	6
130	6
131	1
132	1
133	9
134	3
135	7
136	5
137	2
138	2
139	9
140	1
141	6
142	2
143	3
144	2
145	3
146	9
147	6
148	8
149	8
150	5
151	2
152	8
153	6
154	6
155	9
156	3
157	7
158	9
159	5
160	1
161	2
162	8
163	3
164	3
165	4
166	6
167	8
168	2
169	5
170	5
171	9
172	2
173	5
174	5
175	6
176	7
177	6
178	4
179	4
180	8
181	9
182	2
183	8
184	7
185	2
186	3
187	8
188	5
189	8
190	7
191	1
192	6
193	9
194	5
195	9
196	4
197	5
198	2
199	1
200	4
201	9
202	6
203	4
204	4
205	3
206	8
207	4
208	8
209	6
210	2
211	9
212	5
213	6
214	1
215	8
216	8
217	6
218	6
219	5
220	9
221	6
222	1
223	1
224	3
225	1
226	1
227	4
228	6
229	7
230	6
231	8
232	1
233	4
234	6
235	2
236	7
237	5
238	9
239	3
240	7
241	8
242	6
243	5
244	1
245	2
246	1
247	5
248	3
249	9
250	1
251	3
252	5
253	4
254	6
255	7
256	7
257	2
258	9
259	2
260	6
261	2
262	1
263	4
264	9
265	3
266	5
267	3
268	3
269	4
270	6
271	4
272	6
273	9
274	2
275	7
276	7
277	4
278	6
279	2
280	8
281	3
282	1
283	8
284	9
285	6
286	2
287	8
288	3
289	7
290	9
291	1
292	3
293	6
294	5
295	4
296	5
297	7
298	5
299	8
300	5
301	6
302	2
303	7
304	9
305	2
306	1
307	2
308	6
309	8
310	6
311	6
312	1
313	3
314	2
315	7
316	5
317	1
318	4
319	6
320	7
321	3
322	4
323	5
324	3
325	7
326	8
327	5
328	7
329	4
330	8
331	2
332	2
333	1
334	4
335	6
336	7
337	4
338	8
339	6
340	9
341	9
342	7
343	7
344	2
345	1
346	8
347	7
348	2
349	7
350	4
351	6
352	7
353	8
354	9
355	4
356	7
357	8
358	1
359	9
360	4
361	1
362	5
363	6
364	7
365	1
366	6
367	2
368	7
369	3
370	8
371	8
372	6
373	9
374	1
375	9
376	4
377	6
378	7
379	7
380	4
381	8
382	3
383	6
384	8
385	5
386	5
387	5
388	2
389	7
390	8
391	8
392	7
393	4
394	5
395	7
396	4
397	2
398	7
399	2
400	3
401	7
402	7
403	9
404	3
405	7
406	3
407	8
408	9
409	6
410	5
411	4
412	6
413	8
414	7
415	3
416	6
417	4
418	8
419	5
420	7
421	8
422	4
423	8
424	3
425	3
426	5
427	2
428	9
429	1
430	4
431	4
432	2
433	9
434	5
435	6
436	1
437	9
438	2
439	1
440	5
441	4
442	7
443	9
444	3
445	2
446	2
447	1
448	8
449	1
450	4
451	9
452	3
453	6
454	1
455	6
456	2
457	7
458	2
459	7
460	4
461	3
462	8
463	2
464	9
465	2
466	9
467	5
468	3
469	6
470	7
471	4
472	3
473	4
474	1
475	8
476	2
477	1
478	8
479	7
480	9
481	2
482	1
483	9
484	2
485	5
486	7
487	9
488	1
489	5
490	3
491	8
492	9
493	4
494	3
495	2
496	7
497	6
498	6
499	5
500	2
501	8
BACKHAUL_SECTION
7	13	14	17	21	27	28	35	40	47	48	51	62	63	64	65	68	73	78	90	99	103	107	117	120	132	133	145	148	152	153	155	160	165	175	176	183	185	187	197	204	205	206	207	212	218	227	228	232	238	249	250	259	261	266	269	282	284	291	299	303	314	323	332	338	344	348	350	357	359	374	375	376	377	380	383	390	392	395	399	401	402	404	406	407	413	416	417	422	430	434	448	466	467	476	481	488	489	493	501	-1
DEPOT_SECTION
1
-1
EOF
