NAME : n501-0009
COMMENT : "Generated by pyvrp_manuel (VRPBL)"
TYPE : VRPBL
DIMENSION : 501
EDGE_WEIGHT_TYPE : EUC_2D
CAPACITY : 100
VEHICLES : 500
DISTANCE : 3000
NODE_COORD_SECTION
1	642	612
2	248	41
3	596	673
4	447	476
5	801	251
6	129	169
7	86	562
8	714	513
9	998	177
10	757	319
11	119	175
12	850	680
13	450	335
14	518	642
15	210	451
16	628	63
17	43	316
18	999	304
19	274	239
20	233	39
21	112	801
22	737	637
23	429	999
24	249	896
25	435	4
26	246	242
27	106	360
28	342	762
29	412	499
30	967	82
31	56	498
32	940	535
33	529	364
34	114	511
35	724	909
36	291	653
37	144	146
38	352	958
39	585	713
40	545	221
41	851	970
42	132	814
43	37	48
44	749	387
45	14	610
46	483	287
47	888	193
48	97	127
49	528	203
50	807	289
51	816	710
52	661	503
53	694	771
54	883	327
55	209	3
56	366	276
57	550	629
58	138	408
59	926	706
60	64	801
61	544	609
62	914	82
63	824	252
64	11	130
65	640	215
66	46	100
67	604	217
68	1	725
69	805	658
70	23	480
71	322	647
72	627	68
73	624	67
74	451	536
75	632	487
76	1	464
77	968	196
78	515	801
79	336	844
80	205	416
81	109	716
82	177	159
83	632	571
84	847	26
85	196	657
86	711	136
87	89	127
88	879	667
89	753	67
90	814	551
91	778	839
92	980	901
93	7	838
94	862	392
95	206	682
96	960	414
97	5	376
98	692	380
99	982	184
100	354	981
101	290	972
102	930	182
103	68	571
104	778	600
105	136	836
106	74	778
107	896	924
108	388	683
109	293	885
110	813	214
111	778	944
112	291	656
113	975	294
114	519	103
115	499	578
116	96	667
117	911	765
118	314	284
119	542	460
120	767	700
121	320	273
122	244	76
123	399	589
124	13	764
125	126	382
126	124	175
127	718	587
128	26	797
129	562	972
130	978	545
131	962	374
132	501	232
133	915	538
134	101	227
135	266	664
136	217	61
137	726	707
138	865	942
139	587	224
140	14	721
141	804	104
142	292	878
143	634	380
144	997	322
145	917	961
146	459	850
147	180	554
148	76	413
149	496	735
150	673	281
151	784	710
152	334	920
153	432	965
154	699	776
155	190	763
156	386	614
157	587	452
158	951	778
159	724	520
160	901	549
161	303	149
162	29	709
163	952	254
164	589	697
165	527	541
166	372	528
167	240	664
168	232	568
169	354	851
170	653	395
171	179	437
172	412	603
173	671	698
174	808	410
175	993	348
176	677	111
177	742	478
178	852	68
179	904	528
180	4	739
181	475	917
182	807	24
183	889	66
184	127	838
185	894	796
186	766	419
187	885	454
188	579	556
189	487	16
190	794	464
191	126	329
192	932	190
193	751	343
194	158	330
195	329	921
196	907	518
197	612	198
198	377	871
199	513	808
200	147	598
201	204	24
202	772	845
203	267	784
204	212	206
205	659	351
206	492	41
207	892	586
208	511	593
209	977	100
210	723	320
211	388	170
212	729	910
213	137	25
214	837	485
215	265	984
216	821	409
217	879	600
218	257	910
219	886	974
220	394	619
221	661	140
222	346	462
223	699	978
224	881	642
225	560	485
226	58	400
227	567	781
228	433	338
229	649	477
230	704	331
231	676	78
232	971	328
233	752	891
234	185	706
235	618	683
236	738	219
237	780	412
238	709	86
239	111	743
240	150	694
241	716	90
242	945	183
243	226	149
244	515	134
245	224	547
246	741	341
247	418	838
248	524	457
249	231	424
250	539	38
251	695	817
252	573	86
253	655	628
254	446	831
255	173	911
256	77	165
257	314	232
258	310	698
259	302	643
260	859	221
261	500	938
262	606	828
263	237	289
264	664	376
265	272	867
266	575	269
267	638	475
268	685	862
269	405	309
270	845	131
271	358	212
272	239	499
273	5	374
274	707	249
275	202	509
276	251	697
277	734	439
278	659	209
279	601	77
280	22	467
281	190	192
282	881	715
283	883	637
284	637	407
285	759	421
286	725	100
287	16	185
288	244	737
289	684	669
290	230	422
291	924	27
292	95	159
293	452	627
294	597	534
295	672	613
296	346	864
297	538	598
298	893	303
299	966	492
300	483	995
301	578	871
302	364	628
303	750	575
304	453	900
305	8	199
306	642	266
307	578	211
308	565	754
309	654	510
310	459	928
311	806	8
312	722	896
313	497	960
314	689	788
315	101	673
316	692	418
317	164	978
318	362	716
319	595	572
320	95	837
321	991	994
322	193	854
323	732	12
324	866	610
325	335	6
326	25	570
327	612	234
328	897	469
329	150	558
330	458	34
331	312	330
332	882	538
333	548	910
334	441	358
335	330	579
336	60	716
337	259	576
338	47	554
339	289	224
340	314	955
341	790	552
342	21	203
343	10	303
344	984	608
345	367	709
346	986	883
347	478	10
348	950	989
349	61	926
350	336	173
351	78	815
352	304	530
353	482	460
354	869	534
355	275	208
356	38	302
357	993	40
358	200	814
359	256	7
360	498	107
361	58	861
362	869	32
363	208	592
364	483	100
365	9	149
366	38	514
367	113	589
368	797	908
369	923	961
370	656	513
371	572	116
372	11	513
373	828	370
374	194	622
375	602	164
376	32	384
377	127	630
378	79	746
379	423	463
380	772	637
381	353	850
382	19	468
383	432	536
384	715	344
385	791	27
386	199	638
387	136	186
388	664	902
389	512	642
390	489	633
391	949	82
392	104	82
393	935	236
394	171	262
395	739	49
396	978	530
397	297	194
398	391	25
399	647	393
400	30	567
401	667	587
402	493	331
403	656	265
404	845	957
405	971	799
406	370	510
407	281	275
408	25	600
409	271	320
410	787	979
411	129	652
412	730	478
413	238	251
414	843	610
415	477	599
416	297	381
417	260	582
418	0	46
419	99	531
420	950	84
421	297	19
422	410	618
423	355	811
424	842	86
425	177	155
426	449	292
427	651	443
428	954	548
429	620	638
430	106	606
431	289	759
432	772	590
433	131	809
434	295	605
435	636	565
436	773	505
437	964	963
438	30	779
439	103	37
440	486	483
441	711	597
442	112	784
443	426	940
444	613	557
445	928	653
446	27	478
447	742	309
448	70	670
449	920	915
450	942	95
451	745	230
452	251	634
453	154	508
454	963	595
455	365	797
456	270	197
457	671	340
458	177	777
459	756	258
460	562	640
461	364	301
462	829	28
463	309	809
464	75	827
465	308	756
466	63	854
467	897	413
468	149	781
469	779	991
470	549	593
471	995	436
472	462	435
473	35	770
474	125	998
475	244	993
476	281	887
477	424	659
478	865	647
479	389	144
480	422	289
481	311	535
482	180	309
483	984	40
484	819	317
485	674	738
486	152	752
487	769	627
488	570	376
489	683	994
490	266	555
491	832	52
492	219	431
493	47	734
494	406	975
495	538	727
496	568	546
497	791	239
498	837	188
499	555	564
500	95	395
501	410	162
DEMAND_SECTION
1	0
2	8
3	8
4	4
5	1
6	9
7	6
8	8
9	4
10	2
11	8
12	7
13	1
14	5
15	7
16	7
17	1
18	9
19	2
20	5
21	7
22	1
23	7
24	4
25	1
26	5
27	4
28	4
29	2
30	3
31	3
32	4
33	6
34	4
35	7
36	1
37	2
38	4
39	4
40	9
41	1
42	8
43	5
44	7
45	1
46	5
47	4
48	9
49	3
50	5
51	4
52	8
53	1
54	2
55	2
56	3
57	5
58	7
59	6
60	6
61	7
62	4
63	4
64	1
65	7
66	9
67	9
68	1
69	2
70	2
71	5
72	6
73	6
74	8
75	3
76	4
77	2
78	4
79	2
80	5
81	8
82	1
83	7
84	1
85	2
86	8
87	4
88	8
89	7
90	8
91	1
92	7
93	7
94	7
95	4
96	6
97	5
98	6
99	5
100	7
101	9
102	1
103	6
104	9
105	4
106	3
107	5
108	9
109	6
110	1
111	9
112	7
113	6
114	7
115	4
116	2
117	5
118	9
119	8
120	6
121	5
122	2
123	3
124	5
125	5
126	5
127	6
128	7
129	6
130	9
131	8
132	1
133	2
134	5
135	8
136	5
137	9
138	2
139	9
140	8
141	5
142	2
143	1
144	7
145	7
146	1
147	7
148	9
149	2
150	6
151	6
152	8
153	7
154	3
155	2
156	8
157	8
158	8
159	8
160	4
161	8
162	8
163	5
164	9
165	7
166	9
167	3
168	2
169	7
170	3
171	8
172	5
173	7
174	3
175	2
176	3
177	9
178	8
179	2
180	3
181	8
182	2
183	4
184	6
185	7
186	3
187	4
188	6
189	5
190	9
191	6
192	2
193	9
194	9
195	7
196	5
197	8
198	5
199	7
200	6
201	7
202	4
203	4
204	5
205	2
206	6
207	4
208	9
209	6
210	4
211	1
212	9
213	7
214	5
215	5
216	1
217	6
218	2
219	1
220	9
221	9
222	1
223	4
224	7
225	6
226	9
227	4
228	4
229	2
230	8
231	2
232	7
233	3
234	9
235	7
236	3
237	6
238	4
239	9
240	5
241	8
242	3
243	2
244	1
245	4
246	5
247	4
248	4
249	5
250	5
251	1
252	6
253	9
254	1
255	2
256	7
257	6
258	4
259	6
260	5
261	6
262	3
263	2
264	4
265	9
266	3
267	9
268	2
269	1
270	3
271	1
272	7
273	9
274	6
275	7
276	2
277	4
278	8
279	3
280	4
281	6
282	3
283	9
284	3
285	3
286	9
287	9
288	4
289	3
290	4
291	3
292	1
293	6
294	3
295	6
296	3
297	9
298	1
299	9
300	1
301	8
302	3
303	2
304	6
305	6
306	8
307	7
308	7
309	5
310	3
311	9
312	6
313	6
314	8
315	9
316	6
317	3
318	2
319	8
320	1
321	7
322	4
323	3
324	1
325	9
326	1
327	1
328	4
329	1
330	6
331	7
332	7
333	8
334	7
335	3
336	1
337	7
338	3
339	8
340	3
341	2
342	5
343	8
344	8
345	5
346	8
347	8
348	7
349	9
350	9
351	5
352	2
353	5
354	4
355	2
356	6
357	7
358	7
359	6
360	9
361	8
362	8
363	7
364	6
365	4
366	4
367	7
368	1
369	7
370	3
371	8
372	5
373	7
374	5
375	3
376	1
377	6
378	2
379	1
380	4
381	4
382	6
383	9
384	3
385	6
386	2
387	8
388	3
389	5
390	7
391	1
392	3
393	8
394	1
395	3
396	5
397	8
398	4
399	2
400	8
401	2
402	1
403	1
404	8
405	9
406	7
407	8
408	2
409	9
410	2
411	2
412	9
413	4
414	9
415	8
416	4
417	6
418	8
419	1
420	5
421	8
422	8
423	7
424	6
425	7
426	2
427	9
428	1
429	3
430	3
431	1
432	6
433	7
434	2
435	9
436	2
437	9
438	7
439	2
440	9
441	6
442	3
443	4
444	4
445	4
446	2
447	3
448	2
449	7
450	7
451	1
452	9
453	6
454	1
455	8
456	8
457	5
458	2
459	1
460	4
461	2
462	9
463	6
464	1
465	2
466	3
467	7
468	3
469	2
470	9
471	8
472	3
473	9
474	8
475	2
476	4
477	3
478	2
479	7
480	3
481	2
482	8
483	6
484	2
485	7
486	3
487	4
488	5
489	1
490	8
491	4
492	1
493	1
494	6
495	5
496	7
497	5
498	3
499	9
500	7
501	1
BACKHAUL_SECTION
7	13	14	17	21	27	28	35	40	47	48	51	62	63	64	65	68	73	78	90	99	103	107	117	120	132	133	145	148	152	153	155	160	165	175	176	183	185	187	197	204	205	206	207	212	218	227	228	232	238	249	250	259	261	266	269	282	284	291	299	303	314	323	332	338	344	348	350	357	359	374	375	376	377	380	383	390	392	395	399	401	402	404	406	407	413	416	417	422	430	434	448	466	467	476	481	488	489	493	501	-1
DEPOT_SECTION
1
-1
EOF
