NAME : n51-0008
COMMENT : "Generated by pyvrp_manuel (OVRPBLTW)"
TYPE : OVRPBLTW
DIMENSION : 51
EDGE_WEIGHT_TYPE : EUC_2D
CAPACITY : 40
VEHICLES : 50
OPEN_ROUTE : YES
DISTANCE : 3000
SERVICE_TIME : 200
NODE_COORD_SECTION
1	294	519
2	722	286
3	899	149
4	501	949
5	997	210
6	589	559
7	266	327
8	635	152
9	582	716
10	303	915
11	467	727
12	995	347
13	772	357
14	427	415
15	497	311
16	617	519
17	817	399
18	550	314
19	81	702
20	564	300
21	331	631
22	410	827
23	528	689
24	718	377
25	716	869
26	523	598
27	518	846
28	289	234
29	718	65
30	508	270
31	830	34
32	803	995
33	601	467
34	992	286
35	460	281
36	431	609
37	567	406
38	0	526
39	485	575
40	883	986
41	203	469
42	300	39
43	136	969
44	792	769
45	778	103
46	553	965
47	221	945
48	631	852
49	286	731
50	57	468
51	667	650
DEMAND_SECTION
1	0
2	5
3	6
4	1
5	4
6	2
7	5
8	5
9	5
10	1
11	1
12	9
13	5
14	7
15	4
16	4
17	3
18	2
19	3
20	2
21	4
22	5
23	2
24	2
25	1
26	8
27	9
28	5
29	4
30	6
31	7
32	4
33	3
34	9
35	2
36	5
37	1
38	9
39	4
40	6
41	6
42	2
43	8
44	9
45	7
46	5
47	8
48	4
49	6
50	4
51	7
TIME_WINDOW_SECTION
1	0	3000
2	525	1840
3	1249	2875
4	1542	2424
5	1017	1343
6	77	647
7	1085	2436
8	1115	1701
9	1830	2997
10	2239	2487
11	0	1413
12	396	1253
13	726	2620
14	1551	2223
15	1245	1699
16	695	1105
17	1537	2932
18	1484	2504
19	1337	2201
20	1154	2562
21	1305	1562
22	377	861
23	830	1485
24	1529	2996
25	377	848
26	0	1247
27	168	2001
28	163	1545
29	517	1700
30	255	787
31	1687	2416
32	1450	2225
33	852	2225
34	1326	1727
35	2017	2258
36	1648	3000
37	2099	2389
38	1110	2034
39	0	774
40	596	1345
41	738	1314
42	1422	2509
43	1105	2437
44	614	2024
45	1267	2945
46	873	2008
47	401	2006
48	282	845
49	840	2584
50	105	423
51	377	2272
BACKHAUL_SECTION
4	6	8	10	23	36	38	44	46	48	-1
DEPOT_SECTION
1
-1
EOF
