NAME : n501-0024
COMMENT : "Generated by pyvrp_manuel (VRPB)"
TYPE : VRPB
DIMENSION : 501
EDGE_WEIGHT_TYPE : EUC_2D
CAPACITY : 100
VEHICLES : 500
NODE_COORD_SECTION
1	472	924
2	919	203
3	157	823
4	328	79
5	801	114
6	906	558
7	247	202
8	494	678
9	444	442
10	304	283
11	296	250
12	873	721
13	651	480
14	545	894
15	789	279
16	85	649
17	219	894
18	861	339
19	905	792
20	403	389
21	93	217
22	613	361
23	787	703
24	499	243
25	562	176
26	953	109
27	560	872
28	681	65
29	889	39
30	725	508
31	73	615
32	330	147
33	736	185
34	595	446
35	372	723
36	912	280
37	962	497
38	946	528
39	65	512
40	462	264
41	678	540
42	489	614
43	86	693
44	391	46
45	134	335
46	456	441
47	579	440
48	634	766
49	847	762
50	660	544
51	483	75
52	367	440
53	196	201
54	270	781
55	47	845
56	825	49
57	642	77
58	668	473
59	480	697
60	379	745
61	936	314
62	672	175
63	951	628
64	521	203
65	480	339
66	638	956
67	942	351
68	936	3
69	549	547
70	544	824
71	202	981
72	750	548
73	79	588
74	681	884
75	325	13
76	360	459
77	872	78
78	436	581
79	238	940
80	7	767
81	921	299
82	25	598
83	937	758
84	241	406
85	228	18
86	639	320
87	927	132
88	16	404
89	931	854
90	664	545
91	656	449
92	727	559
93	74	85
94	873	355
95	253	409
96	710	819
97	963	112
98	183	419
99	470	409
100	492	229
101	522	631
102	840	241
103	473	782
104	103	480
105	784	976
106	275	373
107	965	86
108	642	575
109	244	594
110	765	864
111	608	130
112	491	955
113	708	142
114	663	701
115	922	562
116	283	748
117	913	84
118	507	90
119	655	964
120	444	1000
121	365	261
122	878	218
123	986	171
124	581	606
125	14	510
126	649	995
127	515	698
128	764	118
129	348	57
130	761	911
131	792	158
132	7	765
133	414	197
134	149	26
135	41	55
136	872	449
137	717	349
138	736	578
139	171	223
140	242	245
141	785	619
142	617	912
143	705	369
144	525	494
145	625	881
146	879	186
147	551	769
148	624	462
149	999	217
150	540	985
151	157	552
152	392	903
153	634	947
154	682	401
155	367	413
156	391	737
157	769	728
158	867	64
159	556	246
160	224	805
161	431	131
162	502	570
163	471	162
164	144	235
165	900	979
166	708	572
167	366	36
168	371	47
169	173	229
170	500	512
171	878	506
172	776	472
173	830	696
174	588	827
175	617	712
176	492	53
177	504	943
178	817	178
179	613	662
180	182	874
181	22	745
182	557	55
183	887	56
184	740	116
185	863	207
186	855	460
187	919	32
188	582	389
189	423	309
190	3	777
191	783	455
192	593	494
193	753	428
194	613	925
195	440	180
196	366	525
197	768	436
198	382	635
199	312	43
200	236	990
201	726	745
202	948	530
203	492	684
204	882	948
205	944	702
206	304	654
207	624	868
208	960	687
209	614	999
210	277	350
211	74	772
212	593	569
213	358	290
214	775	564
215	914	784
216	477	227
217	276	237
218	654	295
219	668	493
220	951	94
221	183	848
222	399	217
223	347	213
224	104	420
225	934	994
226	689	583
227	306	876
228	327	879
229	822	779
230	570	710
231	66	442
232	807	940
233	186	377
234	296	818
235	925	462
236	46	161
237	134	751
238	340	686
239	42	432
240	626	207
241	873	92
242	391	187
243	911	104
244	387	651
245	242	82
246	859	576
247	21	896
248	371	600
249	595	324
250	545	246
251	708	719
252	680	92
253	388	344
254	204	145
255	865	665
256	642	840
257	804	544
258	745	584
259	817	446
260	703	499
261	600	130
262	832	780
263	10	888
264	538	54
265	190	948
266	395	286
267	900	912
268	570	543
269	37	583
270	123	695
271	164	166
272	323	308
273	45	571
274	856	466
275	349	616
276	481	961
277	306	370
278	204	209
279	870	385
280	34	371
281	180	460
282	698	357
283	33	505
284	992	811
285	162	585
286	987	380
287	912	130
288	313	998
289	534	983
290	311	424
291	605	556
292	620	423
293	846	308
294	600	212
295	331	118
296	750	813
297	274	760
298	820	999
299	6	509
300	628	611
301	696	6
302	223	68
303	707	837
304	879	145
305	224	823
306	65	554
307	168	845
308	435	174
309	220	591
310	179	809
311	532	345
312	408	681
313	539	674
314	372	242
315	235	51
316	285	989
317	339	395
318	467	9
319	179	478
320	401	184
321	718	993
322	363	977
323	359	56
324	953	876
325	862	986
326	630	270
327	65	52
328	300	641
329	574	480
330	525	28
331	585	373
332	725	961
333	373	115
334	764	779
335	844	897
336	26	644
337	255	467
338	240	236
339	68	424
340	197	501
341	490	739
342	565	771
343	964	874
344	663	624
345	25	136
346	57	98
347	193	542
348	536	767
349	919	426
350	919	842
351	556	669
352	702	46
353	737	152
354	645	288
355	120	485
356	39	979
357	137	490
358	110	505
359	10	154
360	832	356
361	487	104
362	264	891
363	558	561
364	455	741
365	851	444
366	13	686
367	806	660
368	869	174
369	749	316
370	180	252
371	508	548
372	117	361
373	857	427
374	824	472
375	519	590
376	234	349
377	607	786
378	795	809
379	565	781
380	864	116
381	736	604
382	983	637
383	493	98
384	96	748
385	722	356
386	660	617
387	75	983
388	426	288
389	19	10
390	834	206
391	160	159
392	343	992
393	541	910
394	407	981
395	269	55
396	342	877
397	327	57
398	128	684
399	774	350
400	838	257
401	899	215
402	630	234
403	834	218
404	125	606
405	640	272
406	807	421
407	170	527
408	337	984
409	843	635
410	780	920
411	797	128
412	314	665
413	557	297
414	165	768
415	942	343
416	376	893
417	395	474
418	328	299
419	585	150
420	801	797
421	765	834
422	721	978
423	491	66
424	888	278
425	866	670
426	627	459
427	701	940
428	448	697
429	871	519
430	810	142
431	280	949
432	591	99
433	428	240
434	511	433
435	467	290
436	100	835
437	114	714
438	739	229
439	501	391
440	316	726
441	584	666
442	547	838
443	54	467
444	14	776
445	664	248
446	864	979
447	124	685
448	822	70
449	472	40
450	518	24
451	778	524
452	541	108
453	73	442
454	500	523
455	107	765
456	465	487
457	184	61
458	461	420
459	611	806
460	304	879
461	878	937
462	784	527
463	412	679
464	449	242
465	422	647
466	326	585
467	470	134
468	746	944
469	63	858
470	126	739
471	84	622
472	380	229
473	84	91
474	933	432
475	306	994
476	818	611
477	722	398
478	800	649
479	237	412
480	597	155
481	319	463
482	287	815
483	113	891
484	428	426
485	984	270
486	222	109
487	549	342
488	504	959
489	283	648
490	129	32
491	128	957
492	206	682
493	588	671
494	250	10
495	83	634
496	328	458
497	312	981
498	785	498
499	123	499
500	169	53
501	406	359
DEMAND_SECTION
1	0
2	2
3	5
4	3
5	6
6	9
7	4
8	1
9	5
10	1
11	7
12	1
13	4
14	5
15	6
16	8
17	8
18	7
19	9
20	2
21	6
22	6
23	7
24	6
25	4
26	8
27	3
28	8
29	3
30	9
31	7
32	9
33	8
34	7
35	5
36	5
37	7
38	7
39	4
40	1
41	8
42	7
43	2
44	9
45	2
46	6
47	4
48	5
49	2
50	7
51	6
52	7
53	6
54	8
55	4
56	4
57	8
58	3
59	5
60	7
61	3
62	6
63	4
64	2
65	2
66	4
67	6
68	6
69	6
70	7
71	2
72	1
73	4
74	2
75	3
76	6
77	9
78	7
79	5
80	4
81	3
82	4
83	8
84	3
85	4
86	6
87	9
88	4
89	7
90	8
91	1
92	7
93	9
94	2
95	2
96	3
97	8
98	7
99	4
100	7
101	3
102	9
103	1
104	2
105	7
106	6
107	4
108	3
109	6
110	7
111	3
112	6
113	5
114	3
115	5
116	5
117	9
118	4
119	7
120	7
121	5
122	4
123	7
124	4
125	3
126	9
127	2
128	7
129	6
130	6
131	7
132	8
133	5
134	2
135	5
136	6
137	7
138	4
139	4
140	1
141	3
142	3
143	2
144	9
145	7
146	2
147	1
148	3
149	9
150	3
151	9
152	3
153	7
154	1
155	4
156	4
157	7
158	9
159	3
160	4
161	3
162	2
163	3
164	8
165	8
166	8
167	7
168	1
169	6
170	8
171	4
172	9
173	3
174	4
175	5
176	2
177	3
178	7
179	6
180	7
181	8
182	7
183	6
184	3
185	1
186	8
187	4
188	5
189	5
190	6
191	4
192	3
193	1
194	2
195	3
196	3
197	2
198	7
199	9
200	2
201	6
202	8
203	5
204	9
205	9
206	8
207	3
208	8
209	7
210	8
211	9
212	1
213	2
214	3
215	9
216	7
217	8
218	1
219	3
220	6
221	5
222	2
223	7
224	5
225	8
226	5
227	6
228	7
229	9
230	1
231	9
232	2
233	7
234	7
235	4
236	3
237	5
238	5
239	6
240	6
241	3
242	5
243	2
244	9
245	9
246	6
247	5
248	3
249	3
250	7
251	8
252	4
253	4
254	2
255	2
256	5
257	7
258	2
259	4
260	6
261	7
262	4
263	6
264	9
265	1
266	5
267	3
268	2
269	3
270	8
271	6
272	2
273	9
274	9
275	4
276	4
277	6
278	7
279	3
280	4
281	5
282	6
283	2
284	6
285	8
286	8
287	6
288	9
289	9
290	1
291	3
292	7
293	2
294	8
295	3
296	2
297	7
298	9
299	4
300	1
301	9
302	3
303	6
304	1
305	9
306	9
307	4
308	8
309	3
310	3
311	7
312	3
313	3
314	1
315	1
316	3
317	2
318	7
319	1
320	8
321	8
322	9
323	8
324	7
325	4
326	2
327	5
328	6
329	2
330	9
331	1
332	2
333	1
334	5
335	3
336	8
337	1
338	1
339	5
340	2
341	1
342	1
343	4
344	2
345	9
346	4
347	4
348	7
349	4
350	9
351	2
352	8
353	9
354	6
355	4
356	8
357	5
358	2
359	5
360	9
361	2
362	8
363	9
364	6
365	1
366	6
367	1
368	3
369	5
370	9
371	5
372	3
373	3
374	7
375	7
376	1
377	4
378	2
379	8
380	1
381	2
382	2
383	8
384	4
385	4
386	9
387	6
388	3
389	4
390	8
391	6
392	8
393	2
394	3
395	5
396	8
397	1
398	9
399	5
400	6
401	7
402	5
403	2
404	2
405	7
406	1
407	6
408	3
409	9
410	4
411	2
412	1
413	1
414	3
415	3
416	1
417	7
418	1
419	4
420	7
421	9
422	8
423	6
424	3
425	7
426	5
427	1
428	5
429	4
430	8
431	2
432	9
433	4
434	4
435	8
436	1
437	6
438	4
439	7
440	3
441	2
442	6
443	6
444	6
445	3
446	1
447	8
448	7
449	3
450	3
451	3
452	4
453	7
454	1
455	6
456	4
457	4
458	4
459	1
460	6
461	1
462	7
463	4
464	1
465	9
466	2
467	9
468	7
469	8
470	7
471	4
472	3
473	4
474	2
475	8
476	9
477	5
478	9
479	9
480	6
481	4
482	7
483	2
484	7
485	5
486	4
487	7
488	4
489	9
490	4
491	9
492	9
493	7
494	9
495	7
496	6
497	2
498	1
499	7
500	5
501	7
BACKHAUL_SECTION
2	3	13	24	36	37	38	48	59	64	65	69	71	72	73	79	84	88	90	95	99	102	107	111	115	116	130	133	137	140	141	146	148	154	160	163	170	179	187	191	198	199	203	208	209	214	228	233	238	240	241	249	255	257	259	270	280	285	286	291	302	304	307	326	328	333	335	338	339	341	342	348	354	357	366	374	380	381	382	383	387	393	409	413	414	418	423	427	430	436	440	442	455	464	477	480	486	489	491	497	-1
DEPOT_SECTION
1
-1
EOF
