NAME : n501-0018
COMMENT : "Generated by pyvrp_manuel (VRPB)"
TYPE : VRPB
DIMENSION : 501
EDGE_WEIGHT_TYPE : EUC_2D
CAPACITY : 100
VEHICLES : 500
NODE_COORD_SECTION
1	511	485
2	479	134
3	705	67
4	263	332
5	924	241
6	11	463
7	155	296
8	745	123
9	894	877
10	616	441
11	832	603
12	713	305
13	196	352
14	394	232
15	178	883
16	728	527
17	515	512
18	959	520
19	79	563
20	979	352
21	985	211
22	358	122
23	599	557
24	154	62
25	423	551
26	829	864
27	700	769
28	379	635
29	154	428
30	102	241
31	726	273
32	178	493
33	923	577
34	648	922
35	312	393
36	122	408
37	897	817
38	370	9
39	530	86
40	670	342
41	493	142
42	376	545
43	944	622
44	940	999
45	876	75
46	285	569
47	64	988
48	821	704
49	495	104
50	937	772
51	688	856
52	824	23
53	432	67
54	559	316
55	837	787
56	390	154
57	234	730
58	139	57
59	889	644
60	991	996
61	983	105
62	345	23
63	9	68
64	890	519
65	221	902
66	426	791
67	223	496
68	977	223
69	816	785
70	661	832
71	51	844
72	264	991
73	829	751
74	615	62
75	904	172
76	94	509
77	907	375
78	375	848
79	362	812
80	74	748
81	124	459
82	795	842
83	10	959
84	258	545
85	181	92
86	866	312
87	566	35
88	226	403
89	362	931
90	579	628
91	711	871
92	329	32
93	390	352
94	543	943
95	631	299
96	730	226
97	791	181
98	506	212
99	848	495
100	1000	733
101	262	442
102	808	974
103	584	476
104	731	705
105	238	331
106	961	575
107	869	481
108	301	666
109	104	414
110	939	27
111	258	45
112	975	703
113	495	464
114	254	330
115	557	784
116	966	358
117	199	803
118	654	645
119	523	874
120	173	808
121	472	700
122	839	571
123	512	195
124	979	816
125	436	846
126	334	17
127	121	278
128	459	322
129	815	910
130	816	323
131	718	636
132	435	174
133	687	887
134	745	339
135	857	543
136	662	131
137	743	423
138	750	581
139	834	971
140	124	874
141	410	981
142	783	928
143	104	348
144	428	484
145	538	651
146	149	814
147	0	803
148	424	453
149	449	572
150	12	673
151	52	416
152	585	801
153	146	119
154	898	394
155	232	548
156	442	784
157	664	736
158	335	217
159	400	120
160	307	64
161	278	687
162	141	184
163	995	504
164	612	242
165	147	624
166	320	195
167	543	814
168	709	118
169	182	636
170	617	440
171	752	864
172	930	916
173	81	692
174	266	75
175	555	4
176	391	12
177	495	493
178	292	179
179	187	903
180	712	228
181	248	102
182	650	530
183	205	714
184	978	728
185	326	138
186	628	797
187	330	776
188	561	270
189	843	568
190	36	699
191	788	407
192	424	577
193	914	237
194	231	668
195	213	596
196	554	907
197	733	826
198	785	762
199	44	116
200	278	324
201	752	458
202	33	533
203	904	878
204	71	767
205	868	707
206	762	586
207	816	406
208	502	949
209	596	502
210	714	524
211	213	113
212	532	618
213	45	582
214	912	647
215	966	617
216	19	551
217	210	330
218	313	720
219	306	647
220	608	961
221	508	841
222	849	186
223	685	467
224	15	980
225	393	992
226	623	192
227	352	439
228	48	579
229	597	929
230	940	433
231	782	486
232	50	293
233	222	886
234	314	383
235	349	615
236	861	668
237	166	388
238	292	559
239	354	368
240	726	795
241	150	53
242	427	661
243	280	979
244	82	278
245	119	408
246	5	40
247	493	23
248	857	276
249	566	41
250	262	877
251	355	489
252	191	442
253	587	336
254	560	732
255	946	565
256	368	966
257	384	24
258	759	467
259	682	927
260	837	937
261	936	105
262	833	276
263	670	163
264	657	526
265	765	7
266	308	855
267	477	233
268	564	212
269	152	979
270	923	99
271	617	228
272	975	174
273	865	686
274	464	58
275	326	931
276	734	381
277	979	874
278	819	506
279	374	631
280	538	399
281	627	141
282	519	72
283	369	828
284	736	213
285	283	788
286	351	144
287	411	180
288	418	83
289	647	335
290	71	535
291	424	897
292	376	498
293	880	528
294	173	16
295	78	823
296	922	942
297	565	777
298	800	916
299	689	953
300	576	695
301	530	451
302	862	591
303	595	131
304	831	55
305	351	21
306	722	386
307	878	509
308	475	907
309	735	55
310	868	885
311	919	910
312	746	778
313	127	394
314	364	460
315	901	236
316	865	392
317	476	32
318	611	153
319	835	175
320	670	777
321	760	907
322	379	870
323	617	543
324	665	288
325	689	961
326	729	616
327	502	713
328	873	407
329	843	138
330	111	307
331	360	804
332	748	286
333	980	849
334	461	502
335	273	630
336	639	392
337	974	113
338	984	762
339	258	276
340	569	530
341	741	876
342	261	469
343	968	983
344	226	229
345	852	791
346	298	47
347	828	596
348	167	678
349	625	181
350	264	386
351	972	998
352	569	390
353	725	608
354	700	142
355	694	186
356	446	286
357	451	89
358	511	984
359	661	92
360	919	994
361	272	180
362	810	77
363	53	550
364	491	557
365	82	366
366	250	776
367	449	311
368	392	245
369	207	152
370	805	799
371	410	113
372	598	906
373	788	623
374	329	979
375	629	694
376	635	854
377	170	975
378	16	976
379	88	502
380	708	264
381	148	758
382	599	282
383	722	322
384	921	167
385	200	694
386	25	780
387	968	578
388	768	598
389	839	144
390	365	62
391	664	268
392	346	311
393	294	84
394	501	704
395	870	168
396	298	115
397	720	850
398	271	5
399	80	302
400	63	792
401	716	292
402	718	290
403	834	908
404	888	873
405	88	788
406	280	320
407	865	831
408	256	916
409	351	128
410	749	407
411	602	530
412	368	432
413	906	484
414	367	144
415	906	707
416	22	570
417	908	757
418	273	632
419	301	467
420	185	614
421	489	134
422	636	146
423	288	496
424	586	895
425	4	941
426	911	200
427	973	177
428	622	292
429	808	287
430	900	979
431	705	597
432	906	883
433	980	49
434	157	666
435	550	122
436	304	975
437	969	604
438	347	804
439	132	671
440	526	770
441	427	382
442	874	720
443	262	259
444	916	864
445	907	341
446	739	811
447	295	615
448	373	914
449	188	272
450	262	21
451	336	869
452	882	959
453	859	203
454	168	562
455	194	611
456	563	354
457	318	356
458	463	298
459	12	455
460	246	886
461	177	217
462	43	946
463	32	143
464	654	736
465	143	624
466	319	874
467	343	984
468	522	180
469	346	106
470	338	612
471	331	905
472	606	793
473	409	213
474	179	563
475	548	146
476	29	231
477	580	669
478	864	900
479	505	425
480	315	648
481	601	415
482	131	814
483	249	776
484	885	627
485	58	330
486	503	357
487	664	917
488	27	466
489	639	367
490	147	850
491	527	220
492	427	925
493	792	58
494	753	988
495	565	598
496	116	442
497	712	869
498	120	61
499	66	902
500	371	508
501	50	223
DEMAND_SECTION
1	0
2	2
3	3
4	7
5	1
6	7
7	5
8	8
9	4
10	4
11	2
12	7
13	1
14	3
15	8
16	8
17	5
18	9
19	1
20	3
21	8
22	2
23	8
24	2
25	8
26	7
27	2
28	2
29	9
30	1
31	5
32	6
33	4
34	6
35	5
36	3
37	3
38	7
39	5
40	1
41	9
42	2
43	6
44	5
45	3
46	9
47	2
48	5
49	5
50	9
51	8
52	8
53	8
54	6
55	5
56	7
57	3
58	2
59	3
60	4
61	8
62	5
63	8
64	1
65	4
66	4
67	5
68	1
69	8
70	1
71	4
72	1
73	9
74	7
75	5
76	7
77	1
78	4
79	3
80	7
81	4
82	4
83	5
84	4
85	2
86	4
87	9
88	4
89	1
90	3
91	7
92	2
93	1
94	1
95	9
96	1
97	5
98	6
99	7
100	7
101	8
102	2
103	4
104	6
105	9
106	2
107	5
108	6
109	9
110	7
111	8
112	3
113	3
114	4
115	8
116	9
117	1
118	9
119	5
120	2
121	9
122	5
123	4
124	6
125	8
126	8
127	7
128	3
129	6
130	8
131	8
132	3
133	8
134	7
135	8
136	6
137	9
138	2
139	2
140	4
141	5
142	4
143	8
144	7
145	1
146	3
147	8
148	2
149	5
150	6
151	9
152	2
153	4
154	8
155	7
156	4
157	4
158	3
159	4
160	4
161	7
162	7
163	1
164	2
165	2
166	6
167	7
168	5
169	1
170	1
171	7
172	6
173	5
174	8
175	9
176	1
177	2
178	1
179	5
180	6
181	7
182	5
183	1
184	1
185	7
186	6
187	8
188	9
189	2
190	3
191	3
192	3
193	7
194	2
195	7
196	2
197	5
198	9
199	6
200	2
201	8
202	5
203	5
204	9
205	7
206	1
207	2
208	9
209	9
210	7
211	6
212	4
213	4
214	9
215	4
216	8
217	3
218	8
219	4
220	7
221	8
222	7
223	6
224	5
225	9
226	5
227	3
228	4
229	6
230	6
231	3
232	1
233	9
234	1
235	2
236	2
237	4
238	8
239	2
240	8
241	2
242	2
243	5
244	7
245	3
246	2
247	5
248	5
249	7
250	2
251	6
252	3
253	5
254	9
255	2
256	8
257	4
258	8
259	7
260	3
261	4
262	1
263	5
264	4
265	5
266	9
267	6
268	5
269	5
270	1
271	9
272	4
273	2
274	6
275	2
276	3
277	3
278	1
279	7
280	4
281	1
282	1
283	2
284	6
285	4
286	7
287	6
288	5
289	7
290	1
291	7
292	4
293	3
294	1
295	1
296	6
297	1
298	7
299	5
300	9
301	5
302	9
303	4
304	8
305	8
306	2
307	8
308	5
309	9
310	1
311	5
312	9
313	8
314	4
315	4
316	5
317	7
318	3
319	8
320	3
321	2
322	4
323	9
324	7
325	2
326	6
327	3
328	3
329	9
330	6
331	3
332	5
333	3
334	5
335	8
336	7
337	1
338	3
339	7
340	1
341	7
342	8
343	5
344	9
345	2
346	1
347	3
348	8
349	6
350	4
351	1
352	3
353	6
354	1
355	6
356	2
357	7
358	1
359	2
360	4
361	2
362	7
363	3
364	3
365	4
366	4
367	8
368	6
369	9
370	6
371	2
372	1
373	1
374	1
375	6
376	2
377	8
378	2
379	2
380	8
381	2
382	6
383	2
384	2
385	1
386	9
387	9
388	8
389	5
390	3
391	7
392	7
393	3
394	7
395	5
396	3
397	4
398	4
399	1
400	5
401	5
402	1
403	5
404	9
405	5
406	7
407	2
408	8
409	5
410	8
411	8
412	5
413	4
414	2
415	3
416	1
417	8
418	7
419	7
420	2
421	9
422	1
423	7
424	1
425	4
426	9
427	1
428	7
429	4
430	6
431	6
432	2
433	6
434	2
435	5
436	5
437	2
438	1
439	6
440	2
441	8
442	6
443	7
444	4
445	3
446	8
447	3
448	7
449	6
450	4
451	4
452	7
453	8
454	7
455	6
456	8
457	5
458	9
459	3
460	5
461	2
462	3
463	1
464	6
465	7
466	1
467	1
468	9
469	5
470	7
471	8
472	5
473	5
474	2
475	8
476	3
477	6
478	7
479	6
480	6
481	2
482	7
483	9
484	3
485	5
486	8
487	4
488	9
489	3
490	4
491	4
492	2
493	9
494	3
495	9
496	1
497	2
498	2
499	8
500	6
501	1
BACKHAUL_SECTION
2	3	13	24	36	37	38	48	59	64	65	69	71	72	73	79	84	88	90	95	99	102	107	111	115	116	130	133	137	140	141	146	148	154	160	163	170	179	187	191	198	199	203	208	209	214	228	233	238	240	241	249	255	257	259	270	280	285	286	291	302	304	307	326	328	333	335	338	339	341	342	348	354	357	366	374	380	381	382	383	387	393	409	413	414	418	423	427	430	436	440	442	455	464	477	480	486	489	491	497	-1
DEPOT_SECTION
1
-1
EOF
