NAME : n401-0026
COMMENT : "Generated by pyvrp_manuel (OVRPBLTW)"
TYPE : OVRPBLTW
DIMENSION : 401
EDGE_WEIGHT_TYPE : EUC_2D
CAPACITY : 100
VEHICLES : 400
OPEN_ROUTE : YES
DISTANCE : 3000
SERVICE_TIME : 200
NODE_COORD_SECTION
1	820	997
2	175	615
3	714	212
4	936	554
5	43	19
6	663	628
7	183	679
8	825	874
9	431	338
10	680	221
11	46	381
12	560	651
13	891	429
14	188	508
15	639	965
16	837	45
17	599	770
18	332	734
19	463	293
20	285	786
21	915	940
22	581	485
23	806	895
24	464	356
25	188	718
26	65	676
27	77	971
28	27	202
29	429	371
30	418	228
31	418	165
32	19	20
33	898	622
34	954	562
35	335	428
36	26	956
37	825	285
38	630	821
39	269	197
40	169	11
41	990	509
42	433	545
43	128	880
44	16	890
45	184	716
46	499	19
47	915	795
48	631	731
49	35	627
50	694	830
51	8	493
52	886	131
53	180	956
54	606	396
55	224	581
56	570	909
57	396	710
58	756	666
59	173	684
60	423	162
61	320	365
62	406	461
63	898	731
64	664	739
65	933	154
66	404	129
67	250	709
68	913	674
69	384	269
70	166	620
71	98	901
72	476	551
73	244	291
74	665	594
75	750	826
76	165	954
77	530	84
78	784	218
79	884	260
80	285	707
81	977	135
82	711	104
83	912	484
84	783	196
85	651	903
86	774	845
87	850	386
88	86	559
89	114	12
90	709	861
91	610	69
92	537	870
93	566	105
94	399	155
95	531	260
96	24	632
97	365	42
98	942	363
99	70	675
100	914	254
101	76	442
102	987	994
103	699	383
104	802	532
105	561	600
106	265	288
107	231	340
108	591	526
109	606	936
110	542	781
111	425	135
112	739	984
113	798	532
114	408	60
115	885	860
116	603	458
117	727	190
118	817	96
119	993	248
120	244	551
121	355	632
122	192	342
123	517	341
124	365	496
125	610	765
126	790	787
127	262	175
128	320	57
129	102	749
130	198	481
131	783	896
132	654	400
133	362	856
134	295	780
135	757	276
136	501	681
137	108	762
138	748	64
139	948	958
140	793	727
141	832	527
142	539	497
143	66	411
144	796	484
145	7	660
146	650	687
147	692	727
148	762	667
149	224	271
150	856	709
151	446	842
152	367	320
153	345	900
154	168	677
155	488	356
156	77	809
157	685	798
158	895	109
159	789	592
160	362	80
161	861	556
162	814	368
163	492	884
164	327	338
165	377	150
166	828	525
167	573	796
168	89	78
169	72	646
170	360	858
171	831	185
172	561	161
173	691	549
174	591	576
175	503	76
176	464	724
177	225	986
178	537	361
179	474	266
180	529	393
181	426	953
182	810	486
183	104	55
184	84	409
185	16	804
186	56	569
187	918	854
188	696	566
189	702	920
190	32	592
191	196	935
192	755	167
193	284	600
194	381	70
195	270	757
196	459	544
197	26	201
198	738	673
199	138	246
200	245	925
201	58	626
202	564	824
203	696	63
204	49	753
205	9	158
206	195	54
207	726	910
208	171	454
209	302	485
210	568	584
211	56	647
212	434	669
213	99	67
214	194	526
215	976	987
216	324	406
217	133	280
218	623	219
219	180	977
220	199	3
221	925	940
222	688	432
223	212	567
224	512	254
225	948	266
226	26	592
227	487	880
228	793	507
229	354	557
230	342	907
231	680	625
232	113	989
233	270	851
234	473	974
235	388	507
236	255	641
237	84	885
238	958	256
239	923	867
240	945	7
241	103	4
242	629	305
243	586	819
244	683	502
245	675	351
246	546	111
247	208	869
248	190	917
249	783	615
250	639	926
251	196	217
252	563	123
253	198	486
254	806	166
255	319	192
256	894	82
257	489	888
258	936	419
259	148	388
260	916	430
261	883	898
262	722	221
263	184	277
264	65	50
265	686	145
266	426	622
267	776	910
268	62	283
269	184	597
270	40	715
271	679	236
272	906	342
273	973	978
274	149	971
275	864	154
276	93	225
277	948	948
278	757	939
279	231	632
280	241	297
281	651	180
282	743	502
283	96	333
284	340	576
285	730	204
286	205	293
287	766	797
288	11	723
289	744	722
290	956	392
291	839	413
292	892	810
293	504	744
294	173	776
295	216	228
296	315	871
297	151	866
298	763	939
299	351	525
300	40	959
301	530	775
302	621	213
303	222	422
304	307	581
305	443	689
306	454	377
307	590	912
308	139	708
309	106	869
310	677	81
311	925	801
312	931	547
313	98	612
314	728	694
315	830	329
316	342	424
317	1	959
318	987	548
319	533	216
320	159	831
321	756	510
322	651	429
323	756	14
324	42	302
325	532	993
326	233	168
327	246	510
328	503	160
329	393	427
330	98	315
331	10	26
332	858	766
333	868	542
334	1	862
335	848	52
336	311	345
337	385	727
338	327	407
339	797	725
340	341	638
341	870	310
342	464	5
343	764	738
344	907	975
345	766	992
346	856	115
347	373	42
348	741	787
349	300	252
350	959	517
351	156	610
352	23	28
353	210	70
354	246	746
355	799	325
356	243	668
357	750	770
358	70	775
359	210	909
360	446	696
361	473	720
362	270	270
363	875	204
364	685	770
365	423	298
366	361	840
367	272	219
368	113	285
369	43	579
370	768	386
371	646	609
372	788	963
373	539	240
374	367	421
375	317	523
376	241	739
377	102	910
378	420	102
379	630	14
380	935	739
381	683	162
382	712	72
383	508	806
384	547	107
385	423	53
386	454	74
387	666	957
388	167	138
389	824	792
390	402	816
391	387	861
392	176	426
393	717	377
394	982	863
395	160	831
396	156	612
397	26	591
398	697	821
399	378	170
400	297	865
401	447	902
DEMAND_SECTION
1	0
2	7
3	4
4	9
5	3
6	9
7	7
8	6
9	1
10	1
11	8
12	9
13	2
14	1
15	4
16	8
17	2
18	1
19	3
20	6
21	2
22	8
23	3
24	8
25	7
26	3
27	2
28	9
29	4
30	9
31	5
32	5
33	1
34	9
35	6
36	3
37	7
38	8
39	9
40	1
41	6
42	3
43	3
44	4
45	2
46	1
47	7
48	5
49	3
50	3
51	9
52	3
53	1
54	3
55	8
56	3
57	4
58	6
59	5
60	7
61	2
62	9
63	2
64	1
65	1
66	2
67	6
68	5
69	6
70	7
71	2
72	7
73	5
74	3
75	3
76	9
77	5
78	3
79	5
80	3
81	6
82	4
83	1
84	2
85	4
86	2
87	6
88	6
89	9
90	3
91	4
92	1
93	1
94	3
95	5
96	7
97	2
98	7
99	8
100	4
101	1
102	1
103	7
104	1
105	9
106	9
107	2
108	2
109	2
110	3
111	6
112	3
113	1
114	2
115	1
116	8
117	1
118	4
119	5
120	7
121	2
122	4
123	4
124	7
125	8
126	8
127	2
128	9
129	3
130	9
131	7
132	4
133	4
134	9
135	6
136	8
137	8
138	9
139	2
140	5
141	1
142	1
143	2
144	5
145	1
146	4
147	1
148	6
149	6
150	3
151	5
152	8
153	2
154	7
155	2
156	1
157	1
158	7
159	4
160	2
161	9
162	5
163	8
164	3
165	4
166	7
167	7
168	9
169	5
170	7
171	3
172	8
173	1
174	9
175	2
176	7
177	8
178	5
179	2
180	6
181	8
182	9
183	6
184	2
185	5
186	6
187	9
188	8
189	8
190	1
191	9
192	5
193	2
194	5
195	7
196	2
197	5
198	1
199	9
200	6
201	9
202	3
203	3
204	1
205	2
206	8
207	2
208	3
209	8
210	8
211	4
212	9
213	5
214	1
215	6
216	5
217	5
218	5
219	7
220	5
221	8
222	9
223	1
224	9
225	2
226	9
227	4
228	7
229	5
230	5
231	3
232	2
233	8
234	6
235	9
236	4
237	3
238	8
239	5
240	1
241	3
242	6
243	4
244	6
245	7
246	3
247	9
248	5
249	5
250	5
251	6
252	9
253	1
254	6
255	7
256	3
257	7
258	3
259	8
260	9
261	1
262	2
263	7
264	9
265	4
266	9
267	1
268	4
269	2
270	6
271	7
272	1
273	6
274	5
275	9
276	7
277	8
278	4
279	6
280	7
281	4
282	5
283	6
284	5
285	9
286	2
287	7
288	2
289	8
290	9
291	6
292	4
293	1
294	5
295	1
296	9
297	7
298	5
299	1
300	9
301	4
302	5
303	2
304	5
305	2
306	4
307	5
308	1
309	4
310	7
311	6
312	9
313	5
314	4
315	7
316	2
317	9
318	7
319	9
320	5
321	7
322	8
323	5
324	4
325	5
326	8
327	9
328	9
329	4
330	4
331	5
332	8
333	7
334	9
335	3
336	7
337	1
338	6
339	4
340	8
341	3
342	1
343	8
344	6
345	9
346	5
347	8
348	8
349	7
350	5
351	9
352	1
353	9
354	2
355	4
356	4
357	3
358	9
359	3
360	8
361	8
362	2
363	5
364	5
365	1
366	1
367	7
368	9
369	9
370	4
371	4
372	3
373	8
374	9
375	8
376	3
377	3
378	6
379	5
380	1
381	2
382	3
383	9
384	7
385	7
386	1
387	1
388	3
389	1
390	4
391	3
392	8
393	4
394	9
395	4
396	7
397	1
398	6
399	3
400	9
401	5
TIME_WINDOW_SECTION
1	0	3000
2	655	1359
3	1644	1957
4	100	1307
5	714	1983
6	715	2435
7	1161	2863
8	0	920
9	813	1402
10	1651	2109
11	1343	2075
12	2138	2480
13	759	2182
14	790	2103
15	507	1398
16	1144	1593
17	752	998
18	1904	2485
19	1069	2593
20	1269	2121
21	781	2299
22	524	1317
23	176	1886
24	1062	1634
25	684	1097
26	426	2063
27	901	2857
28	1237	1658
29	1567	2296
30	1680	2103
31	1079	1347
32	1266	1552
33	1661	2186
34	1600	2737
35	647	1358
36	952	2031
37	1032	1247
38	305	1660
39	474	2128
40	313	2088
41	0	1430
42	873	2456
43	311	2126
44	1231	2165
45	893	1590
46	568	2526
47	731	1829
48	918	1189
49	879	2705
50	956	1887
51	1271	1693
52	768	1264
53	79	1733
54	338	1355
55	1036	2376
56	0	989
57	983	2194
58	279	2218
59	1571	1792
60	1445	1884
61	1658	2187
62	1016	2157
63	632	1134
64	1273	3000
65	836	1925
66	790	1949
67	532	1291
68	856	2699
69	595	2460
70	1082	2322
71	358	1469
72	141	1276
73	348	2130
74	49	1863
75	1208	2482
76	284	2219
77	705	2624
78	0	1734
79	725	1358
80	1534	2122
81	518	1691
82	551	1971
83	897	2030
84	1133	1878
85	2214	2504
86	126	1087
87	1402	1868
88	637	1849
89	1144	1414
90	135	430
91	641	1687
92	840	2006
93	788	2367
94	238	2204
95	1050	2488
96	1255	2560
97	686	2332
98	1803	2258
99	1243	2108
100	1754	1960
101	845	1714
102	1961	3000
103	1150	2451
104	461	742
105	637	1843
106	845	2263
107	1268	2487
108	1166	2289
109	1918	3000
110	913	2142
111	767	1375
112	642	1042
113	169	2041
114	439	2250
115	1816	3000
116	1235	2828
117	848	1518
118	1073	2705
119	1261	1690
120	231	1509
121	593	1707
122	159	2002
123	50	1504
124	1609	2345
125	685	1448
126	1714	2011
127	1109	1931
128	1375	2013
129	367	1275
130	546	2330
131	1328	3000
132	722	1413
133	1483	3000
134	1376	3000
135	1129	2046
136	322	696
137	1020	1898
138	822	1517
139	1692	1941
140	354	1757
141	463	1415
142	954	2719
143	807	2182
144	1595	1949
145	1035	1435
146	583	1815
147	1360	2272
148	1650	1940
149	735	1894
150	872	2511
151	0	1741
152	643	2122
153	580	1264
154	1142	2657
155	1202	2557
156	392	1781
157	0	1288
158	742	1450
159	1208	1586
160	262	1995
161	1120	2066
162	1419	2677
163	1367	2936
164	653	1418
165	1159	2221
166	644	2169
167	664	1186
168	1067	1872
169	374	1658
170	166	2094
171	611	1998
172	687	1948
173	1312	2242
174	716	1745
175	717	2553
176	1313	2079
177	369	1211
178	1215	1682
179	509	1464
180	990	2109
181	242	1528
182	566	2399
183	604	1950
184	690	1881
185	1244	2092
186	965	1284
187	1958	2985
188	224	1713
189	2268	2813
190	403	2187
191	1520	2117
192	1064	1699
193	1505	2724
194	1150	1625
195	848	2450
196	557	2391
197	686	2376
198	512	2110
199	989	1840
200	1673	2566
201	260	1437
202	310	1364
203	811	2348
204	778	1178
205	562	2396
206	846	1546
207	1179	2641
208	1379	2094
209	197	1800
210	0	1419
211	753	1287
212	559	1444
213	360	2179
214	1519	2102
215	395	1699
216	1710	2129
217	1640	1858
218	880	2379
219	1689	2304
220	832	1666
221	521	2493
222	611	1735
223	1312	2561
224	780	1981
225	986	2507
226	735	2485
227	1319	3000
228	453	2209
229	1017	1415
230	1654	1879
231	0	1318
232	463	2415
233	1302	2341
234	1162	2009
235	1067	1393
236	1133	2893
237	35	1535
238	765	1513
239	1659	2151
240	646	2417
241	725	1787
242	277	1200
243	2208	2442
244	780	2484
245	581	1114
246	1331	1972
247	1395	2824
248	1024	2302
249	1357	1576
250	489	1703
251	304	2220
252	920	2075
253	1761	2011
254	989	1280
255	177	1797
256	564	1804
257	1361	1611
258	526	1427
259	723	1990
260	496	1315
261	1696	2416
262	1604	2367
263	400	2298
264	502	2364
265	279	1813
266	1303	1848
267	1468	2065
268	1484	1861
269	767	2102
270	1267	2044
271	723	2654
272	1640	2351
273	1411	1844
274	363	1200
275	1622	2139
276	970	1959
277	1819	2829
278	0	684
279	711	1306
280	1497	1857
281	615	2276
282	1286	2743
283	500	2037
284	637	2364
285	512	1303
286	618	2561
287	520	1222
288	1636	2021
289	898	2522
290	0	1914
291	219	1319
292	99	1011
293	1247	1755
294	1164	2088
295	1484	1818
296	0	1431
297	0	1747
298	0	423
299	1501	2434
300	207	1555
301	1305	2589
302	1133	2417
303	779	1611
304	1668	1904
305	181	816
306	73	1918
307	0	1455
308	392	1709
309	1566	2355
310	859	1364
311	0	694
312	868	1747
313	1287	2478
314	158	783
315	1137	2467
316	818	1359
317	347	2267
318	648	871
319	838	1999
320	827	2157
321	1890	2522
322	1877	2225
323	860	1845
324	781	2297
325	1074	2490
326	479	1683
327	959	2062
328	580	2146
329	1308	2098
330	641	1435
331	545	2245
332	408	2232
333	671	1713
334	1299	2034
335	1047	1658
336	302	2271
337	1510	2354
338	870	2477
339	1791	3000
340	1168	1435
341	696	2328
342	701	2347
343	266	1048
344	1932	3000
345	2100	2370
346	232	1782
347	706	1961
348	1671	3000
349	385	1646
350	987	2503
351	1328	2165
352	593	2023
353	478	2204
354	561	1048
355	877	1825
356	680	2379
357	850	2438
358	756	1275
359	606	1095
360	521	1520
361	47	1951
362	258	2132
363	1103	2186
364	1301	1976
365	719	2069
366	1819	2124
367	457	1460
368	323	1857
369	1125	2301
370	446	1429
371	1274	1823
372	289	587
373	1421	1936
374	613	893
375	1202	1938
376	331	1376
377	0	1701
378	1178	1574
379	574	2266
380	1118	2043
381	1387	2491
382	957	1693
383	664	1739
384	1309	1926
385	1176	1407
386	201	2011
387	1715	3000
388	181	2100
389	813	1724
390	819	1146
391	603	1698
392	836	1053
393	0	1726
394	525	1094
395	651	2425
396	1178	1977
397	1514	2148
398	2096	2789
399	1219	2479
400	116	1132
401	2273	2543
BACKHAUL_SECTION
14	23	24	25	29	36	41	44	48	50	58	59	62	67	70	79	86	91	98	103	113	120	121	122	128	143	160	162	163	167	174	175	177	178	185	190	193	194	196	198	199	200	205	208	211	214	222	223	225	234	238	240	243	252	254	256	258	268	273	274	294	295	296	297	304	310	313	315	319	342	347	350	351	360	361	365	378	382	389	395	-1
DEPOT_SECTION
1
-1
EOF
