NAME : n1001-0011
COMMENT : "Generated by pyvrp_manuel (VRPLTW)"
TYPE : VRPLTW
DIMENSION : 1001
EDGE_WEIGHT_TYPE : EUC_2D
CAPACITY : 150
VEHICLES : 1000
DISTANCE : 3000
SERVICE_TIME : 200
NODE_COORD_SECTION
1	56	408
2	605	881
3	853	612
4	199	352
5	649	56
6	496	505
7	909	814
8	925	813
9	994	817
10	69	681
11	301	392
12	204	878
13	167	469
14	497	441
15	851	233
16	414	986
17	91	756
18	895	556
19	67	193
20	271	476
21	584	766
22	178	364
23	818	360
24	623	219
25	406	528
26	489	886
27	133	335
28	259	970
29	172	442
30	990	520
31	411	481
32	739	951
33	635	129
34	913	35
35	35	942
36	326	974
37	970	531
38	2	566
39	943	199
40	835	360
41	670	773
42	119	870
43	55	665
44	701	977
45	786	778
46	667	633
47	908	321
48	721	412
49	932	487
50	417	325
51	830	662
52	930	306
53	405	158
54	579	507
55	386	155
56	619	916
57	999	158
58	452	976
59	484	979
60	999	682
61	909	500
62	268	375
63	690	804
64	598	409
65	682	151
66	134	425
67	163	604
68	212	848
69	798	436
70	655	759
71	915	425
72	422	424
73	37	283
74	612	966
75	424	369
76	400	67
77	637	983
78	736	204
79	48	164
80	251	525
81	448	967
82	307	874
83	650	78
84	876	237
85	544	460
86	407	128
87	152	535
88	383	5
89	42	647
90	440	414
91	923	416
92	687	631
93	818	135
94	569	166
95	226	725
96	766	704
97	934	497
98	518	481
99	613	99
100	894	825
101	296	575
102	347	357
103	520	704
104	798	507
105	948	857
106	925	474
107	469	238
108	609	62
109	233	882
110	628	583
111	832	706
112	406	965
113	793	533
114	777	52
115	326	253
116	245	955
117	831	510
118	495	450
119	436	85
120	752	123
121	712	579
122	990	473
123	780	492
124	720	645
125	94	372
126	31	128
127	565	170
128	0	854
129	590	655
130	545	898
131	797	829
132	553	189
133	347	348
134	693	549
135	255	149
136	450	261
137	72	183
138	826	609
139	930	582
140	354	449
141	315	237
142	829	214
143	432	623
144	256	757
145	855	973
146	524	853
147	268	579
148	498	86
149	377	714
150	810	107
151	862	138
152	638	309
153	11	711
154	566	607
155	366	796
156	987	662
157	753	959
158	146	85
159	229	925
160	392	674
161	674	80
162	259	780
163	474	13
164	369	740
165	836	411
166	17	354
167	251	964
168	954	269
169	762	181
170	962	468
171	178	390
172	744	455
173	797	223
174	611	677
175	911	718
176	463	21
177	96	908
178	80	79
179	548	426
180	14	250
181	437	705
182	773	531
183	902	530
184	982	144
185	725	727
186	297	248
187	426	662
188	925	964
189	611	206
190	925	914
191	425	686
192	155	376
193	376	587
194	340	821
195	421	951
196	841	794
197	192	926
198	155	877
199	685	346
200	215	420
201	370	437
202	919	689
203	464	323
204	910	916
205	939	130
206	887	359
207	758	196
208	622	925
209	880	526
210	72	665
211	159	238
212	516	837
213	944	586
214	687	526
215	715	323
216	293	989
217	874	151
218	71	877
219	477	965
220	170	789
221	284	985
222	255	274
223	128	432
224	182	542
225	736	321
226	546	118
227	31	598
228	277	275
229	29	864
230	637	187
231	946	354
232	708	93
233	803	7
234	630	148
235	434	8
236	281	764
237	630	207
238	123	218
239	718	546
240	348	50
241	596	995
242	290	975
243	470	495
244	245	780
245	408	925
246	241	447
247	670	711
248	653	495
249	468	426
250	628	681
251	25	126
252	412	475
253	615	349
254	968	843
255	783	10
256	136	793
257	875	695
258	586	683
259	996	461
260	667	636
261	511	635
262	324	735
263	840	812
264	500	622
265	666	877
266	264	455
267	199	752
268	647	57
269	494	300
270	906	377
271	342	165
272	350	222
273	35	871
274	518	727
275	44	797
276	465	410
277	955	467
278	908	89
279	284	156
280	213	781
281	693	288
282	942	950
283	15	233
284	236	743
285	285	229
286	748	77
287	129	232
288	251	347
289	474	679
290	646	940
291	756	582
292	294	294
293	400	889
294	478	639
295	412	595
296	961	768
297	833	677
298	115	956
299	191	260
300	988	288
301	69	416
302	852	843
303	4	368
304	129	926
305	599	273
306	42	521
307	271	284
308	390	814
309	501	60
310	323	388
311	367	97
312	947	576
313	687	227
314	112	930
315	556	953
316	944	701
317	136	292
318	155	147
319	363	802
320	738	794
321	492	99
322	890	861
323	940	920
324	187	172
325	163	612
326	98	357
327	482	321
328	446	919
329	828	597
330	104	67
331	631	978
332	206	980
333	109	127
334	173	307
335	34	789
336	904	393
337	884	213
338	256	87
339	820	158
340	621	56
341	959	670
342	121	348
343	905	256
344	607	730
345	165	989
346	881	696
347	505	691
348	341	916
349	798	84
350	413	498
351	827	912
352	386	29
353	472	981
354	13	166
355	407	635
356	819	242
357	880	209
358	53	997
359	571	859
360	251	100
361	803	505
362	314	912
363	318	140
364	86	275
365	840	350
366	831	365
367	733	16
368	160	362
369	514	260
370	280	248
371	741	23
372	629	330
373	569	740
374	87	56
375	185	727
376	236	73
377	444	432
378	747	667
379	749	94
380	481	619
381	223	17
382	566	136
383	647	300
384	33	168
385	939	839
386	518	832
387	740	210
388	49	650
389	169	14
390	553	985
391	406	480
392	236	429
393	330	614
394	175	316
395	955	869
396	671	682
397	435	535
398	946	234
399	277	554
400	579	48
401	182	252
402	505	700
403	527	668
404	719	920
405	724	215
406	319	481
407	416	715
408	577	751
409	447	909
410	141	599
411	821	241
412	462	54
413	290	872
414	387	514
415	344	976
416	943	54
417	202	135
418	269	49
419	102	616
420	734	975
421	529	495
422	838	926
423	374	217
424	397	466
425	579	631
426	736	463
427	508	540
428	810	971
429	511	67
430	352	223
431	456	714
432	890	692
433	217	578
434	770	751
435	957	531
436	822	683
437	877	3
438	949	979
439	443	56
440	900	434
441	234	965
442	332	404
443	627	100
444	337	272
445	183	88
446	613	637
447	600	231
448	501	705
449	139	222
450	610	101
451	509	705
452	80	680
453	992	962
454	52	895
455	371	850
456	263	654
457	117	800
458	339	1000
459	50	179
460	295	289
461	179	825
462	866	168
463	695	348
464	660	418
465	302	355
466	653	488
467	680	490
468	557	853
469	27	97
470	615	34
471	157	848
472	438	980
473	122	373
474	561	968
475	217	394
476	14	954
477	139	433
478	721	606
479	220	163
480	282	589
481	555	949
482	483	984
483	304	356
484	246	350
485	823	86
486	193	347
487	343	870
488	491	957
489	443	512
490	194	641
491	815	725
492	703	436
493	176	514
494	822	681
495	525	622
496	941	718
497	751	638
498	869	678
499	348	595
500	631	999
501	110	927
502	897	621
503	884	117
504	918	395
505	502	216
506	683	167
507	806	462
508	605	104
509	638	647
510	595	885
511	987	525
512	473	309
513	292	378
514	502	993
515	134	230
516	730	370
517	218	521
518	947	472
519	183	222
520	940	773
521	431	82
522	217	857
523	982	329
524	585	229
525	240	296
526	993	891
527	660	840
528	594	235
529	54	901
530	390	13
531	157	859
532	392	196
533	73	497
534	335	303
535	907	803
536	523	112
537	610	109
538	162	72
539	183	701
540	107	530
541	232	306
542	124	926
543	199	473
544	371	931
545	398	54
546	59	333
547	495	963
548	42	608
549	147	438
550	985	219
551	1	223
552	365	688
553	95	658
554	326	402
555	21	847
556	184	575
557	423	408
558	52	531
559	105	556
560	337	530
561	732	73
562	89	605
563	517	468
564	753	853
565	263	975
566	415	489
567	686	18
568	282	469
569	940	765
570	258	517
571	151	404
572	837	933
573	800	564
574	279	350
575	891	997
576	788	417
577	327	897
578	898	283
579	351	616
580	738	294
581	662	423
582	373	86
583	485	904
584	383	54
585	311	991
586	447	372
587	336	834
588	312	507
589	94	178
590	740	754
591	946	14
592	349	961
593	915	166
594	802	746
595	884	182
596	109	383
597	985	659
598	292	223
599	370	10
600	548	790
601	610	390
602	402	920
603	457	956
604	847	737
605	812	49
606	639	395
607	762	996
608	915	798
609	117	470
610	761	514
611	923	388
612	651	266
613	46	196
614	985	657
615	700	512
616	333	947
617	106	355
618	25	318
619	369	853
620	404	266
621	589	717
622	106	537
623	63	466
624	525	743
625	850	978
626	6	270
627	713	821
628	856	189
629	871	565
630	478	71
631	45	292
632	633	404
633	752	787
634	226	230
635	480	137
636	444	41
637	267	579
638	14	6
639	258	725
640	835	203
641	409	493
642	4	692
643	806	492
644	267	72
645	855	189
646	963	68
647	84	162
648	626	855
649	184	736
650	877	691
651	607	356
652	10	788
653	208	380
654	478	905
655	713	931
656	676	66
657	693	768
658	1	351
659	443	638
660	845	352
661	931	157
662	975	585
663	453	271
664	356	823
665	786	32
666	598	960
667	695	607
668	975	705
669	805	480
670	223	50
671	690	210
672	123	171
673	306	462
674	671	370
675	325	642
676	134	56
677	738	988
678	700	555
679	637	985
680	120	899
681	949	116
682	301	601
683	55	787
684	543	208
685	861	755
686	702	828
687	651	584
688	505	804
689	578	37
690	94	909
691	888	886
692	902	621
693	933	974
694	503	914
695	149	301
696	963	396
697	35	441
698	869	694
699	630	535
700	522	375
701	361	787
702	946	650
703	561	297
704	8	625
705	592	703
706	90	259
707	464	446
708	717	336
709	398	365
710	281	886
711	316	861
712	756	725
713	31	831
714	737	275
715	770	344
716	706	887
717	359	526
718	965	853
719	719	823
720	577	445
721	607	34
722	696	683
723	449	637
724	3	916
725	485	253
726	952	686
727	170	278
728	583	976
729	918	746
730	576	100
731	954	662
732	682	243
733	451	470
734	780	664
735	551	270
736	329	11
737	402	302
738	896	410
739	21	96
740	784	442
741	291	669
742	703	335
743	512	96
744	146	550
745	441	737
746	278	519
747	300	58
748	334	438
749	284	295
750	465	119
751	441	478
752	928	489
753	392	830
754	227	834
755	827	336
756	437	511
757	184	601
758	477	377
759	644	918
760	598	763
761	915	439
762	774	92
763	403	317
764	247	717
765	280	72
766	952	266
767	594	939
768	434	142
769	329	768
770	333	510
771	499	49
772	272	935
773	969	748
774	955	716
775	911	742
776	294	374
777	978	309
778	980	408
779	398	862
780	371	965
781	103	659
782	561	781
783	234	589
784	15	967
785	542	474
786	364	958
787	981	887
788	972	766
789	802	809
790	116	917
791	871	54
792	20	986
793	450	738
794	800	583
795	965	335
796	713	612
797	312	964
798	354	262
799	165	519
800	105	32
801	448	536
802	518	283
803	754	500
804	740	526
805	580	535
806	714	997
807	54	501
808	988	57
809	446	905
810	458	778
811	155	602
812	209	988
813	638	45
814	217	30
815	202	397
816	290	742
817	561	217
818	797	452
819	189	127
820	675	316
821	758	994
822	397	640
823	760	224
824	239	95
825	310	761
826	946	906
827	85	699
828	348	729
829	11	211
830	294	26
831	146	480
832	186	388
833	827	785
834	378	902
835	401	498
836	874	937
837	818	573
838	666	35
839	676	206
840	1	53
841	612	539
842	96	83
843	772	497
844	192	957
845	270	275
846	813	100
847	254	269
848	485	964
849	234	481
850	884	349
851	638	349
852	966	34
853	262	738
854	290	735
855	959	716
856	71	335
857	287	86
858	370	562
859	650	796
860	937	373
861	402	345
862	341	314
863	938	787
864	980	918
865	264	559
866	209	748
867	428	628
868	970	424
869	449	2
870	798	190
871	51	411
872	509	536
873	440	706
874	316	550
875	691	146
876	339	652
877	241	322
878	80	94
879	898	521
880	263	148
881	545	392
882	625	373
883	946	459
884	618	38
885	895	638
886	599	766
887	645	949
888	186	966
889	500	145
890	299	190
891	382	751
892	182	885
893	713	582
894	416	688
895	142	750
896	772	652
897	280	973
898	661	937
899	966	268
900	343	71
901	582	282
902	465	11
903	845	306
904	574	897
905	358	182
906	327	566
907	826	848
908	503	473
909	648	926
910	222	21
911	839	630
912	850	312
913	794	693
914	51	793
915	11	525
916	415	965
917	87	124
918	0	596
919	67	566
920	162	622
921	382	736
922	740	331
923	548	999
924	699	486
925	952	237
926	331	849
927	226	690
928	466	917
929	830	73
930	89	367
931	835	653
932	361	77
933	65	432
934	278	90
935	944	324
936	520	138
937	807	675
938	652	729
939	710	982
940	944	883
941	581	456
942	959	648
943	483	836
944	73	74
945	461	665
946	464	376
947	277	486
948	677	543
949	876	371
950	197	953
951	499	983
952	362	517
953	374	64
954	989	361
955	707	385
956	296	420
957	379	18
958	898	454
959	965	403
960	959	54
961	96	535
962	234	279
963	196	629
964	79	104
965	247	735
966	507	935
967	57	673
968	146	119
969	511	378
970	814	683
971	943	288
972	189	522
973	914	734
974	151	804
975	84	27
976	986	37
977	125	618
978	662	108
979	756	606
980	823	916
981	368	539
982	853	797
983	82	122
984	227	25
985	387	732
986	187	330
987	469	209
988	685	44
989	356	722
990	948	107
991	550	621
992	437	645
993	956	742
994	105	788
995	962	333
996	201	553
997	491	89
998	593	501
999	938	143
1000	12	92
1001	729	152
DEMAND_SECTION
1	0
2	8
3	6
4	5
5	9
6	2
7	9
8	4
9	5
10	8
11	3
12	6
13	5
14	5
15	6
16	8
17	8
18	2
19	7
20	7
21	4
22	3
23	4
24	2
25	7
26	2
27	2
28	7
29	1
30	4
31	6
32	6
33	7
34	8
35	6
36	5
37	6
38	8
39	6
40	2
41	6
42	5
43	1
44	5
45	6
46	9
47	5
48	2
49	6
50	6
51	7
52	1
53	4
54	1
55	3
56	5
57	3
58	3
59	5
60	9
61	8
62	4
63	7
64	9
65	9
66	3
67	3
68	4
69	5
70	6
71	8
72	6
73	8
74	3
75	9
76	1
77	6
78	7
79	5
80	2
81	9
82	4
83	7
84	5
85	4
86	8
87	7
88	9
89	7
90	1
91	1
92	6
93	3
94	5
95	2
96	7
97	2
98	4
99	2
100	8
101	4
102	1
103	2
104	1
105	7
106	3
107	4
108	1
109	8
110	1
111	8
112	7
113	8
114	7
115	3
116	5
117	4
118	9
119	2
120	6
121	9
122	4
123	3
124	1
125	7
126	8
127	4
128	6
129	2
130	1
131	9
132	1
133	3
134	6
135	6
136	4
137	8
138	4
139	2
140	8
141	4
142	5
143	4
144	6
145	1
146	9
147	4
148	3
149	6
150	2
151	4
152	2
153	2
154	6
155	2
156	3
157	3
158	2
159	1
160	4
161	9
162	9
163	8
164	8
165	5
166	6
167	4
168	8
169	2
170	3
171	6
172	2
173	8
174	3
175	7
176	6
177	9
178	5
179	2
180	5
181	4
182	1
183	1
184	9
185	3
186	8
187	8
188	4
189	3
190	9
191	9
192	3
193	8
194	4
195	6
196	5
197	5
198	5
199	4
200	8
201	7
202	1
203	7
204	6
205	7
206	1
207	6
208	8
209	1
210	1
211	4
212	3
213	2
214	4
215	7
216	2
217	7
218	8
219	6
220	5
221	2
222	3
223	5
224	1
225	4
226	4
227	8
228	5
229	1
230	2
231	4
232	1
233	2
234	3
235	2
236	1
237	4
238	1
239	5
240	8
241	1
242	2
243	6
244	1
245	7
246	1
247	7
248	1
249	2
250	8
251	6
252	7
253	4
254	8
255	8
256	2
257	6
258	8
259	3
260	9
261	6
262	3
263	8
264	3
265	5
266	6
267	7
268	2
269	1
270	2
271	5
272	5
273	1
274	8
275	9
276	8
277	8
278	2
279	4
280	9
281	6
282	5
283	6
284	5
285	8
286	7
287	6
288	6
289	8
290	7
291	4
292	3
293	7
294	2
295	7
296	2
297	1
298	9
299	4
300	2
301	8
302	4
303	5
304	1
305	4
306	3
307	1
308	8
309	7
310	6
311	7
312	3
313	7
314	6
315	9
316	5
317	1
318	7
319	8
320	5
321	6
322	9
323	3
324	2
325	4
326	8
327	4
328	6
329	3
330	5
331	9
332	5
333	9
334	2
335	1
336	7
337	4
338	8
339	7
340	8
341	6
342	9
343	8
344	5
345	6
346	3
347	7
348	4
349	3
350	6
351	7
352	7
353	9
354	3
355	1
356	3
357	9
358	3
359	3
360	6
361	4
362	5
363	9
364	2
365	3
366	1
367	9
368	3
369	3
370	7
371	2
372	6
373	4
374	2
375	1
376	8
377	2
378	8
379	6
380	6
381	5
382	6
383	3
384	9
385	6
386	9
387	9
388	7
389	7
390	4
391	8
392	4
393	1
394	5
395	3
396	9
397	4
398	2
399	4
400	6
401	4
402	2
403	4
404	5
405	7
406	1
407	3
408	1
409	1
410	1
411	4
412	3
413	8
414	7
415	7
416	3
417	2
418	1
419	3
420	7
421	8
422	7
423	5
424	8
425	4
426	1
427	3
428	2
429	4
430	2
431	7
432	4
433	1
434	9
435	2
436	9
437	3
438	6
439	1
440	3
441	5
442	7
443	2
444	5
445	1
446	2
447	9
448	5
449	7
450	4
451	9
452	4
453	3
454	3
455	7
456	1
457	4
458	9
459	5
460	2
461	7
462	6
463	8
464	5
465	2
466	2
467	7
468	9
469	8
470	5
471	1
472	7
473	6
474	1
475	4
476	7
477	2
478	4
479	8
480	7
481	7
482	9
483	1
484	7
485	3
486	1
487	9
488	2
489	6
490	3
491	5
492	3
493	3
494	5
495	7
496	5
497	5
498	7
499	2
500	6
501	8
502	1
503	5
504	3
505	4
506	7
507	7
508	5
509	8
510	9
511	1
512	1
513	6
514	6
515	2
516	2
517	7
518	6
519	4
520	4
521	9
522	7
523	3
524	2
525	3
526	2
527	9
528	9
529	6
530	4
531	2
532	2
533	9
534	8
535	7
536	2
537	6
538	1
539	6
540	8
541	2
542	8
543	2
544	5
545	5
546	1
547	3
548	8
549	2
550	8
551	6
552	3
553	7
554	1
555	1
556	3
557	5
558	5
559	1
560	4
561	2
562	2
563	4
564	3
565	9
566	8
567	9
568	7
569	3
570	1
571	6
572	1
573	3
574	1
575	7
576	8
577	1
578	1
579	5
580	3
581	7
582	3
583	7
584	8
585	7
586	5
587	5
588	5
589	8
590	7
591	7
592	5
593	3
594	5
595	9
596	5
597	3
598	3
599	2
600	3
601	1
602	9
603	7
604	6
605	3
606	8
607	9
608	3
609	8
610	8
611	3
612	9
613	2
614	1
615	1
616	2
617	9
618	9
619	9
620	3
621	8
622	9
623	1
624	6
625	6
626	1
627	2
628	5
629	1
630	6
631	7
632	2
633	7
634	5
635	4
636	6
637	3
638	4
639	1
640	5
641	1
642	9
643	4
644	2
645	5
646	7
647	6
648	8
649	4
650	2
651	9
652	3
653	2
654	3
655	7
656	5
657	1
658	6
659	2
660	3
661	4
662	8
663	4
664	7
665	6
666	1
667	1
668	9
669	9
670	9
671	5
672	3
673	3
674	6
675	9
676	7
677	4
678	7
679	6
680	2
681	7
682	1
683	2
684	3
685	9
686	3
687	8
688	8
689	8
690	7
691	2
692	9
693	4
694	6
695	6
696	1
697	5
698	7
699	8
700	1
701	4
702	7
703	3
704	3
705	4
706	8
707	8
708	8
709	4
710	2
711	8
712	7
713	6
714	4
715	6
716	1
717	3
718	1
719	4
720	5
721	2
722	4
723	2
724	8
725	5
726	5
727	5
728	1
729	3
730	7
731	1
732	5
733	9
734	7
735	3
736	9
737	6
738	4
739	2
740	9
741	7
742	9
743	7
744	3
745	6
746	4
747	1
748	8
749	2
750	3
751	7
752	7
753	4
754	3
755	5
756	9
757	5
758	4
759	9
760	8
761	7
762	2
763	7
764	7
765	6
766	9
767	3
768	6
769	2
770	6
771	2
772	9
773	4
774	4
775	5
776	7
777	6
778	4
779	4
780	2
781	2
782	8
783	3
784	7
785	9
786	2
787	2
788	7
789	1
790	3
791	8
792	1
793	4
794	5
795	9
796	8
797	7
798	9
799	8
800	7
801	9
802	4
803	5
804	4
805	9
806	9
807	5
808	7
809	5
810	9
811	7
812	2
813	3
814	5
815	3
816	5
817	2
818	6
819	7
820	9
821	9
822	7
823	8
824	7
825	1
826	9
827	8
828	3
829	3
830	8
831	7
832	7
833	1
834	2
835	5
836	9
837	8
838	4
839	1
840	4
841	1
842	1
843	6
844	7
845	3
846	3
847	1
848	4
849	9
850	2
851	8
852	2
853	9
854	2
855	2
856	5
857	5
858	7
859	5
860	2
861	9
862	3
863	2
864	1
865	2
866	8
867	3
868	1
869	3
870	3
871	9
872	2
873	5
874	2
875	2
876	6
877	8
878	9
879	2
880	4
881	5
882	2
883	6
884	5
885	7
886	7
887	7
888	7
889	4
890	8
891	9
892	7
893	8
894	7
895	9
896	5
897	6
898	8
899	8
900	9
901	6
902	4
903	2
904	5
905	5
906	3
907	3
908	8
909	3
910	5
911	7
912	9
913	1
914	2
915	8
916	8
917	5
918	3
919	8
920	2
921	5
922	9
923	5
924	4
925	7
926	1
927	9
928	7
929	9
930	9
931	1
932	5
933	4
934	8
935	9
936	1
937	9
938	7
939	3
940	3
941	7
942	4
943	3
944	4
945	4
946	2
947	6
948	5
949	5
950	7
951	1
952	2
953	3
954	4
955	3
956	7
957	9
958	1
959	5
960	2
961	4
962	9
963	3
964	5
965	2
966	8
967	8
968	1
969	8
970	7
971	1
972	4
973	1
974	4
975	9
976	9
977	4
978	1
979	1
980	8
981	1
982	7
983	5
984	2
985	5
986	8
987	7
988	9
989	4
990	5
991	9
992	5
993	4
994	3
995	6
996	5
997	2
998	8
999	3
1000	1
1001	5
TIME_WINDOW_SECTION
1	0	3000
2	1169	1863
3	1293	2639
4	116	727
5	1645	1943
6	1439	2109
7	624	2156
8	478	2032
9	936	2364
10	1238	1633
11	0	1329
12	1473	1793
13	0	1909
14	6	1900
15	233	1579
16	1370	2112
17	918	1574
18	1024	2493
19	794	2475
20	37	1355
21	113	1610
22	1051	1565
23	216	2160
24	528	1853
25	1106	2907
26	1036	2063
27	643	1532
28	71	1507
29	317	629
30	1371	1939
31	1176	2002
32	760	2393
33	639	1719
34	979	2011
35	1281	1608
36	725	2316
37	37	1853
38	1448	2493
39	1046	2002
40	973	2268
41	1106	1907
42	468	947
43	0	1291
44	1035	2498
45	691	951
46	723	2485
47	1025	1657
48	1529	2048
49	713	2124
50	502	1104
51	752	2423
52	808	1937
53	1664	3000
54	551	956
55	1775	2931
56	1034	2911
57	762	1929
58	855	2360
59	97	1477
60	822	1273
61	1026	2757
62	1390	3000
63	241	1754
64	941	1717
65	727	2282
66	1341	2242
67	747	1185
68	630	2458
69	578	1704
70	1033	2815
71	498	1716
72	628	1536
73	916	2069
74	820	1930
75	325	1748
76	325	2138
77	592	2376
78	667	2450
79	430	1225
80	1568	2780
81	829	1506
82	962	2564
83	531	2276
84	584	1770
85	1032	1482
86	1361	2597
87	726	1562
88	1374	2720
89	41	629
90	2179	2449
91	592	2485
92	0	1800
93	646	2036
94	1682	2116
95	1068	2393
96	751	2015
97	1091	1493
98	1279	2153
99	162	1575
100	676	2140
101	163	1076
102	0	1520
103	0	1371
104	533	1926
105	1333	1712
106	1530	1810
107	1775	2736
108	931	1291
109	629	2600
110	676	1272
111	962	1583
112	231	1345
113	1554	2489
114	850	2423
115	959	2496
116	492	2345
117	1124	2625
118	829	2220
119	718	1016
120	1661	2264
121	1683	2212
122	1127	1684
123	1060	1576
124	78	1500
125	667	2012
126	333	566
127	974	2879
128	1344	2553
129	581	1671
130	1386	1632
131	935	1170
132	633	1358
133	294	1128
134	1439	2436
135	1480	2253
136	0	1134
137	0	1546
138	665	1536
139	462	1443
140	1372	3000
141	1483	3000
142	993	1967
143	1587	3000
144	0	1553
145	570	1711
146	1223	1753
147	850	1512
148	0	1846
149	279	1677
150	851	1391
151	746	1705
152	1051	2483
153	1179	2746
154	0	1250
155	1375	3000
156	999	1210
157	1112	1538
158	754	2032
159	774	1247
160	2176	2381
161	1024	2986
162	765	1965
163	497	1754
164	1560	2438
165	623	2558
166	293	2179
167	1326	2428
168	1056	2518
169	606	1092
170	327	1738
171	1624	2262
172	1069	1479
173	159	1415
174	1450	2495
175	697	1399
176	273	927
177	1661	2230
178	1962	2326
179	0	1429
180	1004	1467
181	0	1757
182	1140	2339
183	196	1858
184	697	2458
185	437	2233
186	1525	1872
187	957	2705
188	524	1893
189	364	1288
190	1454	1956
191	0	1463
192	282	1127
193	1660	2668
194	93	1539
195	1038	1459
196	419	2328
197	213	1998
198	512	2254
199	1675	2501
200	105	982
201	1369	3000
202	1192	1607
203	943	1990
204	360	1842
205	992	1678
206	184	1535
207	1549	2135
208	634	1576
209	255	1690
210	1003	2169
211	1122	1782
212	884	1424
213	806	2377
214	807	1754
215	369	1029
216	1324	2330
217	1199	1480
218	986	1551
219	692	1706
220	0	1524
221	614	2238
222	0	903
223	2313	3000
224	220	1255
225	457	1885
226	487	1116
227	2233	2590
228	1117	2017
229	895	2384
230	566	1362
231	1603	1978
232	792	2683
233	1672	2152
234	1313	2992
235	1747	2418
236	912	2321
237	1355	2121
238	171	1550
239	733	1241
240	0	1332
241	1066	1332
242	1617	2366
243	0	1390
244	296	2218
245	1160	2088
246	488	1403
247	1378	2444
248	1157	1769
249	2191	2513
250	1423	1633
251	1036	1804
252	982	1429
253	743	2097
254	1007	2011
255	267	2223
256	601	880
257	1395	1837
258	763	2658
259	356	1711
260	1247	1619
261	1498	2676
262	1137	2228
263	1012	1231
264	1254	3000
265	1275	1890
266	1044	1694
267	1033	1309
268	0	1902
269	0	1103
270	1270	1496
271	1555	3000
272	1258	3000
273	1760	2861
274	1079	1294
275	534	2336
276	150	837
277	779	2256
278	1176	1819
279	1512	2608
280	753	2752
281	1446	2573
282	611	1854
283	1889	2514
284	958	2460
285	0	1208
286	998	2249
287	1232	1868
288	547	832
289	0	1635
290	733	2268
291	1916	2122
292	220	1713
293	1107	2333
294	1813	2202
295	232	2063
296	775	1499
297	1359	2481
298	1434	2153
299	0	1695
300	751	1918
301	34	885
302	561	1981
303	1547	1747
304	981	2378
305	1049	2882
306	0	1138
307	208	741
308	909	2740
309	236	1019
310	271	1714
311	1647	2636
312	1400	2272
313	913	2081
314	207	1083
315	1308	2675
316	1277	1641
317	610	943
318	297	583
319	834	1419
320	1088	2643
321	712	2490
322	828	1786
323	614	2202
324	1635	2854
325	1506	2527
326	1270	2997
327	1044	1432
328	1329	1560
329	0	1730
330	1430	2080
331	106	1533
332	0	1397
333	840	1123
334	1753	2906
335	1358	2960
336	891	1905
337	654	1845
338	780	1521
339	898	1488
340	394	2042
341	781	2544
342	0	920
343	985	1879
344	618	1210
345	1043	2586
346	1157	1510
347	610	2200
348	589	1473
349	1394	1844
350	274	1633
351	967	2081
352	1403	2821
353	1165	2449
354	0	1575
355	1547	2881
356	1413	2047
357	969	2617
358	1247	2560
359	1331	2008
360	1708	2233
361	264	1903
362	988	1790
363	2075	2628
364	1167	3000
365	1236	1796
366	238	1861
367	505	1553
368	5	476
369	1982	2523
370	679	1231
371	1286	2082
372	673	958
373	1077	2918
374	1365	2294
375	0	1759
376	1486	2991
377	534	1147
378	353	1964
379	410	1412
380	72	1979
381	284	1154
382	0	1667
383	1110	2969
384	381	1235
385	589	1495
386	399	1217
387	1006	1568
388	1596	3000
389	868	1928
390	1650	2132
391	1780	2047
392	819	1630
393	373	2223
394	510	2000
395	834	2524
396	1277	2805
397	2017	2629
398	968	1265
399	873	2257
400	1310	2097
401	381	1311
402	404	2276
403	1117	2062
404	433	2321
405	1201	2835
406	423	927
407	1423	2867
408	838	2452
409	737	2323
410	570	2379
411	263	1953
412	919	2302
413	1214	2661
414	2003	2617
415	791	2471
416	802	1628
417	1446	2418
418	365	1360
419	483	1300
420	649	1855
421	977	2035
422	347	1900
423	1750	2849
424	1669	2225
425	515	1827
426	239	1938
427	1082	2282
428	361	1814
429	0	1621
430	1040	1651
431	13	1680
432	880	2867
433	1412	3000
434	1061	1486
435	478	1997
436	191	1704
437	503	1538
438	685	1629
439	60	1341
440	802	2666
441	1212	2921
442	381	1964
443	918	1273
444	608	1992
445	0	1245
446	1171	2515
447	320	1182
448	1405	2094
449	0	1492
450	0	1492
451	801	2640
452	231	1278
453	1022	1792
454	1014	1940
455	1099	1671
456	19	1748
457	1977	2611
458	0	1671
459	0	1208
460	1323	2471
461	561	883
462	461	2046
463	1094	1679
464	1559	2494
465	354	2237
466	187	1158
467	383	2115
468	826	2606
469	241	1386
470	1321	2611
471	494	2475
472	542	1128
473	1137	1533
474	1092	1313
475	0	1117
476	842	2340
477	815	2265
478	659	2002
479	430	2014
480	696	1150
481	430	2120
482	671	955
483	1517	3000
484	369	1435
485	1305	1890
486	1878	3000
487	889	1271
488	753	2378
489	898	1785
490	2041	2456
491	482	1945
492	587	1398
493	1936	2923
494	922	2279
495	787	2312
496	788	1130
497	854	1185
498	706	1551
499	1398	3000
500	1014	2820
501	699	1196
502	846	2668
503	1066	1464
504	913	1393
505	963	1704
506	617	1209
507	533	1372
508	1186	1951
509	1197	3000
510	1516	2470
511	403	2179
512	519	2164
513	1477	1688
514	1042	1497
515	10	1507
516	1016	2293
517	28	1546
518	816	2351
519	152	2081
520	1074	2103
521	627	1735
522	1507	2099
523	814	1873
524	743	1178
525	1861	2937
526	859	1944
527	1160	2254
528	0	1668
529	968	1230
530	889	1457
531	8	1263
532	1133	2113
533	945	1478
534	675	1113
535	648	1264
536	673	1013
537	1087	1764
538	1409	3000
539	485	1569
540	1282	1752
541	1011	2975
542	153	1239
543	2054	2758
544	560	2512
545	1396	1647
546	765	1798
547	1132	3000
548	883	2828
549	1288	2321
550	1324	2184
551	0	1108
552	791	2603
553	1035	2182
554	0	1272
555	985	1504
556	1468	1795
557	1869	2459
558	0	689
559	1689	1976
560	994	2111
561	1763	2142
562	0	1225
563	705	1358
564	153	2044
565	818	1844
566	163	1875
567	493	1724
568	1290	2768
569	1113	2547
570	2214	2495
571	1509	1798
572	1312	2254
573	655	1394
574	873	2563
575	1174	2038
576	1052	2670
577	780	2536
578	1030	2496
579	1067	1894
580	672	1003
581	1183	2994
582	508	1903
583	278	2043
584	1367	3000
585	740	1853
586	155	1011
587	750	1682
588	195	1407
589	2210	2822
590	1608	2175
591	210	2181
592	873	2854
593	849	1600
594	923	2893
595	896	1402
596	1701	2169
597	413	1969
598	444	1992
599	330	712
600	1201	3000
601	552	2268
602	1062	2995
603	804	1596
604	559	1842
605	1261	2557
606	1721	2673
607	108	2064
608	748	1427
609	0	1004
610	1464	2012
611	1215	1470
612	257	1336
613	1422	3000
614	727	2337
615	1223	2487
616	1402	2923
617	532	2042
618	1704	2101
619	544	1597
620	360	1244
621	620	1724
622	90	1340
623	1016	2327
624	0	1487
625	1084	2481
626	2290	2913
627	494	1079
628	1377	2377
629	1722	2173
630	545	1463
631	823	2640
632	351	1347
633	47	1558
634	1246	1459
635	1693	2412
636	1394	1784
637	873	1389
638	860	1800
639	1082	2014
640	849	2277
641	1593	3000
642	180	453
643	893	2124
644	0	1373
645	186	1501
646	958	1322
647	0	828
648	346	2231
649	0	902
650	1391	2358
651	1492	1944
652	332	2068
653	76	1093
654	730	1840
655	816	2044
656	0	1776
657	512	1138
658	0	553
659	328	601
660	1645	2135
661	426	2225
662	1144	1361
663	1285	2176
664	0	1506
665	215	1457
666	1455	2273
667	1104	1512
668	1110	1317
669	623	2104
670	1173	1844
671	650	1615
672	955	1830
673	2060	2302
674	1423	2165
675	681	2155
676	673	1941
677	1273	1697
678	666	2360
679	522	2374
680	1003	1245
681	765	2571
682	187	1800
683	1976	2620
684	1497	2929
685	833	1743
686	452	1516
687	985	2482
688	1516	2848
689	1621	2667
690	378	1611
691	1268	2399
692	756	2473
693	957	1480
694	964	1614
695	2329	2651
696	726	1118
697	624	1226
698	762	2729
699	1184	2711
700	301	1646
701	539	808
702	819	1616
703	1469	2212
704	1262	1921
705	838	2838
706	1078	1804
707	1342	2085
708	44	1648
709	1359	1691
710	1103	2299
711	1521	2429
712	863	1229
713	1030	3000
714	1181	1407
715	698	1033
716	1425	2128
717	723	1109
718	1188	1774
719	1148	1437
720	747	2084
721	1144	2758
722	902	1548
723	908	1122
724	1248	2261
725	836	2710
726	877	2405
727	0	1349
728	1398	1878
729	732	2507
730	948	2786
731	374	1655
732	226	1108
733	0	1343
734	189	1427
735	1585	2713
736	532	2350
737	1161	1668
738	975	2370
739	0	1093
740	809	1543
741	711	1224
742	696	1631
743	688	1867
744	1050	2403
745	875	1518
746	676	1685
747	143	1889
748	0	847
749	1435	2047
750	1501	1954
751	382	2212
752	1191	2649
753	258	1874
754	1325	1848
755	656	2325
756	0	1559
757	1369	2524
758	657	1789
759	1238	2555
760	928	1374
761	491	2317
762	256	1974
763	908	1869
764	666	987
765	1068	1886
766	1112	2552
767	1438	1941
768	1449	2574
769	1146	2321
770	0	1361
771	1453	2724
772	0	1292
773	1055	1299
774	411	1606
775	808	2001
776	0	1241
777	1537	2094
778	1318	2114
779	735	1611
780	1707	2215
781	672	1878
782	1221	2090
783	814	2564
784	694	1907
785	483	1753
786	1419	2286
787	695	1957
788	501	1909
789	273	1930
790	328	2206
791	549	1860
792	932	1750
793	1529	2878
794	499	1445
795	1354	2286
796	21	1399
797	1704	2360
798	143	821
799	2186	2782
800	693	1720
801	883	1633
802	2017	2597
803	1725	2450
804	25	1584
805	1530	1944
806	1641	2168
807	1429	2755
808	1032	1386
809	1647	1952
810	523	1708
811	829	2685
812	1769	2572
813	658	2641
814	133	1562
815	555	1539
816	0	1826
817	344	1716
818	1399	1712
819	517	2081
820	441	2097
821	878	2184
822	1747	2759
823	975	1720
824	1244	2154
825	0	1615
826	604	1606
827	1654	2798
828	1348	2795
829	1961	2700
830	55	1989
831	226	823
832	353	1692
833	807	2662
834	1050	2339
835	486	1272
836	702	2435
837	1441	2156
838	679	2537
839	281	1400
840	1521	1747
841	1090	1593
842	1290	3000
843	1509	2383
844	863	1663
845	1030	1487
846	913	2419
847	938	2385
848	252	2155
849	971	1241
850	1302	1547
851	853	1963
852	1283	1998
853	822	1865
854	1357	2339
855	1455	2203
856	1008	2044
857	239	624
858	877	2553
859	1267	1960
860	806	1487
861	594	2016
862	2046	2416
863	700	1317
864	366	2260
865	784	1034
866	244	1807
867	390	1188
868	900	1193
869	898	1352
870	812	1206
871	1759	2257
872	994	2690
873	1130	2138
874	714	1855
875	219	2015
876	195	2044
877	0	1198
878	1423	2584
879	879	2164
880	1353	3000
881	1082	1437
882	0	1346
883	736	2068
884	955	1157
885	931	1561
886	0	1572
887	223	2080
888	516	1581
889	1243	1560
890	1526	2632
891	115	1604
892	1302	2758
893	1460	2079
894	1526	2543
895	1275	2849
896	1019	1935
897	1489	2431
898	361	1716
899	295	1948
900	1095	1408
901	264	1383
902	628	1551
903	729	1746
904	887	1134
905	1321	2845
906	1243	2567
907	1723	1954
908	682	2076
909	930	1700
910	0	1493
911	901	2395
912	303	2278
913	1464	2142
914	498	1811
915	0	1583
916	1573	2576
917	524	767
918	0	1479
919	0	1290
920	2063	2587
921	712	1308
922	793	1892
923	800	1435
924	1918	2201
925	1127	2569
926	1665	2097
927	1709	2855
928	1122	1455
929	636	1798
930	0	1168
931	1148	2792
932	59	1217
933	1266	2560
934	1340	3000
935	888	1344
936	967	2666
937	673	2200
938	1050	1918
939	599	1263
940	737	2397
941	1551	2445
942	321	1632
943	954	1218
944	1144	2522
945	603	1977
946	502	2136
947	743	2332
948	950	1949
949	384	2324
950	1227	1427
951	964	1823
952	1577	2574
953	922	2470
954	327	1948
955	1537	2254
956	364	926
957	1687	2288
958	430	2111
959	583	2031
960	1318	1677
961	1555	2786
962	0	1678
963	662	1299
964	363	798
965	398	1393
966	514	2417
967	714	2448
968	612	2129
969	559	1500
970	1198	2764
971	725	2171
972	114	762
973	1489	1978
974	1179	1760
975	540	1130
976	636	1947
977	2352	2604
978	1101	2110
979	0	1810
980	1502	2165
981	703	2306
982	477	1681
983	1366	2678
984	1239	2631
985	393	2208
986	145	842
987	1686	2368
988	1075	3000
989	1625	2711
990	1224	2189
991	759	1261
992	1659	2536
993	1000	1320
994	1507	3000
995	878	1984
996	304	1240
997	717	1756
998	1292	2346
999	488	1376
1000	753	1149
1001	1014	1870
DEPOT_SECTION
1
-1
EOF
