NAME : n1001-0050
COMMENT : "Generated by pyvrp_manuel (VRPLTW)"
TYPE : VRPLTW
DIMENSION : 1001
EDGE_WEIGHT_TYPE : EUC_2D
CAPACITY : 150
VEHICLES : 1000
DISTANCE : 3000
SERVICE_TIME : 200
NODE_COORD_SECTION
1	792	826
2	142	441
3	537	219
4	660	393
5	76	512
6	106	299
7	108	59
8	675	977
9	282	312
10	59	578
11	428	450
12	100	499
13	419	207
14	743	870
15	152	702
16	346	548
17	676	149
18	580	846
19	912	896
20	838	639
21	845	123
22	432	66
23	989	296
24	658	97
25	603	825
26	683	592
27	337	941
28	463	22
29	500	150
30	97	154
31	643	200
32	585	297
33	30	149
34	408	510
35	735	585
36	320	560
37	238	426
38	608	178
39	528	494
40	313	793
41	475	924
42	59	616
43	417	297
44	134	885
45	275	715
46	937	708
47	854	648
48	648	75
49	170	289
50	850	837
51	720	993
52	489	273
53	629	987
54	308	960
55	324	856
56	488	693
57	355	205
58	834	771
59	830	967
60	513	897
61	463	339
62	146	421
63	295	430
64	406	9
65	613	792
66	926	496
67	949	289
68	745	165
69	181	87
70	751	801
71	522	855
72	29	271
73	529	101
74	574	503
75	67	449
76	72	995
77	85	539
78	418	317
79	198	954
80	270	710
81	681	498
82	623	509
83	659	465
84	69	967
85	900	135
86	255	29
87	676	153
88	694	502
89	522	953
90	805	60
91	407	576
92	544	15
93	131	475
94	620	503
95	62	929
96	700	25
97	780	438
98	237	816
99	825	663
100	238	952
101	517	925
102	353	701
103	636	212
104	512	131
105	729	685
106	655	685
107	513	891
108	673	608
109	113	719
110	785	363
111	168	388
112	140	945
113	678	619
114	990	701
115	998	894
116	512	247
117	711	877
118	873	596
119	886	254
120	401	741
121	976	675
122	619	485
123	518	185
124	826	494
125	359	536
126	346	769
127	421	428
128	913	330
129	698	433
130	785	933
131	433	28
132	56	744
133	119	124
134	522	552
135	970	392
136	480	455
137	295	953
138	248	864
139	373	923
140	329	230
141	70	19
142	221	692
143	401	901
144	83	349
145	109	458
146	282	809
147	520	293
148	534	536
149	92	861
150	558	186
151	558	966
152	891	753
153	841	692
154	804	975
155	683	839
156	396	245
157	341	223
158	141	187
159	968	9
160	879	558
161	757	120
162	555	154
163	207	622
164	655	76
165	561	554
166	972	636
167	304	617
168	304	101
169	878	516
170	993	99
171	427	231
172	270	718
173	921	896
174	164	480
175	399	825
176	951	29
177	880	679
178	340	380
179	858	832
180	277	985
181	869	204
182	488	256
183	714	642
184	669	295
185	658	631
186	182	389
187	153	157
188	467	729
189	917	306
190	499	52
191	697	700
192	134	214
193	427	378
194	267	5
195	768	537
196	774	37
197	554	227
198	764	621
199	361	789
200	578	983
201	441	556
202	638	799
203	966	282
204	728	238
205	425	768
206	754	255
207	385	615
208	194	980
209	479	503
210	158	548
211	730	710
212	58	915
213	677	44
214	251	608
215	209	9
216	258	425
217	591	147
218	612	79
219	401	252
220	16	290
221	959	479
222	222	350
223	470	947
224	803	658
225	781	565
226	922	185
227	385	356
228	798	468
229	919	981
230	296	464
231	925	36
232	265	117
233	795	450
234	841	558
235	856	957
236	623	233
237	336	876
238	39	793
239	196	899
240	988	702
241	792	214
242	49	735
243	116	414
244	41	355
245	433	187
246	623	158
247	18	67
248	789	911
249	906	301
250	455	832
251	695	27
252	291	894
253	379	109
254	327	506
255	148	288
256	31	81
257	861	61
258	970	588
259	687	386
260	955	760
261	379	933
262	124	856
263	402	145
264	676	579
265	900	100
266	643	507
267	625	783
268	259	81
269	902	805
270	869	101
271	796	147
272	833	136
273	910	53
274	804	65
275	355	461
276	715	800
277	102	134
278	987	178
279	297	358
280	947	226
281	159	422
282	748	95
283	570	462
284	155	690
285	260	442
286	77	399
287	415	761
288	242	724
289	748	92
290	363	33
291	540	561
292	577	362
293	425	345
294	658	181
295	155	71
296	684	349
297	475	272
298	246	652
299	657	439
300	127	908
301	195	649
302	773	661
303	317	208
304	40	144
305	714	714
306	797	189
307	491	538
308	989	933
309	770	82
310	371	350
311	767	633
312	6	785
313	495	254
314	687	4
315	670	708
316	170	697
317	159	258
318	603	285
319	28	798
320	658	736
321	293	76
322	535	111
323	808	358
324	205	607
325	828	251
326	595	93
327	991	360
328	740	571
329	817	573
330	558	822
331	600	369
332	675	971
333	955	79
334	312	476
335	135	791
336	481	743
337	332	252
338	902	724
339	40	635
340	518	941
341	434	567
342	707	508
343	422	658
344	34	538
345	139	496
346	735	665
347	754	611
348	787	740
349	172	72
350	261	15
351	276	487
352	96	138
353	243	444
354	893	363
355	964	901
356	282	653
357	158	735
358	167	208
359	440	762
360	508	139
361	131	861
362	175	292
363	322	221
364	126	336
365	192	128
366	966	565
367	984	393
368	241	550
369	314	240
370	865	926
371	835	969
372	413	644
373	984	539
374	497	393
375	574	924
376	80	808
377	123	785
378	627	948
379	558	312
380	817	877
381	331	380
382	214	384
383	138	72
384	862	248
385	757	998
386	759	498
387	482	288
388	277	796
389	727	654
390	505	826
391	480	148
392	543	69
393	386	9
394	634	86
395	319	764
396	266	212
397	589	597
398	90	855
399	167	506
400	876	508
401	857	512
402	831	606
403	611	783
404	744	383
405	31	686
406	165	785
407	648	690
408	865	935
409	33	605
410	605	190
411	899	465
412	405	906
413	80	441
414	387	822
415	3	617
416	725	73
417	769	505
418	371	774
419	285	870
420	69	283
421	477	208
422	133	523
423	680	300
424	612	344
425	802	893
426	69	279
427	889	823
428	936	795
429	269	459
430	517	460
431	363	179
432	179	703
433	230	338
434	515	505
435	510	908
436	440	3
437	671	275
438	579	534
439	543	175
440	199	786
441	120	342
442	956	465
443	598	545
444	239	222
445	332	614
446	816	614
447	668	215
448	758	514
449	178	585
450	490	333
451	817	786
452	274	859
453	923	465
454	643	970
455	157	159
456	97	106
457	943	628
458	295	194
459	974	749
460	14	945
461	173	462
462	146	697
463	675	502
464	699	320
465	33	449
466	228	490
467	530	941
468	333	740
469	338	516
470	861	253
471	622	692
472	904	52
473	795	242
474	347	925
475	297	496
476	616	53
477	598	50
478	443	801
479	622	950
480	395	472
481	705	310
482	360	730
483	424	648
484	28	521
485	421	834
486	271	821
487	77	236
488	781	409
489	520	11
490	201	778
491	256	207
492	318	601
493	665	995
494	548	460
495	34	185
496	336	164
497	285	580
498	823	195
499	639	870
500	387	364
501	821	323
502	694	404
503	802	191
504	0	842
505	586	103
506	620	950
507	328	989
508	893	668
509	620	761
510	177	924
511	314	814
512	498	125
513	238	662
514	554	175
515	127	33
516	290	23
517	32	551
518	368	956
519	843	749
520	789	204
521	154	448
522	283	631
523	714	419
524	309	539
525	622	929
526	985	150
527	564	544
528	508	171
529	469	289
530	136	953
531	324	667
532	577	454
533	467	31
534	129	764
535	393	908
536	443	99
537	884	542
538	870	298
539	704	720
540	477	920
541	244	489
542	447	37
543	326	229
544	121	432
545	652	969
546	724	772
547	800	426
548	683	820
549	65	137
550	859	377
551	73	63
552	24	362
553	572	257
554	962	21
555	595	390
556	625	304
557	312	319
558	940	943
559	800	439
560	48	394
561	427	984
562	259	21
563	872	251
564	822	917
565	979	333
566	797	908
567	452	277
568	75	753
569	229	615
570	137	979
571	581	537
572	110	481
573	839	510
574	119	905
575	873	887
576	822	20
577	736	728
578	421	878
579	827	863
580	233	412
581	904	433
582	285	266
583	750	446
584	838	865
585	809	522
586	70	807
587	430	246
588	2	815
589	119	174
590	598	285
591	524	138
592	671	801
593	958	369
594	845	542
595	826	626
596	649	767
597	982	765
598	269	708
599	515	798
600	56	960
601	413	133
602	990	343
603	901	22
604	813	365
605	545	754
606	556	765
607	354	453
608	666	225
609	117	354
610	14	438
611	659	817
612	625	228
613	229	554
614	270	244
615	935	409
616	226	639
617	4	396
618	952	20
619	910	137
620	421	251
621	718	186
622	263	667
623	550	152
624	926	589
625	203	872
626	811	496
627	957	736
628	234	851
629	79	155
630	633	538
631	820	31
632	659	275
633	881	865
634	503	533
635	138	695
636	221	906
637	729	927
638	489	362
639	275	701
640	258	6
641	902	664
642	97	61
643	826	211
644	564	450
645	176	963
646	237	356
647	517	713
648	771	965
649	102	919
650	171	472
651	219	923
652	55	750
653	315	358
654	39	832
655	293	869
656	130	836
657	778	384
658	667	561
659	704	170
660	442	508
661	330	533
662	723	695
663	223	450
664	208	706
665	580	656
666	733	496
667	868	413
668	985	333
669	302	735
670	329	546
671	852	997
672	905	856
673	604	508
674	234	899
675	786	462
676	836	155
677	716	111
678	440	717
679	732	333
680	587	112
681	93	181
682	463	483
683	649	491
684	776	836
685	584	381
686	874	386
687	414	515
688	851	958
689	398	384
690	396	518
691	282	407
692	539	241
693	781	981
694	813	595
695	89	815
696	609	726
697	144	813
698	142	164
699	356	893
700	243	520
701	109	164
702	341	567
703	447	62
704	923	308
705	228	875
706	913	268
707	154	289
708	9	547
709	713	253
710	536	45
711	659	862
712	474	888
713	68	478
714	800	278
715	429	205
716	519	39
717	918	718
718	680	603
719	227	305
720	739	266
721	90	173
722	327	95
723	284	248
724	265	881
725	847	332
726	141	166
727	928	911
728	725	69
729	725	938
730	515	846
731	956	291
732	766	327
733	812	772
734	175	983
735	361	766
736	113	415
737	573	465
738	964	795
739	82	170
740	316	488
741	579	188
742	170	231
743	477	216
744	392	27
745	701	463
746	239	893
747	44	147
748	295	909
749	30	407
750	281	167
751	698	359
752	647	862
753	520	175
754	24	582
755	710	882
756	119	60
757	836	514
758	323	724
759	728	104
760	489	258
761	553	703
762	916	921
763	901	366
764	403	795
765	232	347
766	921	887
767	435	719
768	833	838
769	233	475
770	219	524
771	17	136
772	367	185
773	492	539
774	889	906
775	329	895
776	413	201
777	979	372
778	13	629
779	806	750
780	173	624
781	243	920
782	473	962
783	131	798
784	61	331
785	780	471
786	652	622
787	125	319
788	509	332
789	673	467
790	979	458
791	690	895
792	396	696
793	268	207
794	433	765
795	324	73
796	777	521
797	219	281
798	388	329
799	836	319
800	981	82
801	442	414
802	482	881
803	350	791
804	144	753
805	684	315
806	849	256
807	743	429
808	530	414
809	604	854
810	500	998
811	58	134
812	93	702
813	701	642
814	55	71
815	19	892
816	792	809
817	670	596
818	802	486
819	108	97
820	568	761
821	290	38
822	196	432
823	563	663
824	145	526
825	408	188
826	883	731
827	448	766
828	571	373
829	541	742
830	544	891
831	386	460
832	558	747
833	801	122
834	34	726
835	628	366
836	415	161
837	340	280
838	334	124
839	32	102
840	771	222
841	133	613
842	403	200
843	765	384
844	625	87
845	988	201
846	555	931
847	765	989
848	240	639
849	890	34
850	951	772
851	553	897
852	771	945
853	350	3
854	920	626
855	116	436
856	95	45
857	494	177
858	980	428
859	675	312
860	271	814
861	984	148
862	954	347
863	765	806
864	545	516
865	68	84
866	214	621
867	634	396
868	596	366
869	406	333
870	137	312
871	395	566
872	999	472
873	621	92
874	586	735
875	985	436
876	461	351
877	820	702
878	445	457
879	659	91
880	756	390
881	282	121
882	839	584
883	726	40
884	335	965
885	736	825
886	554	235
887	291	223
888	475	502
889	255	768
890	663	970
891	842	912
892	580	202
893	854	441
894	805	116
895	781	275
896	886	981
897	297	931
898	385	708
899	498	156
900	805	248
901	899	520
902	719	306
903	916	694
904	205	15
905	296	701
906	454	193
907	885	921
908	809	540
909	280	955
910	968	63
911	225	973
912	315	937
913	307	689
914	91	808
915	77	3
916	245	810
917	614	775
918	437	848
919	892	34
920	282	881
921	666	382
922	999	871
923	71	478
924	494	941
925	944	837
926	836	439
927	306	481
928	547	873
929	95	660
930	60	478
931	315	20
932	576	538
933	827	482
934	111	653
935	386	923
936	480	936
937	770	528
938	167	362
939	834	977
940	556	117
941	174	374
942	532	270
943	557	147
944	624	508
945	338	69
946	387	793
947	79	716
948	753	400
949	54	164
950	277	864
951	695	752
952	965	630
953	974	606
954	119	177
955	487	226
956	567	95
957	815	418
958	351	467
959	212	871
960	388	143
961	718	450
962	54	574
963	777	844
964	35	578
965	734	727
966	534	585
967	709	725
968	140	577
969	806	735
970	289	61
971	630	350
972	287	302
973	917	193
974	877	77
975	911	430
976	536	707
977	704	566
978	371	258
979	366	912
980	136	259
981	338	762
982	872	828
983	278	472
984	243	893
985	242	184
986	814	763
987	994	26
988	767	114
989	716	130
990	35	668
991	55	465
992	867	468
993	791	506
994	355	497
995	472	309
996	454	412
997	743	666
998	548	865
999	198	816
1000	746	915
1001	157	611
DEMAND_SECTION
1	0
2	2
3	2
4	6
5	8
6	6
7	6
8	9
9	1
10	8
11	5
12	9
13	6
14	2
15	9
16	3
17	2
18	2
19	2
20	3
21	4
22	4
23	4
24	4
25	9
26	1
27	8
28	2
29	5
30	3
31	8
32	8
33	8
34	7
35	1
36	5
37	1
38	5
39	7
40	9
41	9
42	5
43	4
44	4
45	8
46	4
47	3
48	6
49	4
50	1
51	2
52	1
53	5
54	6
55	5
56	1
57	3
58	3
59	8
60	1
61	6
62	1
63	9
64	3
65	8
66	5
67	7
68	2
69	3
70	4
71	6
72	3
73	1
74	2
75	2
76	7
77	8
78	3
79	2
80	4
81	3
82	5
83	3
84	6
85	9
86	3
87	3
88	6
89	5
90	1
91	3
92	2
93	9
94	6
95	1
96	8
97	8
98	7
99	2
100	5
101	5
102	6
103	7
104	1
105	4
106	1
107	3
108	2
109	8
110	9
111	5
112	4
113	7
114	9
115	6
116	9
117	7
118	1
119	8
120	2
121	2
122	9
123	1
124	1
125	7
126	1
127	6
128	8
129	3
130	7
131	8
132	5
133	1
134	9
135	9
136	7
137	3
138	3
139	8
140	6
141	8
142	9
143	3
144	8
145	5
146	1
147	5
148	2
149	1
150	2
151	9
152	3
153	1
154	1
155	4
156	4
157	7
158	5
159	1
160	4
161	4
162	2
163	3
164	7
165	1
166	6
167	4
168	6
169	5
170	9
171	6
172	7
173	9
174	5
175	4
176	7
177	5
178	2
179	5
180	7
181	6
182	8
183	4
184	7
185	7
186	8
187	7
188	4
189	1
190	2
191	8
192	4
193	5
194	3
195	2
196	5
197	3
198	9
199	9
200	1
201	3
202	2
203	4
204	1
205	2
206	2
207	4
208	9
209	9
210	1
211	3
212	3
213	6
214	3
215	3
216	9
217	9
218	4
219	2
220	1
221	7
222	1
223	2
224	6
225	1
226	2
227	1
228	2
229	2
230	2
231	5
232	1
233	9
234	8
235	6
236	2
237	5
238	1
239	6
240	5
241	3
242	7
243	2
244	6
245	1
246	9
247	1
248	4
249	8
250	1
251	8
252	1
253	9
254	8
255	8
256	5
257	9
258	2
259	5
260	6
261	2
262	2
263	3
264	3
265	5
266	6
267	9
268	6
269	9
270	1
271	7
272	4
273	5
274	5
275	8
276	8
277	2
278	4
279	1
280	7
281	9
282	1
283	7
284	9
285	9
286	8
287	8
288	6
289	8
290	6
291	6
292	3
293	4
294	9
295	5
296	5
297	8
298	8
299	2
300	5
301	9
302	4
303	4
304	2
305	8
306	3
307	1
308	7
309	7
310	7
311	1
312	5
313	1
314	8
315	5
316	1
317	5
318	9
319	4
320	4
321	3
322	3
323	2
324	9
325	5
326	8
327	2
328	2
329	1
330	2
331	5
332	6
333	3
334	5
335	7
336	5
337	4
338	6
339	4
340	3
341	7
342	9
343	8
344	8
345	2
346	4
347	8
348	1
349	1
350	1
351	6
352	2
353	6
354	9
355	9
356	3
357	1
358	7
359	9
360	7
361	6
362	7
363	5
364	2
365	5
366	5
367	9
368	5
369	6
370	8
371	2
372	2
373	6
374	3
375	5
376	1
377	4
378	4
379	7
380	9
381	3
382	4
383	1
384	1
385	7
386	9
387	7
388	6
389	2
390	8
391	4
392	2
393	4
394	9
395	5
396	3
397	2
398	8
399	8
400	6
401	1
402	9
403	4
404	1
405	8
406	4
407	1
408	9
409	8
410	9
411	2
412	6
413	9
414	7
415	3
416	3
417	5
418	8
419	6
420	2
421	4
422	8
423	3
424	1
425	2
426	8
427	5
428	1
429	1
430	6
431	4
432	9
433	3
434	4
435	5
436	1
437	7
438	2
439	2
440	5
441	2
442	5
443	8
444	9
445	3
446	2
447	1
448	4
449	5
450	6
451	4
452	7
453	4
454	9
455	6
456	9
457	4
458	3
459	8
460	8
461	6
462	8
463	6
464	4
465	3
466	5
467	8
468	5
469	9
470	7
471	1
472	5
473	8
474	8
475	2
476	8
477	1
478	8
479	1
480	1
481	9
482	4
483	3
484	7
485	8
486	6
487	6
488	1
489	1
490	1
491	4
492	4
493	8
494	5
495	7
496	9
497	2
498	8
499	6
500	6
501	9
502	6
503	6
504	2
505	6
506	8
507	7
508	9
509	7
510	5
511	6
512	2
513	7
514	5
515	8
516	1
517	5
518	9
519	1
520	3
521	1
522	5
523	8
524	7
525	2
526	9
527	4
528	6
529	4
530	2
531	5
532	3
533	7
534	3
535	5
536	8
537	1
538	8
539	7
540	4
541	9
542	9
543	5
544	4
545	4
546	1
547	1
548	6
549	8
550	8
551	1
552	1
553	4
554	6
555	9
556	3
557	3
558	8
559	4
560	7
561	1
562	9
563	1
564	2
565	4
566	5
567	9
568	4
569	1
570	3
571	2
572	5
573	3
574	7
575	8
576	1
577	1
578	5
579	5
580	3
581	9
582	3
583	1
584	2
585	4
586	2
587	6
588	1
589	3
590	7
591	2
592	1
593	3
594	8
595	7
596	3
597	3
598	2
599	3
600	7
601	4
602	4
603	9
604	6
605	4
606	8
607	7
608	5
609	7
610	1
611	7
612	9
613	1
614	5
615	5
616	8
617	3
618	3
619	1
620	3
621	6
622	1
623	9
624	3
625	8
626	5
627	9
628	9
629	5
630	2
631	5
632	4
633	5
634	8
635	1
636	5
637	8
638	4
639	2
640	6
641	7
642	1
643	5
644	1
645	9
646	4
647	7
648	1
649	8
650	3
651	4
652	4
653	2
654	7
655	5
656	9
657	1
658	4
659	1
660	6
661	3
662	7
663	3
664	4
665	5
666	3
667	9
668	4
669	2
670	7
671	7
672	5
673	4
674	5
675	8
676	2
677	7
678	8
679	8
680	3
681	6
682	5
683	8
684	9
685	6
686	1
687	7
688	3
689	5
690	8
691	9
692	4
693	2
694	5
695	3
696	6
697	5
698	5
699	6
700	6
701	1
702	9
703	1
704	9
705	6
706	4
707	3
708	6
709	4
710	8
711	8
712	3
713	8
714	9
715	1
716	1
717	6
718	9
719	3
720	3
721	1
722	2
723	3
724	2
725	4
726	5
727	8
728	9
729	2
730	7
731	6
732	1
733	9
734	7
735	4
736	6
737	8
738	8
739	8
740	9
741	3
742	3
743	2
744	2
745	4
746	9
747	1
748	9
749	3
750	8
751	8
752	6
753	9
754	4
755	2
756	8
757	3
758	7
759	4
760	1
761	4
762	7
763	4
764	1
765	3
766	4
767	3
768	1
769	3
770	1
771	7
772	8
773	8
774	4
775	8
776	4
777	6
778	1
779	5
780	4
781	5
782	6
783	2
784	6
785	7
786	7
787	8
788	6
789	2
790	3
791	8
792	3
793	9
794	6
795	7
796	5
797	3
798	4
799	7
800	2
801	3
802	8
803	9
804	8
805	1
806	8
807	9
808	6
809	3
810	3
811	6
812	8
813	6
814	3
815	7
816	7
817	6
818	8
819	5
820	2
821	4
822	9
823	4
824	5
825	2
826	1
827	6
828	4
829	7
830	8
831	6
832	6
833	9
834	7
835	7
836	7
837	6
838	1
839	7
840	2
841	7
842	3
843	8
844	7
845	9
846	3
847	4
848	1
849	9
850	1
851	2
852	5
853	1
854	9
855	8
856	6
857	6
858	3
859	5
860	4
861	7
862	8
863	1
864	6
865	5
866	6
867	5
868	6
869	2
870	8
871	4
872	5
873	4
874	6
875	1
876	7
877	1
878	7
879	4
880	8
881	9
882	4
883	5
884	8
885	1
886	6
887	6
888	8
889	3
890	2
891	8
892	5
893	2
894	4
895	5
896	7
897	9
898	8
899	7
900	2
901	4
902	8
903	7
904	3
905	4
906	7
907	8
908	2
909	1
910	5
911	6
912	4
913	3
914	5
915	6
916	3
917	4
918	7
919	5
920	7
921	6
922	5
923	9
924	9
925	7
926	1
927	1
928	1
929	8
930	1
931	8
932	1
933	7
934	7
935	3
936	5
937	9
938	6
939	7
940	9
941	3
942	7
943	3
944	3
945	4
946	2
947	6
948	4
949	6
950	2
951	8
952	2
953	4
954	4
955	1
956	8
957	2
958	1
959	3
960	9
961	5
962	6
963	3
964	7
965	6
966	5
967	8
968	6
969	8
970	9
971	8
972	4
973	5
974	7
975	4
976	1
977	2
978	9
979	9
980	5
981	6
982	9
983	7
984	3
985	6
986	9
987	1
988	9
989	9
990	1
991	2
992	4
993	3
994	6
995	1
996	7
997	3
998	9
999	9
1000	6
1001	4
TIME_WINDOW_SECTION
1	0	3000
2	1016	2628
3	440	2438
4	1755	2124
5	464	1696
6	575	1157
7	1198	1457
8	0	1387
9	682	1626
10	1209	2013
11	180	1697
12	1121	1532
13	640	1714
14	1798	2303
15	1161	2764
16	1754	2489
17	871	2520
18	1312	2605
19	764	1676
20	1940	2142
21	1215	2245
22	388	2070
23	468	2458
24	537	1821
25	0	1286
26	2329	2548
27	371	1307
28	1050	1436
29	739	1335
30	1017	1842
31	1188	1636
32	158	1899
33	681	1897
34	1085	1533
35	585	2583
36	909	2447
37	1033	1241
38	1644	1965
39	1269	2333
40	1259	2878
41	1922	2887
42	218	1519
43	634	1473
44	0	1527
45	94	1557
46	0	889
47	300	1025
48	1144	2441
49	461	1454
50	911	1363
51	413	1736
52	1819	2414
53	33	908
54	0	1606
55	1061	1825
56	1999	2535
57	1534	2285
58	0	836
59	517	806
60	1741	3000
61	1088	2141
62	1106	1466
63	420	2044
64	565	2153
65	977	1984
66	674	1745
67	344	1702
68	1145	2040
69	422	1689
70	0	829
71	1323	3000
72	518	2049
73	343	1271
74	258	1830
75	1312	1773
76	736	963
77	1074	2640
78	65	1772
79	892	2445
80	884	1949
81	1374	2028
82	825	2409
83	1521	3000
84	1036	2003
85	1373	2343
86	776	2301
87	477	1759
88	0	1424
89	655	1147
90	1777	2125
91	600	1192
92	1023	1698
93	831	1907
94	1277	2756
95	447	2101
96	187	1729
97	580	2242
98	450	843
99	308	1538
100	1167	1719
101	315	979
102	1305	1695
103	1300	2046
104	1841	2221
105	0	695
106	1119	2506
107	220	892
108	718	2261
109	1164	1880
110	1027	1406
111	822	1523
112	704	1935
113	645	847
114	0	1202
115	557	1925
116	1685	2569
117	125	2100
118	1608	2560
119	997	2409
120	861	1124
121	2197	2784
122	477	1781
123	206	1421
124	1474	2330
125	1293	1962
126	441	1667
127	661	1227
128	0	1385
129	0	1446
130	425	1686
131	771	1025
132	1751	2201
133	502	2001
134	872	2699
135	0	1579
136	1130	3000
137	465	1489
138	601	887
139	416	857
140	1087	1788
141	1285	1568
142	741	1643
143	730	978
144	883	2446
145	500	1974
146	633	1566
147	669	984
148	245	1019
149	253	2245
150	1837	2155
151	1039	1662
152	290	661
153	0	558
154	837	1050
155	2293	2765
156	113	1456
157	1041	1907
158	1478	2158
159	655	2566
160	839	2198
161	1149	3000
162	857	1487
163	1655	2027
164	954	2384
165	987	2642
166	1655	2127
167	778	2725
168	519	1613
169	0	1231
170	1676	2233
171	1871	2201
172	1497	1948
173	2228	2772
174	1596	2160
175	1999	2617
176	1199	2276
177	1204	1679
178	1120	2334
179	1969	3000
180	1786	2645
181	1050	2779
182	759	1522
183	989	2951
184	0	1788
185	1056	2105
186	677	1545
187	524	1418
188	33	1437
189	1324	2085
190	843	1328
191	1612	2991
192	154	1916
193	820	1478
194	1399	1823
195	1612	2707
196	9	1887
197	1154	2753
198	1390	3000
199	1359	1660
200	2042	3000
201	571	1685
202	1673	3000
203	20	1340
204	1250	2920
205	0	1463
206	1103	2208
207	746	2610
208	391	2244
209	0	1180
210	953	1407
211	1190	2776
212	1330	2543
213	1308	2378
214	1223	2940
215	644	2431
216	483	1464
217	1473	1793
218	1213	1864
219	1201	2822
220	982	2693
221	572	869
222	34	1829
223	1485	3000
224	1160	2367
225	1200	3000
226	1211	1689
227	1377	1728
228	2194	2611
229	1052	2368
230	824	1653
231	634	1551
232	224	2098
233	398	715
234	1014	2464
235	1763	2978
236	1661	2091
237	0	1037
238	98	1645
239	452	1036
240	0	1691
241	884	2814
242	1139	2543
243	1006	1435
244	1411	2176
245	620	1276
246	732	1568
247	592	1879
248	1830	3000
249	503	1459
250	1126	1840
251	900	1388
252	939	1341
253	1031	2335
254	1293	1649
255	883	1570
256	1223	1621
257	1248	2596
258	323	742
259	772	2322
260	0	1298
261	92	957
262	1744	2191
263	738	2173
264	513	809
265	670	2513
266	276	2134
267	1740	3000
268	1095	2632
269	0	1111
270	1433	1917
271	1057	2392
272	1734	2380
273	1242	1818
274	1161	2386
275	311	1236
276	151	789
277	547	1980
278	219	1418
279	859	2704
280	393	1412
281	444	1195
282	1464	1796
283	868	1316
284	1052	1583
285	858	1947
286	209	2058
287	946	2060
288	890	2446
289	1125	2508
290	1335	1794
291	668	2427
292	1832	2349
293	846	1616
294	773	2304
295	946	1807
296	131	2116
297	759	1104
298	875	2828
299	352	863
300	864	2655
301	0	1774
302	876	2694
303	131	1758
304	710	1840
305	599	1842
306	1516	2082
307	1711	2941
308	152	619
309	84	1898
310	562	2465
311	1636	3000
312	1080	2513
313	656	1610
314	1028	2011
315	1409	2742
316	878	2689
317	305	1898
318	278	1242
319	619	1176
320	1923	2838
321	1006	2332
322	322	1366
323	161	1735
324	1389	1839
325	356	2017
326	1267	1929
327	267	787
328	1336	3000
329	2164	2458
330	1832	2910
331	1317	3000
332	1249	1605
333	307	2173
334	1175	3000
335	1168	3000
336	1385	2435
337	826	1711
338	1322	2127
339	986	2559
340	1744	3000
341	371	1644
342	1279	1892
343	498	1522
344	839	2002
345	134	1680
346	0	1495
347	1592	2795
348	723	1672
349	892	2740
350	1195	1791
351	897	1453
352	1308	1963
353	735	1493
354	969	2116
355	712	2379
356	1385	2415
357	1151	3000
358	1568	2169
359	1337	2592
360	884	1341
361	507	2031
362	1210	1882
363	117	1804
364	934	2287
365	1115	1809
366	288	1518
367	1491	2084
368	1551	2402
369	544	1200
370	0	1061
371	231	660
372	1807	2639
373	1145	1819
374	671	1857
375	1969	2958
376	132	1760
377	1877	2383
378	58	1719
379	0	1535
380	1241	2681
381	1485	2450
382	97	1923
383	1553	2001
384	257	1810
385	0	418
386	724	1671
387	913	1535
388	1122	1781
389	1207	1584
390	500	1413
391	957	1508
392	1330	1602
393	763	1808
394	530	2201
395	70	1729
396	671	983
397	1430	2641
398	1527	2171
399	323	1930
400	306	2011
401	0	1755
402	841	2349
403	986	2711
404	1117	2854
405	1807	2017
406	1927	2318
407	1204	2797
408	783	1294
409	341	2039
410	603	2522
411	0	1491
412	1428	2130
413	735	2251
414	393	2255
415	485	1472
416	617	1466
417	1245	1499
418	1624	2507
419	1759	2601
420	1566	2081
421	1600	2374
422	1713	2335
423	716	2003
424	480	1597
425	577	948
426	752	2187
427	740	2268
428	444	1164
429	875	2191
430	0	1580
431	1606	1933
432	904	2817
433	1079	2839
434	0	1722
435	1118	1387
436	1285	1527
437	879	1808
438	1369	2721
439	1577	2119
440	1566	1892
441	695	1829
442	57	1781
443	0	1181
444	1079	1938
445	1671	2295
446	395	1407
447	673	1718
448	1194	2279
449	918	2296
450	784	1531
451	1173	2373
452	1665	2323
453	1781	2177
454	467	1272
455	842	1551
456	192	1887
457	242	1434
458	929	1484
459	784	1594
460	829	1712
461	1542	2169
462	520	932
463	477	1676
464	115	1372
465	1149	2489
466	1112	1973
467	1325	2701
468	738	2122
469	705	2284
470	515	1071
471	545	2414
472	636	2572
473	1381	1912
474	1838	2440
475	865	1784
476	269	1800
477	911	1700
478	0	1478
479	222	725
480	712	2198
481	866	2064
482	1059	2248
483	582	1584
484	1161	1976
485	1501	3000
486	702	2407
487	949	2223
488	1422	2231
489	554	1198
490	986	1407
491	1567	1999
492	1035	1979
493	0	1291
494	1354	2387
495	408	2163
496	383	1566
497	1498	2921
498	1172	1387
499	2144	2613
500	382	1590
501	916	2451
502	1160	1803
503	1504	1765
504	1516	2335
505	883	1190
506	1339	3000
507	862	1512
508	1626	2551
509	1048	1923
510	898	1764
511	43	1409
512	449	1631
513	1849	2185
514	748	1733
515	1038	1550
516	812	1813
517	82	1553
518	1210	2170
519	347	741
520	1640	2389
521	632	1011
522	1528	2958
523	118	883
524	1240	2115
525	2239	2726
526	377	1993
527	0	1510
528	1492	2424
529	650	1205
530	655	2633
531	0	1425
532	398	2260
533	141	1718
534	1428	1913
535	1033	1486
536	821	2627
537	1731	2957
538	1197	2317
539	952	2555
540	797	1605
541	542	2264
542	617	1253
543	0	1613
544	1007	2400
545	1216	2057
546	1303	3000
547	1143	1691
548	1489	3000
549	984	1498
550	1995	2349
551	657	2209
552	1297	2121
553	756	1852
554	636	1911
555	1477	2247
556	1515	1925
557	674	2321
558	1286	1759
559	798	1021
560	1503	2024
561	0	1409
562	1376	2185
563	1573	1808
564	0	684
565	104	1882
566	0	575
567	0	1554
568	1124	2450
569	360	1619
570	642	2398
571	128	1066
572	608	1402
573	803	1795
574	139	1905
575	1361	2928
576	1137	1858
577	242	458
578	1260	3000
579	1785	3000
580	1252	1481
581	77	1444
582	661	1728
583	1396	1963
584	1651	3000
585	547	1259
586	643	2353
587	1137	2973
588	1046	2067
589	1274	1578
590	1328	2229
591	743	1255
592	1160	3000
593	1846	2477
594	2083	2876
595	906	2713
596	0	1104
597	0	1655
598	1534	1868
599	117	649
600	1279	2604
601	387	2350
602	966	1715
603	1078	1586
604	102	2057
605	973	2592
606	1549	3000
607	1119	1514
608	200	1381
609	700	2470
610	770	2351
611	1516	1926
612	1631	1854
613	1018	2573
614	716	1505
615	265	717
616	1113	1584
617	820	2416
618	1092	1618
619	199	1770
620	1703	2111
621	1366	1964
622	1947	2466
623	1338	2010
624	1634	3000
625	367	2340
626	942	2789
627	1268	2369
628	27	1928
629	849	1403
630	338	696
631	1842	2050
632	598	1414
633	711	1521
634	1881	2697
635	1280	2807
636	1310	2529
637	0	399
638	283	980
639	966	1951
640	774	1672
641	1544	3000
642	429	1699
643	0	1603
644	965	2769
645	1448	2582
646	457	1677
647	277	832
648	171	728
649	1948	2159
650	200	1859
651	0	1852
652	1669	2388
653	837	1376
654	1575	2279
655	1228	3000
656	706	1805
657	918	2271
658	0	1362
659	431	1700
660	750	1393
661	204	1107
662	334	891
663	740	1605
664	1827	2456
665	369	1919
666	1859	2650
667	851	1076
668	1353	2569
669	0	1166
670	1037	2778
671	0	1747
672	0	1635
673	1212	2766
674	1878	2129
675	1407	2437
676	805	2211
677	975	1625
678	0	1643
679	1457	2676
680	376	1942
681	1029	1437
682	347	1962
683	1605	2348
684	339	680
685	511	2407
686	0	1496
687	1078	3000
688	909	2452
689	938	1407
690	1092	2708
691	640	1139
692	1190	2000
693	1176	1433
694	0	1451
695	858	1245
696	1833	2168
697	768	1645
698	1551	1925
699	561	1029
700	597	1861
701	420	2052
702	1390	1754
703	842	2084
704	120	1171
705	10	1800
706	1372	3000
707	767	1631
708	1105	2506
709	215	1147
710	869	2843
711	0	488
712	1430	1728
713	509	1682
714	649	851
715	1241	2573
716	1063	2085
717	211	1892
718	403	1530
719	244	1610
720	1205	2391
721	1622	2060
722	913	1297
723	796	2131
724	804	2746
725	1014	2049
726	464	1902
727	1011	1723
728	790	1274
729	1920	2754
730	1310	1825
731	734	1395
732	765	1528
733	2428	2801
734	1276	2116
735	0	1527
736	1567	2306
737	573	2292
738	1004	1681
739	818	1898
740	518	993
741	1159	2422
742	1042	1942
743	858	1387
744	992	2102
745	1294	2113
746	1511	2617
747	182	2166
748	587	1561
749	959	1333
750	301	2121
751	558	848
752	497	1852
753	1387	1991
754	1247	2359
755	1752	2184
756	484	2243
757	0	1858
758	563	2260
759	1403	2059
760	1093	1328
761	666	2354
762	1640	2094
763	0	1817
764	494	1927
765	1148	2338
766	1956	2898
767	140	641
768	160	705
769	61	1758
770	784	1359
771	836	1689
772	1655	1994
773	86	997
774	1431	3000
775	652	997
776	1008	1247
777	325	1417
778	992	1380
779	0	1431
780	494	1999
781	628	1971
782	0	1586
783	354	1311
784	622	2569
785	1406	1914
786	181	1794
787	208	2072
788	99	1484
789	1207	2176
790	591	1977
791	2474	2861
792	84	829
793	227	2133
794	998	1375
795	1447	1658
796	1515	2339
797	192	1560
798	0	1622
799	1705	2582
800	173	2139
801	1482	2611
802	1242	2746
803	1272	1667
804	447	928
805	1095	2746
806	0	1604
807	781	2127
808	405	917
809	2230	2613
810	1800	2456
811	572	2199
812	663	892
813	687	1555
814	770	1808
815	1138	2164
816	1598	2614
817	411	1950
818	714	1230
819	767	1633
820	398	1252
821	1251	1697
822	1299	2204
823	1794	2144
824	195	1467
825	570	1878
826	255	1203
827	1689	2747
828	1463	2027
829	0	1057
830	1593	2027
831	952	2748
832	790	1561
833	1152	2413
834	624	1497
835	260	1684
836	0	1880
837	708	1278
838	794	2293
839	1053	1965
840	1260	2825
841	643	1688
842	640	1995
843	45	1561
844	1676	2122
845	1145	2861
846	0	1619
847	0	1238
848	700	1840
849	460	1427
850	0	1291
851	0	1115
852	1669	2059
853	870	1391
854	272	763
855	1184	2766
856	1208	1442
857	1152	1403
858	633	1312
859	1792	2286
860	885	2129
861	317	1921
862	1683	2216
863	1211	2534
864	1069	1464
865	1262	1469
866	1756	2118
867	0	1104
868	0	1212
869	905	2416
870	863	1855
871	812	2053
872	1466	2974
873	719	2693
874	1727	3000
875	1085	2290
876	640	1540
877	284	1438
878	536	756
879	71	1947
880	1605	2294
881	902	1947
882	1993	2256
883	654	1426
884	1181	3000
885	0	1579
886	568	2532
887	1576	1903
888	1237	2332
889	1447	2184
890	185	1909
891	1567	2345
892	1083	1861
893	1534	2692
894	954	1583
895	134	1784
896	1727	3000
897	0	1353
898	572	2380
899	1147	2576
900	394	822
901	0	1667
902	957	1964
903	0	1176
904	753	1830
905	0	1533
906	235	1817
907	227	1949
908	0	1614
909	760	1830
910	806	2623
911	874	2669
912	1537	2885
913	1464	1932
914	409	1710
915	683	2269
916	146	1125
917	0	1489
918	2087	2358
919	546	2366
920	1424	2052
921	1025	1915
922	112	1347
923	839	2057
924	1229	2627
925	0	994
926	2088	2625
927	603	2570
928	1018	2091
929	847	2054
930	817	2032
931	651	1393
932	316	2017
933	698	1353
934	405	1640
935	0	1297
936	1028	2775
937	648	1969
938	1103	1392
939	523	2098
940	688	916
941	937	2289
942	642	1297
943	1207	2499
944	0	1390
945	36	1962
946	1370	2335
947	868	1975
948	1054	2173
949	709	2655
950	0	1439
951	1090	1971
952	382	1290
953	2323	2588
954	1211	2050
955	522	1218
956	1092	1587
957	797	1725
958	144	1879
959	212	1000
960	935	1854
961	335	1447
962	812	2714
963	0	876
964	301	1385
965	389	1674
966	1084	1437
967	52	2034
968	1204	2078
969	1734	2807
970	354	2285
971	1057	1316
972	695	1506
973	327	1038
974	890	1725
975	2028	2387
976	1564	2283
977	1945	2947
978	522	2289
979	1044	1977
980	741	1143
981	817	2173
982	2196	2671
983	674	1555
984	1472	2280
985	490	1612
986	582	1927
987	1052	2410
988	1377	1683
989	663	2373
990	0	1785
991	866	1986
992	995	1996
993	799	1690
994	1660	2717
995	1695	2315
996	649	1337
997	490	2046
998	1830	2543
999	816	2384
1000	325	566
1001	1727	2085
DEPOT_SECTION
1
-1
EOF
