NAME : n1001-0023
COMMENT : "Generated by pyvrp_manuel (VRPLTW)"
TYPE : VRPLTW
DIMENSION : 1001
EDGE_WEIGHT_TYPE : EUC_2D
CAPACITY : 150
VEHICLES : 1000
DISTANCE : 3000
SERVICE_TIME : 200
NODE_COORD_SECTION
1	414	712
2	843	22
3	731	72
4	499	670
5	263	318
6	407	712
7	672	916
8	46	576
9	462	562
10	628	963
11	680	884
12	174	235
13	832	146
14	455	342
15	532	238
16	592	512
17	943	172
18	685	864
19	495	392
20	294	779
21	159	350
22	611	5
23	260	910
24	558	491
25	291	511
26	698	222
27	437	594
28	599	39
29	64	236
30	603	50
31	875	666
32	744	932
33	24	911
34	135	724
35	656	334
36	569	772
37	773	588
38	967	206
39	519	137
40	798	163
41	482	721
42	707	343
43	696	24
44	379	724
45	362	996
46	460	512
47	256	488
48	201	594
49	119	893
50	380	963
51	919	529
52	719	749
53	47	101
54	766	420
55	592	330
56	670	973
57	937	725
58	588	733
59	479	652
60	126	394
61	590	360
62	413	599
63	45	373
64	708	743
65	254	424
66	48	383
67	448	683
68	475	868
69	196	842
70	820	974
71	229	462
72	953	978
73	202	77
74	281	611
75	955	558
76	188	208
77	487	128
78	962	145
79	740	680
80	640	868
81	461	818
82	125	542
83	400	910
84	444	736
85	465	673
86	109	298
87	761	304
88	233	29
89	212	617
90	647	45
91	195	568
92	936	863
93	31	944
94	779	881
95	494	17
96	959	973
97	331	326
98	184	83
99	868	115
100	946	564
101	873	236
102	558	894
103	739	646
104	575	755
105	86	176
106	660	492
107	341	620
108	931	506
109	386	590
110	468	300
111	371	913
112	800	147
113	703	993
114	896	822
115	718	72
116	195	811
117	450	748
118	654	964
119	900	737
120	693	724
121	99	327
122	93	58
123	280	861
124	870	123
125	688	854
126	31	707
127	122	683
128	47	424
129	942	578
130	701	65
131	324	650
132	166	888
133	527	421
134	661	478
135	33	493
136	637	953
137	941	443
138	167	341
139	542	391
140	133	262
141	460	81
142	173	33
143	221	699
144	743	637
145	532	991
146	77	128
147	742	713
148	554	610
149	596	120
150	190	184
151	763	405
152	550	288
153	248	922
154	308	389
155	429	215
156	222	160
157	831	687
158	583	519
159	567	603
160	519	358
161	261	643
162	762	504
163	31	775
164	876	463
165	79	303
166	922	146
167	228	309
168	114	868
169	486	877
170	550	485
171	89	125
172	17	973
173	214	796
174	917	251
175	246	841
176	547	190
177	64	792
178	351	818
179	629	201
180	11	593
181	654	25
182	273	607
183	194	837
184	651	304
185	70	110
186	91	172
187	587	152
188	239	792
189	681	690
190	252	373
191	196	950
192	16	306
193	215	534
194	681	13
195	985	672
196	132	323
197	890	20
198	21	173
199	958	31
200	461	946
201	953	126
202	866	592
203	460	849
204	350	114
205	474	723
206	63	687
207	11	562
208	199	505
209	92	223
210	115	850
211	589	761
212	706	158
213	297	78
214	120	858
215	55	511
216	702	644
217	676	779
218	414	471
219	356	86
220	429	906
221	547	272
222	662	105
223	885	637
224	208	867
225	690	631
226	843	246
227	801	20
228	972	317
229	975	757
230	348	232
231	60	721
232	115	426
233	419	349
234	969	543
235	995	664
236	179	129
237	145	830
238	989	58
239	551	788
240	387	99
241	822	673
242	880	65
243	519	943
244	366	501
245	19	802
246	90	218
247	620	788
248	691	329
249	991	320
250	778	358
251	991	786
252	151	517
253	292	371
254	966	759
255	410	493
256	731	192
257	864	725
258	447	472
259	26	951
260	863	268
261	133	47
262	851	356
263	883	61
264	680	883
265	311	978
266	464	864
267	417	489
268	993	873
269	611	175
270	948	334
271	823	360
272	215	15
273	91	385
274	982	324
275	881	497
276	488	525
277	25	401
278	626	267
279	798	597
280	162	245
281	773	446
282	18	55
283	122	358
284	537	721
285	439	968
286	30	666
287	18	988
288	757	403
289	647	174
290	90	643
291	804	889
292	763	977
293	458	421
294	167	103
295	544	574
296	505	141
297	390	353
298	965	329
299	469	487
300	989	960
301	769	165
302	222	676
303	365	394
304	70	670
305	311	309
306	437	384
307	424	813
308	486	252
309	936	42
310	611	756
311	781	969
312	878	709
313	940	432
314	34	95
315	551	412
316	631	627
317	858	711
318	603	558
319	52	899
320	715	658
321	925	23
322	68	941
323	480	125
324	163	122
325	536	634
326	906	133
327	658	804
328	437	688
329	824	814
330	549	75
331	356	992
332	299	409
333	420	457
334	777	816
335	14	697
336	125	328
337	928	163
338	143	685
339	688	448
340	348	615
341	257	253
342	693	662
343	912	263
344	870	98
345	446	340
346	95	521
347	348	251
348	110	985
349	791	265
350	338	129
351	104	835
352	851	469
353	36	570
354	718	960
355	713	749
356	864	490
357	249	171
358	429	939
359	381	184
360	609	573
361	505	671
362	278	712
363	511	219
364	128	369
365	102	155
366	206	361
367	899	862
368	492	740
369	737	585
370	124	579
371	109	266
372	199	422
373	201	212
374	974	487
375	391	86
376	875	208
377	299	791
378	253	550
379	957	268
380	593	112
381	469	908
382	931	779
383	333	509
384	679	969
385	400	214
386	781	90
387	354	555
388	357	412
389	554	355
390	541	935
391	782	593
392	161	943
393	114	861
394	357	214
395	733	740
396	391	481
397	588	837
398	871	919
399	757	202
400	638	107
401	414	171
402	203	571
403	498	320
404	552	802
405	13	304
406	634	104
407	602	436
408	763	912
409	538	468
410	758	891
411	309	417
412	543	761
413	938	899
414	161	385
415	304	688
416	833	571
417	74	366
418	69	684
419	698	896
420	53	851
421	540	159
422	583	478
423	669	582
424	1	707
425	597	222
426	765	447
427	761	801
428	643	455
429	940	343
430	290	487
431	177	620
432	775	807
433	979	837
434	685	519
435	33	95
436	90	130
437	369	180
438	540	551
439	12	833
440	152	708
441	12	883
442	128	243
443	635	804
444	732	160
445	542	945
446	626	258
447	565	191
448	531	860
449	994	770
450	577	895
451	65	404
452	925	386
453	918	920
454	823	415
455	257	748
456	867	64
457	894	939
458	276	961
459	910	715
460	413	394
461	89	432
462	781	26
463	312	979
464	368	825
465	23	575
466	436	204
467	912	621
468	487	202
469	939	2
470	36	276
471	870	623
472	390	841
473	382	964
474	626	953
475	282	790
476	387	996
477	916	242
478	519	136
479	225	776
480	105	519
481	727	21
482	591	568
483	153	378
484	385	58
485	924	391
486	874	173
487	207	493
488	84	207
489	918	228
490	658	610
491	509	682
492	569	717
493	465	549
494	70	900
495	867	138
496	132	827
497	346	561
498	338	53
499	928	14
500	558	491
501	782	701
502	111	885
503	888	333
504	811	400
505	264	60
506	284	151
507	564	141
508	731	739
509	613	45
510	545	886
511	699	283
512	441	843
513	525	459
514	15	828
515	969	429
516	530	144
517	494	747
518	87	917
519	562	313
520	490	80
521	36	687
522	878	16
523	471	676
524	587	561
525	485	507
526	448	671
527	441	262
528	691	629
529	456	327
530	745	467
531	990	957
532	484	994
533	19	520
534	220	755
535	44	122
536	46	520
537	920	755
538	277	754
539	696	419
540	90	397
541	584	144
542	793	485
543	493	504
544	751	599
545	776	938
546	83	223
547	653	415
548	555	364
549	186	692
550	791	173
551	219	990
552	836	498
553	853	109
554	29	577
555	306	997
556	82	652
557	679	336
558	947	803
559	513	836
560	183	97
561	119	283
562	275	102
563	764	317
564	506	530
565	766	738
566	66	245
567	287	680
568	79	406
569	487	50
570	487	871
571	14	230
572	287	741
573	566	540
574	632	970
575	98	21
576	889	773
577	10	710
578	641	694
579	287	775
580	36	307
581	835	951
582	210	104
583	942	88
584	357	852
585	201	61
586	190	920
587	916	61
588	943	117
589	998	525
590	605	956
591	327	291
592	326	181
593	509	70
594	820	944
595	380	371
596	167	992
597	157	629
598	137	689
599	783	590
600	910	181
601	933	409
602	113	927
603	778	161
604	184	800
605	537	913
606	950	903
607	710	98
608	459	671
609	4	410
610	221	911
611	827	33
612	11	553
613	75	496
614	137	350
615	46	373
616	999	194
617	895	772
618	902	381
619	791	437
620	541	748
621	628	267
622	647	460
623	299	753
624	814	141
625	678	745
626	542	458
627	419	727
628	841	509
629	428	344
630	696	784
631	875	635
632	337	129
633	906	564
634	640	114
635	739	482
636	218	247
637	187	555
638	871	499
639	503	600
640	769	369
641	535	21
642	490	727
643	731	930
644	44	586
645	338	72
646	37	994
647	558	456
648	683	287
649	745	41
650	96	192
651	790	351
652	722	760
653	785	708
654	17	688
655	285	789
656	97	234
657	3	376
658	918	287
659	793	698
660	364	956
661	195	906
662	583	15
663	888	884
664	848	563
665	242	16
666	369	420
667	252	145
668	889	899
669	849	390
670	393	143
671	524	761
672	432	680
673	634	294
674	107	21
675	38	221
676	450	81
677	848	494
678	530	416
679	911	924
680	638	738
681	821	124
682	929	591
683	958	561
684	749	155
685	122	255
686	181	188
687	779	648
688	799	606
689	260	399
690	34	752
691	500	924
692	448	251
693	763	869
694	695	919
695	229	672
696	95	147
697	592	105
698	283	782
699	537	782
700	28	491
701	761	983
702	592	679
703	378	857
704	276	183
705	34	326
706	799	739
707	800	134
708	512	632
709	450	746
710	440	148
711	333	81
712	19	177
713	851	765
714	894	923
715	754	517
716	695	943
717	96	339
718	274	441
719	703	137
720	278	970
721	603	322
722	778	172
723	28	431
724	315	3
725	418	626
726	849	274
727	602	227
728	626	377
729	694	674
730	404	294
731	228	101
732	96	925
733	391	610
734	714	143
735	907	724
736	342	87
737	227	658
738	670	289
739	347	966
740	488	293
741	775	19
742	541	450
743	615	110
744	983	979
745	320	352
746	546	915
747	450	396
748	503	901
749	287	764
750	780	935
751	975	851
752	884	97
753	107	113
754	41	870
755	149	372
756	237	231
757	858	710
758	759	924
759	247	531
760	869	391
761	371	588
762	437	882
763	2	201
764	521	699
765	873	784
766	652	370
767	970	226
768	250	1
769	677	326
770	372	597
771	659	8
772	927	906
773	776	234
774	400	916
775	211	440
776	785	791
777	851	222
778	93	681
779	237	385
780	486	130
781	511	697
782	930	628
783	445	939
784	746	116
785	54	389
786	777	457
787	97	887
788	225	23
789	558	71
790	778	228
791	211	861
792	735	930
793	367	115
794	46	554
795	421	188
796	830	361
797	496	236
798	901	888
799	360	651
800	869	285
801	214	421
802	259	614
803	303	643
804	268	764
805	66	785
806	937	928
807	912	37
808	136	760
809	187	976
810	674	650
811	108	901
812	5	218
813	702	454
814	447	781
815	76	694
816	169	415
817	842	581
818	996	433
819	434	529
820	256	594
821	306	949
822	576	92
823	898	865
824	614	757
825	992	381
826	751	613
827	539	860
828	451	244
829	244	949
830	496	967
831	157	671
832	864	724
833	791	715
834	210	768
835	198	528
836	517	538
837	74	677
838	725	299
839	4	773
840	274	364
841	804	75
842	451	679
843	40	59
844	680	297
845	228	771
846	471	768
847	199	460
848	659	785
849	667	902
850	30	61
851	357	669
852	479	511
853	111	511
854	303	509
855	678	459
856	695	543
857	718	478
858	408	679
859	637	398
860	895	115
861	705	631
862	647	40
863	143	598
864	821	297
865	961	47
866	195	723
867	812	668
868	623	882
869	385	554
870	841	891
871	265	292
872	808	409
873	961	593
874	121	414
875	441	764
876	293	296
877	28	805
878	949	728
879	974	37
880	713	183
881	854	485
882	79	108
883	162	559
884	717	765
885	355	914
886	549	44
887	725	606
888	471	816
889	740	740
890	896	495
891	294	373
892	189	354
893	325	17
894	231	931
895	527	362
896	742	356
897	874	608
898	705	877
899	241	564
900	479	252
901	951	246
902	197	616
903	473	761
904	438	865
905	973	992
906	857	993
907	160	482
908	966	288
909	56	459
910	309	898
911	679	121
912	241	785
913	29	187
914	3	620
915	1	889
916	997	167
917	929	266
918	932	679
919	365	861
920	994	723
921	440	774
922	387	250
923	817	651
924	473	859
925	626	316
926	605	953
927	923	579
928	488	239
929	3	986
930	320	665
931	650	354
932	837	538
933	765	157
934	911	703
935	840	546
936	998	654
937	542	960
938	148	640
939	745	887
940	870	6
941	943	47
942	168	598
943	524	475
944	667	913
945	650	146
946	280	321
947	347	785
948	742	564
949	445	527
950	35	448
951	273	882
952	176	457
953	197	521
954	139	336
955	313	705
956	781	110
957	697	513
958	155	280
959	866	393
960	504	43
961	550	964
962	823	175
963	957	479
964	905	895
965	716	745
966	207	938
967	788	829
968	122	805
969	489	692
970	533	299
971	555	908
972	239	824
973	389	480
974	675	652
975	614	479
976	382	783
977	218	304
978	284	124
979	538	785
980	993	749
981	38	513
982	470	219
983	324	560
984	406	624
985	783	569
986	276	41
987	541	305
988	163	285
989	850	779
990	535	209
991	645	629
992	518	139
993	45	735
994	593	480
995	400	277
996	657	199
997	680	302
998	60	282
999	365	985
1000	591	898
1001	609	455
DEMAND_SECTION
1	0
2	7
3	7
4	9
5	2
6	7
7	1
8	7
9	4
10	9
11	6
12	7
13	9
14	9
15	7
16	5
17	2
18	2
19	9
20	6
21	7
22	4
23	3
24	2
25	5
26	5
27	1
28	8
29	9
30	1
31	9
32	3
33	1
34	2
35	8
36	9
37	2
38	3
39	7
40	4
41	8
42	1
43	6
44	2
45	3
46	9
47	8
48	5
49	7
50	4
51	8
52	4
53	5
54	7
55	8
56	1
57	2
58	9
59	5
60	3
61	6
62	1
63	2
64	4
65	8
66	6
67	9
68	3
69	8
70	7
71	3
72	9
73	5
74	8
75	6
76	3
77	6
78	3
79	7
80	7
81	9
82	5
83	5
84	1
85	8
86	1
87	5
88	6
89	8
90	5
91	2
92	6
93	4
94	4
95	8
96	8
97	7
98	4
99	5
100	8
101	2
102	7
103	7
104	5
105	8
106	8
107	8
108	8
109	9
110	2
111	5
112	4
113	9
114	6
115	7
116	4
117	1
118	8
119	5
120	9
121	5
122	6
123	5
124	6
125	1
126	7
127	4
128	1
129	3
130	6
131	5
132	1
133	4
134	8
135	2
136	6
137	7
138	9
139	3
140	5
141	2
142	3
143	3
144	5
145	7
146	4
147	4
148	1
149	7
150	9
151	8
152	7
153	1
154	6
155	4
156	7
157	1
158	8
159	7
160	1
161	7
162	5
163	4
164	3
165	6
166	5
167	4
168	7
169	2
170	2
171	6
172	8
173	3
174	5
175	2
176	5
177	5
178	3
179	6
180	2
181	1
182	3
183	8
184	7
185	7
186	3
187	6
188	6
189	3
190	6
191	9
192	6
193	7
194	5
195	5
196	8
197	1
198	4
199	3
200	6
201	4
202	3
203	3
204	2
205	4
206	7
207	1
208	8
209	2
210	2
211	3
212	5
213	6
214	8
215	3
216	3
217	1
218	7
219	6
220	4
221	5
222	8
223	2
224	1
225	2
226	3
227	5
228	9
229	4
230	4
231	2
232	4
233	5
234	2
235	7
236	6
237	1
238	6
239	6
240	4
241	4
242	4
243	1
244	8
245	7
246	7
247	4
248	5
249	1
250	7
251	6
252	5
253	9
254	6
255	3
256	8
257	5
258	8
259	7
260	4
261	2
262	3
263	8
264	1
265	3
266	4
267	2
268	8
269	7
270	2
271	1
272	9
273	9
274	3
275	3
276	8
277	3
278	5
279	4
280	1
281	9
282	1
283	7
284	5
285	2
286	4
287	7
288	6
289	7
290	5
291	8
292	3
293	9
294	4
295	6
296	9
297	1
298	9
299	9
300	4
301	2
302	1
303	7
304	4
305	8
306	4
307	9
308	9
309	6
310	2
311	8
312	5
313	4
314	2
315	9
316	8
317	5
318	2
319	8
320	3
321	6
322	1
323	4
324	5
325	8
326	9
327	2
328	8
329	4
330	2
331	4
332	5
333	8
334	5
335	7
336	9
337	3
338	6
339	5
340	1
341	2
342	2
343	7
344	8
345	2
346	5
347	6
348	6
349	6
350	4
351	1
352	2
353	8
354	4
355	9
356	9
357	9
358	2
359	6
360	1
361	3
362	2
363	1
364	7
365	6
366	6
367	4
368	5
369	8
370	5
371	6
372	1
373	1
374	8
375	3
376	6
377	3
378	1
379	2
380	2
381	9
382	5
383	6
384	6
385	3
386	8
387	4
388	3
389	5
390	3
391	3
392	2
393	4
394	5
395	4
396	9
397	5
398	6
399	3
400	7
401	6
402	6
403	8
404	7
405	5
406	9
407	7
408	1
409	3
410	5
411	2
412	7
413	2
414	2
415	7
416	3
417	7
418	6
419	4
420	7
421	1
422	7
423	3
424	8
425	3
426	6
427	5
428	8
429	5
430	4
431	5
432	7
433	8
434	1
435	6
436	2
437	1
438	7
439	6
440	1
441	9
442	6
443	3
444	1
445	7
446	4
447	9
448	9
449	2
450	5
451	2
452	6
453	4
454	7
455	1
456	3
457	4
458	4
459	4
460	5
461	1
462	6
463	4
464	2
465	7
466	1
467	7
468	7
469	4
470	4
471	5
472	5
473	5
474	3
475	4
476	7
477	3
478	4
479	3
480	9
481	2
482	3
483	2
484	9
485	4
486	1
487	2
488	6
489	9
490	6
491	8
492	7
493	2
494	6
495	8
496	1
497	5
498	5
499	2
500	9
501	1
502	9
503	7
504	4
505	9
506	9
507	2
508	5
509	9
510	1
511	2
512	4
513	8
514	9
515	1
516	2
517	5
518	3
519	2
520	8
521	8
522	3
523	6
524	7
525	9
526	8
527	2
528	3
529	5
530	1
531	2
532	1
533	9
534	2
535	7
536	2
537	9
538	7
539	9
540	6
541	5
542	3
543	2
544	1
545	1
546	4
547	5
548	1
549	8
550	4
551	4
552	7
553	7
554	8
555	3
556	9
557	6
558	4
559	3
560	1
561	4
562	8
563	2
564	6
565	2
566	1
567	1
568	2
569	6
570	3
571	3
572	2
573	7
574	8
575	6
576	8
577	4
578	4
579	3
580	8
581	3
582	9
583	5
584	9
585	6
586	9
587	2
588	6
589	1
590	8
591	7
592	5
593	3
594	5
595	4
596	2
597	8
598	2
599	5
600	7
601	7
602	9
603	4
604	7
605	4
606	4
607	6
608	5
609	6
610	3
611	7
612	6
613	4
614	6
615	2
616	1
617	1
618	5
619	3
620	1
621	6
622	2
623	2
624	6
625	8
626	3
627	3
628	7
629	9
630	3
631	1
632	2
633	7
634	5
635	5
636	5
637	4
638	3
639	8
640	8
641	4
642	3
643	3
644	5
645	9
646	3
647	3
648	2
649	5
650	7
651	3
652	1
653	5
654	6
655	1
656	2
657	2
658	3
659	4
660	3
661	4
662	5
663	5
664	3
665	1
666	9
667	4
668	4
669	1
670	3
671	5
672	4
673	1
674	1
675	9
676	5
677	6
678	6
679	4
680	5
681	9
682	5
683	5
684	5
685	5
686	3
687	2
688	3
689	5
690	2
691	3
692	7
693	5
694	7
695	3
696	9
697	8
698	1
699	2
700	4
701	9
702	8
703	7
704	3
705	2
706	7
707	3
708	2
709	5
710	4
711	7
712	6
713	6
714	1
715	4
716	2
717	2
718	8
719	2
720	2
721	1
722	7
723	4
724	4
725	9
726	2
727	6
728	2
729	5
730	2
731	4
732	6
733	4
734	9
735	5
736	5
737	8
738	7
739	7
740	6
741	1
742	5
743	5
744	6
745	5
746	4
747	6
748	2
749	4
750	7
751	6
752	9
753	5
754	7
755	9
756	7
757	8
758	9
759	5
760	2
761	6
762	7
763	1
764	2
765	3
766	5
767	5
768	9
769	2
770	3
771	6
772	7
773	8
774	6
775	8
776	7
777	8
778	1
779	2
780	3
781	3
782	6
783	2
784	5
785	5
786	8
787	6
788	6
789	8
790	1
791	7
792	8
793	7
794	6
795	9
796	6
797	5
798	2
799	1
800	3
801	9
802	1
803	5
804	7
805	5
806	6
807	8
808	6
809	8
810	3
811	1
812	3
813	9
814	9
815	6
816	8
817	1
818	3
819	2
820	7
821	4
822	6
823	7
824	5
825	7
826	9
827	4
828	5
829	5
830	4
831	8
832	9
833	6
834	7
835	6
836	2
837	4
838	3
839	3
840	4
841	2
842	3
843	3
844	1
845	1
846	6
847	2
848	9
849	7
850	2
851	5
852	9
853	5
854	1
855	8
856	1
857	7
858	3
859	3
860	2
861	8
862	3
863	1
864	8
865	4
866	9
867	1
868	9
869	4
870	3
871	1
872	9
873	3
874	7
875	9
876	1
877	7
878	9
879	6
880	7
881	6
882	3
883	3
884	6
885	4
886	7
887	9
888	7
889	9
890	6
891	5
892	7
893	1
894	6
895	1
896	3
897	7
898	5
899	6
900	3
901	4
902	3
903	3
904	5
905	5
906	7
907	5
908	1
909	4
910	5
911	4
912	8
913	3
914	4
915	9
916	9
917	9
918	2
919	2
920	4
921	6
922	1
923	3
924	5
925	2
926	7
927	7
928	4
929	4
930	6
931	1
932	9
933	5
934	5
935	5
936	9
937	1
938	7
939	8
940	1
941	7
942	6
943	5
944	5
945	3
946	1
947	9
948	6
949	7
950	9
951	4
952	2
953	8
954	7
955	7
956	1
957	6
958	2
959	6
960	7
961	3
962	9
963	8
964	9
965	5
966	2
967	6
968	5
969	2
970	4
971	8
972	9
973	4
974	7
975	1
976	4
977	5
978	6
979	7
980	3
981	6
982	7
983	7
984	1
985	7
986	1
987	5
988	9
989	3
990	8
991	2
992	6
993	1
994	7
995	3
996	5
997	2
998	4
999	4
1000	9
1001	8
TIME_WINDOW_SECTION
1	0	3000
2	1271	1576
3	405	1261
4	1146	2557
5	453	1001
6	582	1379
7	998	2123
8	2117	2603
9	366	1131
10	1784	2883
11	3	1081
12	43	2001
13	213	1839
14	3	1014
15	0	1807
16	484	1690
17	1152	1839
18	2055	2277
19	0	1254
20	503	1766
21	1441	2575
22	210	1652
23	1169	1755
24	113	413
25	1597	2232
26	1467	2045
27	632	1685
28	479	1706
29	1715	2225
30	721	2550
31	1795	2158
32	1848	2102
33	1392	2905
34	831	1651
35	319	695
36	331	2024
37	1810	2414
38	481	1837
39	1007	2369
40	894	2072
41	0	910
42	1265	2152
43	494	2491
44	1054	1875
45	713	1380
46	2032	2509
47	98	1287
48	756	1033
49	590	2246
50	1438	3000
51	405	1315
52	61	1947
53	916	1215
54	1264	1701
55	676	2495
56	1122	1368
57	397	1298
58	1165	2545
59	512	2060
60	689	1869
61	721	1881
62	896	1872
63	1961	2170
64	1001	2523
65	404	1533
66	1649	2552
67	1291	2949
68	2176	2671
69	73	1974
70	1343	1731
71	235	1268
72	1028	1248
73	547	2165
74	7	330
75	894	2702
76	85	2028
77	1506	2798
78	647	992
79	706	2287
80	2238	2486
81	740	2029
82	693	1956
83	0	1547
84	1684	2648
85	602	2170
86	0	1126
87	0	1605
88	1073	2130
89	1604	3000
90	827	2760
91	0	1442
92	1166	1372
93	1553	3000
94	445	669
95	1107	1997
96	494	812
97	579	2564
98	1533	1752
99	1200	1470
100	135	1435
101	770	1178
102	324	2024
103	0	1858
104	1449	2047
105	1575	2526
106	0	1292
107	251	607
108	1056	1695
109	687	2014
110	1320	2349
111	2099	2525
112	738	2177
113	1454	2945
114	0	1401
115	390	1946
116	530	2479
117	1668	2746
118	2	748
119	1208	2131
120	1398	2570
121	795	1985
122	1164	1817
123	596	872
124	797	2215
125	1130	1786
126	1779	2463
127	279	745
128	1466	2962
129	1277	1952
130	177	1686
131	1172	2580
132	1632	3000
133	703	2390
134	301	1772
135	102	1679
136	1169	2862
137	1337	3000
138	637	1748
139	61	1134
140	139	1551
141	1041	2081
142	728	2227
143	1017	2511
144	101	1562
145	1094	3000
146	1459	2537
147	570	1599
148	914	1660
149	1087	2558
150	539	997
151	790	1050
152	626	879
153	1115	1544
154	1107	1601
155	925	2799
156	1048	2580
157	311	914
158	1036	2621
159	958	2103
160	0	1370
161	646	1012
162	692	1188
163	498	893
164	119	1383
165	1860	2571
166	1050	2790
167	3	1686
168	555	1206
169	422	682
170	1732	2727
171	1647	2307
172	0	1259
173	1205	1474
174	989	2637
175	82	980
176	874	2746
177	656	2383
178	2271	2684
179	597	2404
180	1605	2026
181	1521	2176
182	1494	3000
183	1353	2671
184	1324	1908
185	1016	1229
186	836	2451
187	1291	2689
188	221	738
189	0	1299
190	642	1146
191	911	1694
192	896	2674
193	139	881
194	544	1290
195	618	1954
196	407	1855
197	467	1713
198	666	989
199	708	2052
200	1246	1803
201	1305	2239
202	1363	1811
203	0	1554
204	984	1676
205	0	1206
206	0	1476
207	972	1670
208	999	1938
209	1437	2727
210	1170	1583
211	1517	3000
212	846	1658
213	1165	1967
214	290	1497
215	560	1662
216	3	845
217	1041	2504
218	97	983
219	342	1014
220	0	1023
221	726	1096
222	911	2825
223	1463	2671
224	1330	1989
225	736	1835
226	820	2743
227	469	1883
228	720	1849
229	435	1548
230	1761	2634
231	1385	2647
232	1394	1720
233	862	1602
234	0	1424
235	382	2246
236	1607	2715
237	0	1748
238	582	1292
239	1231	1768
240	515	741
241	561	1948
242	967	1692
243	126	425
244	212	1083
245	820	1346
246	1499	2636
247	1382	2722
248	995	1417
249	573	1837
250	487	2092
251	1484	2645
252	1159	2561
253	184	1275
254	481	1668
255	1076	1314
256	1356	2511
257	942	1473
258	0	1068
259	1088	3000
260	495	1797
261	722	1585
262	1679	1927
263	637	2416
264	0	1204
265	1100	2519
266	0	1382
267	608	1509
268	1574	2114
269	1202	1722
270	1313	2482
271	0	1657
272	1117	1488
273	1305	3000
274	869	1523
275	1205	1898
276	880	2225
277	197	1156
278	438	1056
279	232	1671
280	693	2171
281	408	1921
282	1375	2021
283	1285	2319
284	498	996
285	618	844
286	330	1698
287	0	1565
288	78	1956
289	524	1202
290	389	1680
291	350	1492
292	0	1670
293	296	2044
294	897	1943
295	749	2051
296	0	1363
297	179	1174
298	1314	2142
299	840	1739
300	1063	2538
301	1106	2817
302	64	1354
303	468	1612
304	980	1712
305	625	1487
306	407	1929
307	2397	2821
308	1740	2833
309	1230	2149
310	679	1665
311	110	2031
312	1159	1875
313	788	1579
314	828	2699
315	0	1399
316	1143	2667
317	0	1355
318	975	1821
319	1192	2036
320	103	1042
321	1099	2696
322	523	1872
323	1085	1678
324	261	1148
325	1975	2384
326	665	1035
327	574	1213
328	2521	2930
329	540	1486
330	830	2764
331	1303	2471
332	1889	2914
333	335	582
334	457	2161
335	1717	2745
336	1009	2121
337	165	1447
338	626	2355
339	126	972
340	1586	3000
341	1859	2123
342	1784	2626
343	1351	1801
344	1069	2837
345	241	1687
346	526	1373
347	245	1276
348	674	1582
349	1213	2119
350	399	1463
351	466	2209
352	550	1418
353	308	1851
354	1230	1678
355	1690	2262
356	721	1001
357	887	2278
358	1498	3000
359	1223	2592
360	904	1647
361	0	839
362	0	974
363	377	1833
364	1883	2512
365	1196	2267
366	1238	2262
367	1207	1546
368	1244	2086
369	1373	2942
370	248	1517
371	1543	2017
372	1087	2020
373	1135	2355
374	816	1160
375	241	1024
376	1756	2427
377	1575	1806
378	0	1276
379	1097	1892
380	959	2031
381	517	746
382	422	2000
383	807	1362
384	1526	2024
385	593	952
386	653	1939
387	948	1552
388	375	1543
389	3	1034
390	2177	2502
391	564	2275
392	2111	2428
393	684	2089
394	1294	1959
395	211	1391
396	0	959
397	684	2632
398	621	1207
399	797	1001
400	823	2277
401	100	1156
402	876	2636
403	1580	2814
404	474	1271
405	1506	2327
406	74	1514
407	1159	2072
408	1052	1756
409	741	1678
410	975	1943
411	2	1325
412	706	1486
413	2068	2320
414	0	1502
415	2400	2665
416	1197	2418
417	756	1674
418	784	2385
419	509	1361
420	147	1983
421	542	1136
422	1718	2104
423	1400	2759
424	0	1353
425	1536	2999
426	288	1092
427	107	810
428	880	1217
429	433	2340
430	1538	2314
431	745	2706
432	1745	2437
433	639	1194
434	1447	2034
435	758	1714
436	1355	2823
437	1019	2251
438	763	2145
439	358	787
440	1616	2175
441	1380	1999
442	796	1324
443	2322	2655
444	344	1810
445	183	1338
446	1018	2796
447	706	2623
448	627	1877
449	0	1539
450	0	585
451	1606	2765
452	0	1784
453	1839	2195
454	1314	3000
455	717	1181
456	58	2006
457	571	2546
458	0	1798
459	514	964
460	245	891
461	1428	2097
462	574	2357
463	373	1242
464	2085	2558
465	1303	1750
466	1668	2032
467	1043	1901
468	1732	2690
469	1257	1605
470	564	1610
471	951	2824
472	1542	2493
473	529	773
474	197	963
475	1622	3000
476	296	1702
477	1382	2492
478	452	1261
479	605	2193
480	540	1703
481	829	2698
482	509	1491
483	1012	2185
484	634	1580
485	259	1442
486	1761	1962
487	0	830
488	0	1976
489	761	1088
490	1501	1993
491	1484	3000
492	829	1467
493	1721	2651
494	1837	2582
495	433	2180
496	1405	3000
497	1100	1900
498	892	2596
499	429	1686
500	799	1175
501	1589	3000
502	826	1506
503	603	2171
504	0	1636
505	1460	2689
506	1857	2325
507	639	1998
508	750	1395
509	1682	2425
510	1579	3000
511	0	1332
512	1421	3000
513	1096	2597
514	1299	2065
515	735	2004
516	1340	2076
517	2005	3000
518	1161	2162
519	803	1753
520	716	2076
521	1368	2359
522	603	1372
523	1365	1779
524	1670	2517
525	0	1197
526	1363	1657
527	0	1363
528	154	1996
529	1488	2448
530	1969	2223
531	673	1449
532	1130	2941
533	1245	1729
534	1570	2953
535	1006	1258
536	1930	2446
537	1469	2279
538	398	1529
539	477	1885
540	805	1534
541	743	1643
542	1374	3000
543	623	2526
544	1900	2581
545	1036	1645
546	0	1427
547	958	1173
548	293	528
549	613	1780
550	1168	2463
551	1092	1844
552	248	1744
553	787	1372
554	1192	2216
555	2042	2570
556	1590	3000
557	1991	2271
558	902	2040
559	2472	2757
560	444	1251
561	1176	1713
562	948	1871
563	182	1356
564	491	1319
565	1075	2061
566	989	2432
567	720	1114
568	1491	3000
569	1509	1890
570	0	1242
571	1086	2188
572	458	1838
573	141	1037
574	530	991
575	259	1429
576	474	1539
577	653	1478
578	985	1554
579	1583	1915
580	1054	2922
581	358	861
582	680	2074
583	1203	2314
584	2069	3000
585	1546	2180
586	272	1694
587	870	1981
588	465	2315
589	1313	2756
590	1160	2504
591	1668	2505
592	1300	1516
593	1099	3000
594	544	1030
595	1591	2322
596	1096	1510
597	2034	2487
598	1243	2393
599	1163	2103
600	796	1653
601	248	1675
602	14	1851
603	1097	1839
604	1361	1952
605	1095	2159
606	634	1764
607	646	1788
608	2410	2800
609	0	1756
610	378	2249
611	672	2215
612	519	2214
613	192	1884
614	403	1208
615	0	1533
616	890	1240
617	246	1945
618	851	2597
619	509	986
620	0	1044
621	1931	2371
622	563	1078
623	668	2081
624	637	2319
625	1646	2432
626	2068	2719
627	369	757
628	141	1983
629	189	1874
630	1773	2016
631	1240	2822
632	1539	2615
633	1035	2607
634	1132	2500
635	762	2128
636	351	2109
637	1891	2610
638	706	1558
639	514	1529
640	1156	2759
641	467	2324
642	31	1283
643	1000	2535
644	547	1823
645	1167	2307
646	823	1059
647	1088	1394
648	634	1820
649	674	1335
650	161	1667
651	868	2051
652	670	1188
653	0	1895
654	907	1681
655	1303	2592
656	911	2506
657	835	1837
658	1136	3000
659	338	1181
660	2234	2636
661	1633	1968
662	1109	2233
663	1963	2175
664	1493	2114
665	512	2473
666	899	1482
667	962	2529
668	2026	2313
669	191	1215
670	1028	1799
671	158	616
672	1010	1462
673	123	945
674	76	1975
675	776	1497
676	535	1661
677	959	2159
678	370	940
679	615	938
680	1192	1985
681	1042	2499
682	1806	2528
683	1	1163
684	430	1484
685	1081	1856
686	735	1125
687	0	1194
688	796	1208
689	1637	2856
690	27	1925
691	1503	2658
692	1267	2786
693	1548	2249
694	1730	2370
695	753	2675
696	4	1744
697	998	2929
698	388	853
699	1980	2775
700	603	2531
701	759	1858
702	1365	1942
703	1651	2482
704	1254	2688
705	1533	2727
706	669	1760
707	1045	1589
708	746	1676
709	0	1490
710	1321	2811
711	1022	2158
712	800	1997
713	1270	3000
714	1410	3000
715	144	1042
716	0	1216
717	481	2292
718	0	1367
719	0	1812
720	656	2085
721	1274	1557
722	1526	2396
723	791	2158
724	1900	2202
725	2205	2518
726	1526	2649
727	1676	1900
728	0	1706
729	749	2212
730	826	1807
731	760	2012
732	1181	1689
733	1618	2715
734	1214	2030
735	405	1769
736	799	2024
737	1080	2267
738	1711	2042
739	892	2645
740	744	1920
741	1569	2439
742	1823	2400
743	1441	2624
744	949	2075
745	1803	2778
746	664	1811
747	0	1465
748	374	1520
749	0	815
750	425	1912
751	560	2381
752	1743	2104
753	760	2586
754	89	1173
755	0	1164
756	539	2367
757	1693	2228
758	2199	2533
759	352	1887
760	956	2190
761	8	1585
762	1337	3000
763	663	1736
764	1440	2448
765	1088	2874
766	319	944
767	518	1917
768	811	1426
769	378	861
770	0	1526
771	608	2069
772	190	2016
773	995	1755
774	164	1754
775	258	1709
776	1234	1854
777	351	1699
778	1473	2940
779	1078	3000
780	604	1089
781	1122	3000
782	1855	2402
783	801	1850
784	382	1242
785	0	1190
786	1881	2812
787	1195	2071
788	913	1449
789	1059	2210
790	341	1288
791	93	913
792	514	1930
793	632	1341
794	708	1726
795	1539	2173
796	1586	2777
797	1477	2316
798	1381	2719
799	997	2518
800	770	2655
801	0	1361
802	690	1103
803	13	1910
804	247	544
805	933	1791
806	769	1154
807	686	1417
808	1084	2698
809	679	2420
810	0	880
811	0	1768
812	711	1115
813	508	737
814	1793	3000
815	1368	2175
816	1456	2436
817	800	1856
818	203	2052
819	1462	3000
820	1351	1708
821	1612	2083
822	503	2432
823	1995	2411
824	855	2747
825	664	2386
826	1261	2805
827	860	1854
828	0	1182
829	1946	2687
830	650	1325
831	0	1111
832	1133	1579
833	1896	2209
834	1451	2157
835	397	1522
836	1312	1762
837	1459	2238
838	85	1942
839	1393	2261
840	1671	1909
841	1360	2304
842	1120	2534
843	518	1494
844	1137	2021
845	1135	1567
846	0	1121
847	1016	1297
848	908	1591
849	0	921
850	651	1404
851	1418	3000
852	0	1085
853	596	947
854	0	1561
855	730	2576
856	1590	2010
857	680	1862
858	1712	3000
859	948	1782
860	619	2555
861	0	1139
862	1537	1813
863	805	2537
864	259	2184
865	782	1460
866	0	1563
867	605	2178
868	0	848
869	334	1233
870	948	1174
871	26	1247
872	151	1706
873	1170	2282
874	239	1619
875	846	1332
876	1064	1946
877	162	1807
878	153	1979
879	1111	2340
880	1441	1813
881	1255	2396
882	968	1216
883	376	2093
884	1504	3000
885	0	1305
886	934	1740
887	1465	2808
888	1823	3000
889	1790	2355
890	0	1236
891	1632	1918
892	1533	2057
893	895	1312
894	503	1999
895	1209	2943
896	0	1839
897	1090	1911
898	949	2422
899	0	549
900	1651	2960
901	1636	2395
902	0	1488
903	1215	2264
904	1908	3000
905	1188	1745
906	476	2067
907	476	2258
908	1581	2067
909	559	1915
910	989	2974
911	818	1256
912	130	1126
913	1243	1838
914	254	1149
915	1436	3000
916	639	2006
917	406	1899
918	1281	2578
919	501	1840
920	273	2147
921	1253	1630
922	1311	2553
923	921	2872
924	0	1320
925	1017	2375
926	263	686
927	1114	2266
928	933	1503
929	127	2081
930	1352	2805
931	418	2397
932	1134	2930
933	386	1050
934	563	2069
935	1068	3000
936	1034	2142
937	1210	2344
938	1199	1443
939	1729	2068
940	1625	1986
941	888	1356
942	725	1178
943	0	1029
944	0	1100
945	1317	2511
946	1165	1819
947	754	2440
948	914	1720
949	135	853
950	1386	2626
951	1080	1350
952	1647	2756
953	0	799
954	281	655
955	75	1688
956	645	1225
957	57	1258
958	1222	1692
959	1578	1864
960	529	1665
961	1969	2234
962	1337	1899
963	753	1193
964	395	846
965	0	1229
966	1647	1978
967	811	1041
968	245	1804
969	552	1022
970	453	1482
971	37	806
972	0	691
973	740	1670
974	19	1838
975	766	1499
976	798	1980
977	398	1969
978	220	2160
979	614	1763
980	1326	2274
981	0	1510
982	1235	2233
983	1108	1336
984	0	1911
985	1681	2339
986	1462	1756
987	1827	2714
988	246	1320
989	693	916
990	1026	1700
991	1135	3000
992	790	1831
993	520	2022
994	721	2658
995	843	1276
996	1715	2133
997	0	1580
998	940	1336
999	0	1453
1000	507	2498
1001	732	1168
DEPOT_SECTION
1
-1
EOF
