NAME : n1001-0015
COMMENT : "Generated by pyvrp_manuel (VRPLTW)"
TYPE : VRPLTW
DIMENSION : 1001
EDGE_WEIGHT_TYPE : EUC_2D
CAPACITY : 150
VEHICLES : 1000
DISTANCE : 3000
SERVICE_TIME : 200
NODE_COORD_SECTION
1	487	516
2	832	235
3	74	65
4	334	569
5	449	404
6	568	201
7	860	390
8	273	695
9	401	938
10	845	996
11	12	870
12	687	524
13	832	554
14	623	19
15	153	854
16	587	187
17	802	27
18	199	973
19	190	216
20	364	952
21	408	908
22	822	767
23	34	232
24	508	13
25	125	53
26	52	813
27	198	648
28	109	114
29	764	780
30	712	62
31	896	327
32	207	639
33	339	779
34	720	404
35	920	318
36	395	57
37	783	773
38	812	284
39	6	28
40	569	894
41	570	936
42	430	239
43	80	11
44	955	611
45	4	838
46	825	115
47	982	476
48	571	563
49	965	853
50	28	699
51	127	287
52	851	45
53	455	790
54	24	151
55	247	247
56	570	964
57	559	2
58	701	34
59	114	180
60	28	688
61	70	540
62	780	127
63	552	923
64	996	651
65	508	871
66	255	376
67	330	221
68	527	206
69	449	375
70	598	747
71	561	420
72	127	393
73	945	231
74	900	772
75	30	729
76	68	40
77	997	269
78	985	840
79	375	37
80	704	426
81	21	597
82	95	404
83	636	7
84	764	742
85	490	520
86	899	735
87	518	285
88	476	750
89	795	578
90	632	386
91	670	909
92	113	216
93	715	738
94	639	325
95	208	2
96	990	441
97	642	149
98	428	880
99	173	815
100	54	799
101	298	280
102	573	829
103	420	430
104	253	935
105	760	384
106	720	632
107	820	120
108	372	955
109	931	889
110	273	776
111	772	872
112	285	607
113	921	536
114	494	638
115	938	27
116	748	139
117	299	12
118	20	15
119	339	610
120	912	892
121	932	29
122	763	403
123	653	500
124	801	362
125	268	532
126	104	906
127	920	248
128	516	904
129	708	420
130	808	355
131	556	988
132	589	320
133	923	567
134	148	532
135	8	123
136	613	101
137	564	61
138	231	941
139	256	65
140	240	931
141	967	92
142	866	505
143	758	63
144	682	839
145	586	291
146	462	204
147	83	346
148	300	801
149	228	159
150	80	574
151	444	833
152	99	814
153	718	885
154	776	939
155	273	30
156	271	977
157	54	130
158	960	820
159	960	580
160	48	203
161	135	710
162	912	661
163	353	462
164	940	215
165	456	755
166	561	859
167	451	393
168	494	754
169	268	913
170	141	862
171	228	346
172	674	618
173	435	633
174	13	136
175	958	35
176	750	542
177	509	667
178	39	667
179	888	211
180	375	268
181	797	798
182	966	99
183	702	773
184	138	162
185	88	151
186	330	719
187	150	141
188	967	481
189	225	385
190	659	298
191	627	102
192	378	402
193	662	539
194	917	104
195	702	405
196	570	721
197	234	576
198	104	574
199	101	352
200	851	384
201	625	856
202	15	886
203	591	183
204	612	784
205	149	728
206	168	484
207	628	123
208	116	899
209	617	297
210	547	289
211	110	86
212	240	829
213	883	100
214	418	284
215	917	279
216	478	873
217	324	904
218	665	925
219	910	772
220	759	234
221	470	117
222	811	451
223	382	227
224	225	458
225	210	696
226	774	217
227	852	637
228	108	297
229	949	783
230	692	519
231	730	533
232	835	356
233	334	348
234	976	491
235	772	962
236	59	861
237	869	205
238	710	781
239	835	773
240	285	318
241	972	959
242	87	440
243	674	956
244	695	575
245	240	66
246	116	685
247	269	398
248	41	707
249	54	44
250	154	377
251	772	629
252	321	692
253	736	538
254	145	28
255	753	295
256	233	836
257	603	521
258	551	328
259	216	899
260	790	355
261	262	335
262	348	674
263	970	74
264	892	436
265	483	35
266	965	776
267	594	223
268	59	696
269	122	169
270	914	333
271	293	913
272	419	860
273	212	752
274	129	579
275	915	71
276	924	864
277	758	553
278	670	6
279	333	90
280	693	612
281	581	821
282	229	864
283	629	474
284	555	104
285	791	488
286	597	114
287	484	609
288	896	83
289	849	156
290	671	168
291	208	60
292	464	161
293	797	530
294	370	580
295	923	740
296	8	949
297	387	607
298	909	756
299	15	560
300	866	417
301	828	269
302	565	188
303	380	471
304	84	286
305	929	183
306	907	99
307	373	490
308	97	582
309	523	312
310	343	581
311	670	841
312	37	948
313	384	813
314	67	81
315	569	452
316	718	538
317	165	251
318	72	714
319	867	691
320	100	122
321	613	160
322	464	224
323	211	41
324	807	852
325	234	268
326	334	172
327	990	374
328	658	815
329	310	566
330	185	58
331	578	666
332	630	78
333	548	958
334	629	477
335	229	137
336	79	227
337	166	859
338	466	236
339	961	111
340	794	906
341	96	858
342	838	587
343	687	553
344	699	301
345	537	770
346	361	79
347	992	238
348	925	956
349	636	610
350	481	352
351	359	679
352	862	167
353	174	734
354	645	401
355	148	344
356	802	598
357	279	995
358	999	588
359	302	466
360	829	644
361	169	121
362	640	788
363	645	905
364	190	751
365	981	604
366	591	205
367	69	741
368	999	620
369	209	474
370	189	927
371	255	841
372	626	765
373	792	143
374	542	887
375	426	649
376	933	745
377	623	589
378	177	32
379	106	297
380	506	154
381	121	101
382	224	336
383	362	381
384	53	493
385	304	177
386	417	603
387	870	870
388	395	84
389	768	932
390	241	713
391	243	362
392	129	139
393	819	785
394	810	691
395	896	80
396	624	448
397	882	240
398	746	6
399	935	155
400	660	981
401	768	968
402	663	139
403	667	191
404	258	369
405	835	34
406	975	253
407	831	690
408	742	202
409	691	234
410	556	302
411	692	46
412	730	53
413	767	846
414	895	83
415	482	952
416	255	703
417	275	671
418	759	287
419	487	940
420	719	290
421	794	91
422	307	445
423	185	720
424	32	400
425	882	812
426	88	958
427	489	16
428	458	96
429	335	205
430	188	210
431	292	916
432	528	805
433	149	352
434	850	497
435	551	421
436	995	116
437	322	227
438	638	975
439	724	675
440	40	455
441	30	17
442	107	378
443	97	368
444	343	863
445	83	944
446	430	461
447	176	362
448	624	462
449	188	443
450	274	928
451	968	831
452	214	735
453	594	585
454	209	507
455	809	104
456	689	13
457	468	246
458	419	88
459	293	379
460	375	277
461	156	759
462	291	845
463	829	197
464	456	666
465	894	461
466	268	535
467	594	565
468	416	488
469	422	724
470	898	269
471	373	795
472	900	526
473	705	660
474	384	485
475	974	862
476	493	567
477	979	85
478	628	333
479	247	123
480	67	879
481	19	88
482	444	783
483	615	488
484	3	578
485	678	625
486	347	694
487	853	739
488	233	302
489	343	352
490	970	217
491	704	581
492	630	133
493	501	90
494	631	447
495	716	972
496	327	494
497	968	729
498	939	17
499	663	205
500	845	817
501	974	850
502	748	570
503	57	291
504	608	794
505	48	438
506	957	914
507	335	534
508	463	625
509	311	637
510	70	659
511	838	783
512	819	126
513	510	789
514	832	553
515	992	602
516	137	907
517	515	153
518	81	469
519	878	743
520	947	110
521	646	440
522	71	184
523	871	922
524	235	439
525	394	491
526	996	528
527	201	855
528	257	707
529	312	30
530	592	232
531	720	397
532	345	273
533	463	952
534	850	274
535	349	282
536	947	823
537	351	177
538	715	526
539	531	243
540	738	725
541	396	748
542	285	908
543	45	875
544	652	646
545	324	463
546	896	657
547	793	32
548	63	215
549	789	728
550	962	281
551	640	134
552	556	651
553	79	941
554	892	336
555	641	662
556	252	536
557	874	895
558	661	751
559	51	832
560	435	260
561	28	444
562	98	645
563	415	842
564	849	761
565	594	865
566	274	366
567	742	826
568	414	694
569	363	274
570	11	799
571	804	303
572	224	143
573	95	807
574	491	21
575	767	138
576	67	322
577	987	988
578	484	410
579	156	870
580	334	554
581	739	102
582	289	656
583	212	308
584	429	408
585	184	92
586	323	782
587	613	767
588	172	637
589	766	819
590	696	154
591	422	902
592	578	940
593	495	966
594	176	664
595	969	773
596	351	44
597	770	186
598	430	442
599	726	502
600	759	10
601	85	482
602	575	882
603	76	422
604	44	997
605	403	285
606	127	556
607	950	868
608	150	214
609	295	114
610	931	317
611	811	766
612	980	277
613	542	229
614	270	790
615	49	219
616	982	416
617	934	938
618	67	305
619	633	148
620	389	490
621	470	121
622	670	741
623	903	558
624	225	276
625	577	840
626	164	843
627	275	951
628	503	749
629	989	244
630	674	655
631	840	108
632	928	176
633	211	540
634	933	884
635	206	478
636	630	379
637	782	69
638	317	466
639	4	965
640	747	196
641	47	90
642	346	607
643	274	596
644	992	198
645	922	307
646	454	174
647	153	920
648	971	4
649	874	979
650	267	428
651	918	869
652	418	737
653	678	276
654	486	76
655	284	189
656	284	235
657	361	942
658	248	652
659	493	694
660	939	300
661	1000	460
662	300	872
663	39	924
664	578	237
665	337	478
666	318	185
667	563	142
668	370	157
669	960	935
670	964	504
671	894	199
672	534	751
673	65	854
674	341	418
675	700	479
676	196	557
677	214	172
678	125	512
679	998	382
680	79	234
681	937	883
682	463	740
683	631	380
684	225	169
685	335	865
686	475	55
687	701	662
688	75	534
689	857	643
690	796	702
691	212	701
692	255	868
693	894	697
694	883	209
695	519	966
696	882	339
697	150	26
698	124	985
699	489	288
700	124	142
701	322	980
702	171	812
703	340	42
704	381	190
705	566	480
706	950	162
707	291	481
708	49	957
709	250	519
710	599	739
711	419	838
712	546	460
713	804	416
714	798	581
715	520	519
716	808	263
717	296	115
718	995	309
719	619	64
720	397	156
721	435	948
722	543	282
723	189	502
724	274	431
725	470	773
726	109	463
727	695	622
728	645	58
729	317	312
730	390	744
731	419	254
732	405	962
733	642	370
734	884	823
735	655	97
736	957	180
737	867	290
738	445	618
739	158	629
740	459	399
741	974	471
742	100	828
743	77	420
744	465	184
745	694	300
746	729	302
747	83	436
748	660	626
749	486	909
750	113	684
751	178	935
752	828	321
753	504	615
754	850	293
755	480	706
756	233	564
757	61	663
758	210	188
759	303	879
760	512	226
761	604	449
762	677	456
763	924	920
764	413	856
765	729	152
766	366	413
767	686	975
768	70	357
769	472	344
770	488	598
771	941	953
772	24	613
773	136	263
774	373	927
775	984	384
776	183	3
777	10	930
778	518	619
779	923	365
780	503	649
781	125	437
782	840	534
783	629	429
784	477	316
785	643	597
786	234	302
787	57	675
788	249	447
789	377	798
790	6	504
791	360	254
792	587	668
793	751	409
794	63	560
795	567	612
796	988	770
797	82	183
798	760	750
799	648	857
800	926	459
801	24	678
802	951	44
803	860	306
804	607	516
805	131	740
806	288	185
807	747	451
808	353	20
809	659	491
810	806	809
811	189	461
812	915	933
813	822	901
814	853	346
815	811	40
816	729	802
817	70	496
818	876	831
819	444	39
820	564	378
821	616	950
822	799	602
823	984	448
824	302	208
825	697	9
826	386	316
827	329	299
828	190	607
829	547	209
830	969	705
831	951	707
832	618	98
833	663	768
834	73	206
835	767	499
836	576	604
837	184	327
838	276	21
839	24	722
840	159	311
841	843	422
842	840	924
843	432	222
844	165	460
845	121	580
846	861	393
847	481	831
848	899	10
849	135	836
850	892	578
851	319	942
852	994	556
853	690	106
854	943	482
855	226	643
856	252	854
857	17	560
858	497	801
859	93	360
860	653	880
861	782	643
862	267	420
863	269	247
864	464	256
865	195	964
866	656	41
867	902	520
868	223	326
869	26	220
870	957	265
871	21	883
872	584	443
873	614	472
874	858	478
875	841	148
876	195	364
877	49	589
878	643	269
879	823	116
880	79	223
881	324	98
882	837	944
883	698	483
884	397	275
885	813	290
886	594	804
887	546	386
888	182	347
889	599	342
890	946	25
891	983	482
892	327	385
893	424	101
894	547	904
895	419	965
896	112	147
897	174	973
898	867	990
899	813	94
900	992	264
901	249	924
902	722	561
903	886	0
904	855	272
905	225	573
906	175	207
907	733	98
908	313	927
909	23	123
910	198	960
911	86	884
912	641	900
913	667	377
914	17	511
915	49	86
916	534	980
917	920	359
918	717	187
919	458	113
920	597	80
921	719	407
922	212	135
923	246	205
924	545	687
925	73	682
926	885	351
927	541	705
928	843	336
929	35	764
930	990	609
931	348	155
932	730	431
933	772	134
934	555	885
935	966	70
936	271	600
937	570	508
938	867	445
939	666	883
940	225	111
941	485	102
942	859	467
943	897	180
944	410	979
945	605	71
946	318	403
947	576	697
948	79	778
949	795	153
950	424	341
951	919	774
952	166	923
953	417	981
954	29	894
955	697	197
956	413	305
957	175	996
958	408	875
959	65	194
960	401	230
961	173	303
962	894	772
963	932	263
964	34	476
965	306	430
966	25	173
967	923	740
968	112	284
969	139	421
970	694	686
971	574	98
972	60	510
973	722	657
974	285	285
975	169	542
976	446	459
977	115	246
978	112	530
979	797	248
980	903	485
981	509	53
982	776	66
983	439	820
984	539	237
985	493	768
986	211	417
987	113	58
988	192	19
989	227	413
990	421	932
991	319	541
992	597	617
993	135	226
994	946	705
995	96	461
996	520	682
997	949	575
998	58	670
999	466	993
1000	389	274
1001	945	720
DEMAND_SECTION
1	0
2	5
3	4
4	6
5	1
6	5
7	6
8	9
9	5
10	3
11	4
12	9
13	1
14	2
15	6
16	4
17	1
18	5
19	9
20	1
21	5
22	5
23	5
24	5
25	8
26	5
27	1
28	4
29	2
30	8
31	3
32	2
33	1
34	8
35	1
36	8
37	6
38	1
39	3
40	6
41	4
42	3
43	7
44	5
45	2
46	2
47	9
48	6
49	3
50	1
51	3
52	8
53	2
54	4
55	9
56	8
57	3
58	9
59	5
60	9
61	9
62	4
63	1
64	7
65	4
66	3
67	8
68	8
69	7
70	4
71	6
72	3
73	2
74	1
75	4
76	6
77	7
78	8
79	7
80	2
81	8
82	9
83	3
84	1
85	3
86	4
87	1
88	9
89	3
90	5
91	5
92	1
93	8
94	1
95	4
96	3
97	5
98	6
99	1
100	8
101	9
102	3
103	7
104	5
105	8
106	6
107	2
108	6
109	4
110	2
111	9
112	3
113	8
114	9
115	8
116	2
117	4
118	7
119	6
120	9
121	9
122	6
123	2
124	2
125	3
126	5
127	1
128	4
129	2
130	8
131	1
132	7
133	2
134	7
135	9
136	6
137	4
138	2
139	4
140	3
141	5
142	8
143	7
144	9
145	8
146	9
147	8
148	6
149	4
150	6
151	2
152	3
153	9
154	1
155	6
156	4
157	5
158	4
159	2
160	7
161	4
162	8
163	2
164	9
165	6
166	7
167	3
168	7
169	6
170	6
171	8
172	3
173	6
174	5
175	5
176	9
177	9
178	3
179	9
180	2
181	6
182	8
183	5
184	6
185	4
186	2
187	6
188	1
189	2
190	2
191	1
192	9
193	5
194	2
195	4
196	1
197	3
198	8
199	9
200	5
201	3
202	7
203	1
204	8
205	3
206	6
207	4
208	4
209	8
210	3
211	3
212	5
213	8
214	1
215	6
216	4
217	5
218	7
219	8
220	7
221	1
222	6
223	6
224	9
225	4
226	9
227	2
228	9
229	4
230	1
231	6
232	6
233	4
234	5
235	3
236	2
237	6
238	1
239	9
240	8
241	5
242	5
243	8
244	7
245	3
246	3
247	3
248	3
249	5
250	1
251	6
252	5
253	7
254	5
255	2
256	4
257	7
258	6
259	2
260	2
261	1
262	6
263	5
264	3
265	9
266	2
267	4
268	8
269	4
270	8
271	2
272	4
273	2
274	1
275	9
276	1
277	4
278	1
279	5
280	6
281	3
282	6
283	5
284	4
285	1
286	8
287	4
288	3
289	5
290	5
291	2
292	3
293	1
294	2
295	3
296	7
297	3
298	6
299	2
300	1
301	7
302	1
303	8
304	4
305	7
306	6
307	5
308	5
309	1
310	8
311	3
312	3
313	5
314	6
315	6
316	8
317	6
318	2
319	6
320	2
321	8
322	2
323	7
324	7
325	4
326	9
327	9
328	2
329	9
330	9
331	8
332	4
333	6
334	5
335	9
336	1
337	3
338	6
339	8
340	9
341	2
342	4
343	6
344	1
345	1
346	4
347	6
348	6
349	8
350	3
351	3
352	6
353	3
354	9
355	7
356	3
357	6
358	1
359	7
360	9
361	1
362	7
363	4
364	3
365	9
366	2
367	7
368	4
369	5
370	9
371	2
372	6
373	9
374	5
375	4
376	2
377	2
378	6
379	5
380	5
381	9
382	1
383	8
384	9
385	4
386	6
387	7
388	6
389	9
390	5
391	8
392	8
393	3
394	7
395	7
396	1
397	8
398	5
399	7
400	6
401	4
402	4
403	7
404	8
405	6
406	3
407	6
408	9
409	7
410	5
411	3
412	3
413	8
414	2
415	4
416	1
417	9
418	8
419	6
420	3
421	2
422	9
423	6
424	3
425	5
426	2
427	2
428	7
429	8
430	1
431	9
432	7
433	3
434	2
435	4
436	1
437	3
438	8
439	4
440	6
441	3
442	5
443	7
444	7
445	6
446	8
447	1
448	9
449	2
450	1
451	3
452	1
453	3
454	2
455	9
456	2
457	7
458	2
459	1
460	2
461	2
462	8
463	6
464	4
465	7
466	8
467	5
468	8
469	1
470	6
471	8
472	1
473	5
474	9
475	8
476	6
477	5
478	8
479	1
480	6
481	3
482	2
483	2
484	5
485	5
486	6
487	3
488	5
489	2
490	3
491	6
492	2
493	4
494	7
495	5
496	7
497	5
498	2
499	2
500	9
501	7
502	6
503	2
504	8
505	4
506	1
507	2
508	4
509	7
510	9
511	6
512	1
513	7
514	2
515	3
516	9
517	8
518	4
519	9
520	9
521	3
522	2
523	5
524	6
525	1
526	3
527	8
528	4
529	9
530	3
531	3
532	8
533	9
534	7
535	9
536	8
537	6
538	2
539	7
540	4
541	9
542	1
543	4
544	3
545	2
546	1
547	9
548	2
549	7
550	1
551	7
552	7
553	1
554	7
555	3
556	4
557	2
558	8
559	9
560	9
561	1
562	5
563	2
564	1
565	2
566	9
567	7
568	6
569	9
570	7
571	2
572	6
573	2
574	2
575	3
576	9
577	5
578	4
579	7
580	5
581	2
582	9
583	3
584	1
585	6
586	6
587	6
588	4
589	5
590	8
591	7
592	8
593	1
594	2
595	9
596	5
597	1
598	2
599	4
600	7
601	1
602	1
603	9
604	7
605	9
606	7
607	6
608	6
609	6
610	5
611	9
612	7
613	5
614	8
615	2
616	9
617	7
618	9
619	9
620	1
621	9
622	3
623	6
624	1
625	4
626	7
627	4
628	6
629	5
630	3
631	3
632	9
633	8
634	6
635	3
636	3
637	8
638	4
639	1
640	7
641	7
642	7
643	3
644	3
645	1
646	5
647	4
648	3
649	1
650	3
651	6
652	6
653	8
654	4
655	6
656	4
657	7
658	7
659	5
660	2
661	8
662	5
663	3
664	7
665	6
666	2
667	8
668	2
669	9
670	7
671	7
672	6
673	2
674	9
675	7
676	2
677	7
678	2
679	5
680	9
681	2
682	9
683	6
684	1
685	4
686	2
687	9
688	3
689	3
690	3
691	8
692	9
693	9
694	8
695	6
696	1
697	7
698	9
699	4
700	8
701	3
702	1
703	7
704	1
705	4
706	9
707	9
708	9
709	7
710	6
711	6
712	4
713	8
714	7
715	2
716	8
717	2
718	2
719	2
720	6
721	1
722	8
723	8
724	7
725	8
726	5
727	5
728	3
729	9
730	6
731	8
732	4
733	4
734	5
735	7
736	3
737	5
738	9
739	3
740	6
741	1
742	9
743	9
744	7
745	8
746	9
747	4
748	2
749	9
750	7
751	9
752	1
753	2
754	9
755	4
756	2
757	4
758	1
759	5
760	2
761	3
762	2
763	6
764	1
765	1
766	5
767	4
768	3
769	7
770	6
771	9
772	5
773	6
774	2
775	3
776	7
777	1
778	9
779	9
780	2
781	2
782	4
783	7
784	2
785	1
786	5
787	4
788	5
789	6
790	3
791	2
792	1
793	2
794	2
795	3
796	3
797	2
798	9
799	5
800	7
801	5
802	7
803	5
804	3
805	1
806	1
807	3
808	6
809	9
810	9
811	8
812	8
813	4
814	8
815	1
816	4
817	8
818	5
819	6
820	8
821	7
822	7
823	3
824	8
825	1
826	1
827	3
828	8
829	4
830	8
831	2
832	2
833	6
834	3
835	7
836	6
837	2
838	8
839	6
840	5
841	5
842	2
843	9
844	9
845	8
846	3
847	7
848	5
849	4
850	3
851	6
852	5
853	4
854	7
855	2
856	3
857	3
858	3
859	8
860	9
861	4
862	2
863	6
864	1
865	2
866	1
867	6
868	8
869	5
870	2
871	8
872	8
873	3
874	9
875	7
876	4
877	1
878	6
879	1
880	4
881	4
882	3
883	4
884	4
885	3
886	6
887	9
888	9
889	1
890	7
891	5
892	8
893	9
894	1
895	9
896	1
897	7
898	9
899	6
900	3
901	2
902	4
903	9
904	1
905	3
906	2
907	6
908	9
909	5
910	2
911	9
912	4
913	2
914	6
915	8
916	8
917	6
918	7
919	7
920	2
921	8
922	8
923	1
924	6
925	4
926	8
927	1
928	3
929	6
930	2
931	7
932	3
933	2
934	7
935	9
936	2
937	2
938	2
939	4
940	6
941	4
942	1
943	3
944	8
945	3
946	9
947	9
948	8
949	8
950	9
951	6
952	5
953	6
954	3
955	8
956	7
957	1
958	6
959	7
960	7
961	2
962	7
963	1
964	8
965	1
966	7
967	5
968	5
969	9
970	9
971	5
972	3
973	7
974	9
975	4
976	2
977	6
978	3
979	8
980	5
981	7
982	1
983	3
984	9
985	1
986	4
987	3
988	7
989	8
990	3
991	5
992	3
993	2
994	4
995	9
996	6
997	9
998	4
999	1
1000	2
1001	5
TIME_WINDOW_SECTION
1	0	3000
2	108	1746
3	1429	1823
4	562	1582
5	805	1263
6	946	2838
7	0	1516
8	1887	2329
9	475	909
10	0	1379
11	879	1141
12	1245	1881
13	0	1298
14	1185	2484
15	0	1366
16	651	1841
17	0	1465
18	1253	3000
19	989	2051
20	0	1603
21	872	1247
22	244	1603
23	1202	1827
24	1696	2529
25	127	1638
26	0	1566
27	951	2370
28	929	1734
29	747	2209
30	1152	3000
31	107	1806
32	450	1970
33	2057	2401
34	626	1140
35	1339	2428
36	1838	2768
37	1870	2291
38	0	1846
39	1243	2129
40	1915	2351
41	1435	1670
42	190	524
43	456	904
44	111	994
45	1156	1419
46	1127	1716
47	3	1517
48	475	1632
49	1422	2615
50	0	1365
51	755	2723
52	496	2067
53	61	547
54	0	1851
55	1313	2899
56	0	1448
57	1118	2355
58	563	1605
59	1350	2014
60	1974	2219
61	1564	3000
62	1037	2191
63	1332	2505
64	1500	2619
65	815	1395
66	274	912
67	754	2202
68	0	1143
69	1849	2198
70	1771	2150
71	656	1094
72	941	1863
73	262	1723
74	1081	1879
75	326	2079
76	1807	2225
77	716	1308
78	1493	2374
79	1441	2923
80	0	1007
81	281	1156
82	915	2296
83	1149	1350
84	1197	3000
85	563	1923
86	309	1632
87	2109	2865
88	1002	1688
89	1431	1731
90	470	2262
91	843	1924
92	1079	2042
93	1256	3000
94	202	1687
95	0	1529
96	1307	1824
97	1002	2728
98	1269	3000
99	713	2417
100	403	1682
101	0	1114
102	690	2038
103	659	2589
104	1790	2542
105	1058	2029
106	803	1591
107	1112	2346
108	407	1128
109	1266	2050
110	1056	1834
111	196	1466
112	0	676
113	625	1948
114	2141	3000
115	1234	2829
116	1580	2771
117	1198	2510
118	1211	2148
119	1021	2307
120	110	1196
121	876	2821
122	1097	2757
123	434	1516
124	893	1848
125	1495	1729
126	718	2194
127	729	2632
128	1051	2907
129	0	930
130	165	1675
131	1838	2663
132	0	694
133	0	1741
134	39	1171
135	1330	2952
136	1247	1448
137	137	1904
138	1123	2673
139	793	1376
140	829	1758
141	34	1654
142	1085	2082
143	708	2327
144	1147	1925
145	1529	3000
146	0	1383
147	216	1663
148	1968	2728
149	188	2009
150	638	2107
151	1146	2654
152	773	1779
153	1344	2067
154	852	1996
155	628	916
156	1384	2178
157	373	1826
158	1541	2482
159	1380	2512
160	177	1900
161	1529	2120
162	737	1786
163	166	596
164	1707	2202
165	931	2468
166	146	697
167	1019	2452
168	1931	2949
169	776	1208
170	561	2331
171	51	1064
172	1538	2362
173	1981	2863
174	8	1673
175	482	1661
176	68	836
177	1680	2567
178	249	885
179	0	1533
180	1272	2940
181	1044	1750
182	246	1380
183	807	1088
184	968	2014
185	1337	2689
186	391	1428
187	157	1968
188	1301	1619
189	589	1810
190	809	2430
191	0	1722
192	0	825
193	1467	2984
194	821	1426
195	0	1360
196	0	1152
197	12	1009
198	2050	2632
199	1065	2814
200	1892	2435
201	518	2300
202	882	2323
203	1042	3000
204	627	1369
205	1204	2003
206	202	2014
207	1517	3000
208	1263	1987
209	403	777
210	2141	2923
211	426	1678
212	0	1632
213	704	1258
214	1382	1864
215	0	1373
216	1172	3000
217	1281	2862
218	0	1874
219	0	1715
220	124	684
221	592	1315
222	1686	3000
223	1082	2135
224	422	2107
225	101	1811
226	1350	1864
227	1975	2190
228	722	1270
229	506	721
230	344	1414
231	1234	2358
232	124	881
233	0	1773
234	521	1954
235	1247	2657
236	1722	1995
237	683	1098
238	90	1029
239	63	2030
240	30	580
241	602	1002
242	1557	2301
243	1173	1610
244	0	1132
245	360	755
246	392	2019
247	0	1535
248	251	1305
249	1836	2256
250	562	1038
251	2062	2402
252	781	1118
253	512	2015
254	398	1531
255	1322	2336
256	1249	2226
257	1732	2784
258	404	749
259	1521	2184
260	0	1549
261	913	1673
262	1796	3000
263	506	1805
264	1235	1959
265	61	1410
266	299	965
267	568	1124
268	1353	2067
269	691	2451
270	1029	2075
271	1589	2686
272	0	1598
273	1370	1587
274	1880	2845
275	682	1295
276	678	974
277	1462	3000
278	321	1131
279	959	1309
280	1378	2787
281	725	2678
282	986	1890
283	0	1014
284	1308	1567
285	353	1705
286	1828	2083
287	0	866
288	1214	2071
289	1428	2148
290	728	2464
291	177	1926
292	842	1250
293	507	1480
294	372	1442
295	1089	2635
296	1602	1825
297	1878	3000
298	597	2172
299	985	2611
300	414	1492
301	0	1562
302	761	2485
303	1792	3000
304	1598	2389
305	10	1867
306	785	2650
307	1009	1592
308	342	1858
309	177	1789
310	847	2036
311	1617	1923
312	678	1029
313	650	1914
314	1130	1653
315	2235	2465
316	1910	2263
317	367	2243
318	1677	2004
319	1369	2558
320	1050	2092
321	359	1208
322	1365	2737
323	576	1369
324	1645	2630
325	1431	2752
326	582	1697
327	843	1846
328	1223	3000
329	1061	2601
330	902	2648
331	401	1069
332	16	1043
333	578	975
334	1360	1657
335	1739	2002
336	1852	2662
337	658	947
338	1209	1797
339	1258	1503
340	1518	1754
341	0	1463
342	882	1960
343	0	1276
344	943	1303
345	954	2079
346	152	823
347	1542	2802
348	1172	2028
349	94	1764
350	1629	1971
351	1131	2118
352	0	1677
353	538	2084
354	494	1249
355	0	1636
356	1345	2210
357	1377	2754
358	482	1051
359	907	1227
360	0	1297
361	553	2399
362	870	1745
363	861	1123
364	1172	1767
365	848	2601
366	823	1630
367	888	2302
368	847	1752
369	848	2580
370	383	1749
371	36	1276
372	764	1061
373	982	1885
374	230	1935
375	1084	2135
376	1180	1960
377	1219	2372
378	1562	2173
379	0	1234
380	940	1996
381	1494	2901
382	0	1681
383	1564	3000
384	462	1507
385	806	2500
386	1578	2716
387	1137	2733
388	171	1788
389	0	1690
390	1482	2897
391	633	1538
392	1296	1838
393	1373	3000
394	1717	2894
395	1469	2395
396	620	1906
397	823	1374
398	1593	2051
399	0	1723
400	1063	2090
401	13	1138
402	1884	2664
403	928	2686
404	1171	1626
405	222	2110
406	1684	2111
407	1511	2166
408	0	1449
409	1475	1998
410	309	1910
411	1347	2373
412	1341	2238
413	172	2112
414	166	1423
415	233	1888
416	0	1052
417	661	1965
418	489	701
419	745	2429
420	958	1296
421	604	2165
422	2315	2852
423	530	2314
424	343	726
425	0	1639
426	1026	1876
427	1697	2368
428	177	1460
429	958	1279
430	1400	2553
431	871	2384
432	1544	2735
433	548	2092
434	0	1213
435	0	1026
436	1002	2890
437	1672	2929
438	1140	1891
439	245	2217
440	862	2551
441	972	1538
442	1660	2861
443	605	1657
444	28	1299
445	1529	2289
446	1106	1515
447	0	995
448	1777	2344
449	1785	3000
450	1491	3000
451	444	1626
452	1654	2659
453	1508	2077
454	797	1760
455	1095	1928
456	314	1024
457	1348	2361
458	869	1743
459	1450	1873
460	97	988
461	550	2104
462	1433	2434
463	1368	2154
464	0	1233
465	929	2891
466	436	2230
467	1093	2745
468	0	1412
469	626	1119
470	1806	2316
471	250	537
472	1551	1860
473	691	2200
474	1531	3000
475	783	1216
476	238	1111
477	484	1176
478	914	2114
479	619	1773
480	790	2517
481	1120	1638
482	0	1534
483	2002	3000
484	0	1155
485	716	2564
486	0	1129
487	486	893
488	177	611
489	2133	2779
490	1316	1710
491	296	1769
492	530	857
493	155	1989
494	1373	2622
495	0	1611
496	1652	1923
497	137	1383
498	1241	2419
499	416	2329
500	345	1747
501	674	1414
502	940	2648
503	1378	2780
504	2136	2763
505	299	1798
506	758	2225
507	531	1260
508	1670	3000
509	1897	2132
510	1052	3000
511	676	1020
512	1162	2834
513	602	1226
514	1553	2396
515	1190	2177
516	1250	2512
517	1510	1855
518	0	1434
519	1359	2731
520	150	1468
521	464	1416
522	1356	2188
523	424	908
524	1990	2207
525	2451	2856
526	201	834
527	27	1781
528	1503	2443
529	624	1056
530	2159	2609
531	1752	3000
532	1374	3000
533	0	1917
534	210	1678
535	0	1239
536	0	1450
537	1441	2784
538	692	1105
539	0	826
540	689	2459
541	717	1878
542	350	1841
543	350	879
544	1868	3000
545	1831	3000
546	696	1195
547	97	1156
548	349	1134
549	1056	2993
550	0	1860
551	1235	2945
552	1845	3000
553	630	1687
554	1344	2485
555	1238	1616
556	1359	2430
557	462	1704
558	642	1281
559	397	2209
560	1468	2835
561	0	970
562	528	815
563	891	1945
564	326	2075
565	1396	3000
566	681	2574
567	1273	2331
568	524	848
569	772	1156
570	778	1413
571	1594	3000
572	585	853
573	989	2578
574	590	1820
575	918	2187
576	993	2796
577	467	1977
578	1117	2762
579	1257	2177
580	2010	3000
581	1133	2020
582	0	1122
583	1099	1503
584	1726	2376
585	2099	2449
586	1250	1529
587	1826	2753
588	1155	1801
589	1064	1617
590	1115	2872
591	1262	2517
592	1110	1615
593	1657	2517
594	0	1113
595	1008	1977
596	669	1947
597	1300	2663
598	936	1193
599	1445	2213
600	956	2069
601	729	1758
602	1934	2725
603	331	692
604	630	977
605	0	918
606	1243	2166
607	0	1853
608	1726	2229
609	1485	2469
610	1047	2807
611	1749	2018
612	748	1450
613	1531	2160
614	1842	2950
615	1451	1891
616	78	1587
617	1187	1670
618	665	1744
619	451	657
620	1309	1942
621	1173	2996
622	0	1195
623	854	1258
624	1436	2900
625	0	1000
626	504	1795
627	599	1913
628	0	1642
629	894	1295
630	968	1873
631	799	2366
632	539	1277
633	664	2368
634	430	1115
635	1852	3000
636	251	1873
637	169	2101
638	2222	2425
639	1827	2289
640	510	1287
641	1049	1643
642	1164	1686
643	1494	2844
644	591	1906
645	0	1352
646	100	1735
647	423	1170
648	1277	2556
649	1140	1976
650	542	2447
651	1121	2490
652	137	1423
653	70	1616
654	2140	2405
655	682	1004
656	781	1757
657	1344	2811
658	1463	2862
659	934	2455
660	812	1806
661	319	1956
662	397	1746
663	1322	2345
664	0	1607
665	0	1537
666	1232	2173
667	0	1398
668	1653	3000
669	1214	2588
670	1338	1625
671	1297	2509
672	650	2206
673	930	1945
674	2183	2437
675	981	1298
676	0	1491
677	1103	2349
678	797	1962
679	1585	2334
680	1947	2354
681	1491	2095
682	1714	3000
683	1094	2640
684	448	1390
685	1814	2551
686	2074	2281
687	1214	1516
688	1389	2105
689	233	997
690	643	2341
691	1700	2962
692	1536	2018
693	1525	2491
694	1804	2702
695	1968	2417
696	116	1816
697	969	1837
698	1583	2666
699	789	2143
700	554	1439
701	362	1354
702	1488	3000
703	1373	3000
704	122	1368
705	1780	3000
706	588	1344
707	0	1870
708	1065	2726
709	399	2071
710	48	517
711	0	1799
712	52	1019
713	1042	1592
714	749	1399
715	2167	3000
716	1422	3000
717	1077	1437
718	192	1039
719	482	2343
720	164	1654
721	776	1731
722	1180	1785
723	7	1820
724	685	2479
725	1979	2446
726	0	1371
727	798	1869
728	1762	2761
729	870	1537
730	189	699
731	0	1314
732	41	1359
733	1709	2247
734	947	1996
735	1401	1992
736	1236	2594
737	2179	2494
738	1265	3000
739	1268	2368
740	2210	2625
741	528	2339
742	1362	2911
743	549	924
744	0	851
745	699	2263
746	1279	2363
747	479	1574
748	467	1771
749	951	2746
750	80	1163
751	679	1927
752	1211	2246
753	0	646
754	1060	2415
755	0	1583
756	1524	2905
757	1958	2261
758	985	1664
759	1359	2274
760	1818	2850
761	0	1463
762	1116	2175
763	1297	3000
764	583	2414
765	0	1772
766	881	2159
767	197	1680
768	357	1003
769	1420	2759
770	1475	3000
771	348	2066
772	681	1075
773	728	1832
774	0	1873
775	1468	1767
776	1679	2395
777	946	1655
778	392	1320
779	1121	2045
780	226	655
781	1810	2420
782	1857	2606
783	0	608
784	517	942
785	252	1753
786	585	1038
787	2024	2313
788	1806	2038
789	0	685
790	1026	2155
791	455	1984
792	2119	3000
793	1387	3000
794	381	2321
795	1195	1797
796	601	1579
797	1244	3000
798	978	1621
799	0	1741
800	125	1821
801	0	1245
802	821	1867
803	761	973
804	447	2207
805	888	1900
806	1029	2499
807	22	1194
808	922	1621
809	436	2365
810	1727	2986
811	0	1065
812	0	1645
813	88	1782
814	1584	2989
815	1449	2431
816	501	792
817	968	1858
818	1829	2182
819	121	1690
820	1424	1722
821	748	1087
822	1219	2504
823	862	1127
824	268	1288
825	1506	2043
826	0	1042
827	0	1358
828	1459	3000
829	202	1389
830	265	1233
831	900	2451
832	2030	2328
833	1196	2434
834	1263	2690
835	1635	3000
836	761	1662
837	1442	1671
838	1131	2210
839	0	1360
840	1186	2806
841	771	2032
842	1181	3000
843	131	1796
844	1200	1773
845	753	2087
846	455	1475
847	0	1522
848	854	1221
849	1799	2011
850	1606	3000
851	979	2668
852	553	2333
853	118	1370
854	813	1652
855	529	1729
856	906	1496
857	396	1685
858	423	1559
859	1619	2419
860	1502	1946
861	80	879
862	79	443
863	759	1591
864	2078	2888
865	1165	1959
866	50	1435
867	279	2166
868	1356	2332
869	681	1582
870	778	2263
871	472	2179
872	918	1890
873	943	1827
874	2039	2356
875	1277	2034
876	570	1332
877	1224	1871
878	704	2094
879	1427	2174
880	101	1419
881	1520	2208
882	1496	1912
883	1329	2101
884	1404	2053
885	1046	1384
886	898	2108
887	2048	2969
888	827	1624
889	879	2440
890	1161	2754
891	1927	2564
892	644	1798
893	133	1910
894	1803	3000
895	1102	1635
896	647	2577
897	630	1094
898	733	2584
899	1448	2371
900	287	1537
901	0	1279
902	241	1553
903	1181	2379
904	1351	3000
905	1384	3000
906	253	1955
907	0	1507
908	1839	2224
909	342	1819
910	1058	1865
911	1409	2105
912	803	1627
913	0	1188
914	1203	1682
915	1146	1546
916	770	1275
917	45	895
918	1609	2261
919	1004	1821
920	63	1349
921	1726	2006
922	459	2034
923	1648	2315
924	438	1807
925	906	1677
926	555	2044
927	737	1365
928	987	2370
929	1198	2269
930	363	2023
931	1500	2643
932	1316	2542
933	1303	2650
934	617	1444
935	351	1039
936	1015	1608
937	1028	2505
938	1295	2095
939	1599	2607
940	737	983
941	0	1555
942	581	2118
943	158	975
944	10	951
945	512	2472
946	0	1085
947	1633	3000
948	615	1953
949	245	1003
950	1961	2984
951	635	2091
952	1328	1789
953	327	1626
954	1788	2385
955	0	1448
956	9	1134
957	347	1959
958	1660	2140
959	1217	2762
960	1000	2239
961	14	1940
962	360	1457
963	1742	2627
964	2	1679
965	632	1152
966	732	2463
967	846	1814
968	1132	1905
969	719	2712
970	480	2385
971	1006	2959
972	1986	2412
973	0	726
974	1348	2457
975	1037	2929
976	2150	2816
977	824	2006
978	743	2376
979	736	1161
980	1774	2608
981	324	848
982	1059	1890
983	338	1333
984	981	1946
985	144	515
986	1703	3000
987	288	1957
988	488	927
989	176	737
990	704	2387
991	933	2618
992	2295	2765
993	798	1181
994	99	1437
995	1736	2410
996	272	1449
997	1764	2778
998	1358	1816
999	1468	2545
1000	290	658
1001	0	1473
DEPOT_SECTION
1
-1
EOF
