NAME : n401-0037
COMMENT : "Generated by pyvrp_manuel (VRPBTW)"
TYPE : VRPBTW
DIMENSION : 401
EDGE_WEIGHT_TYPE : EUC_2D
CAPACITY : 100
VEHICLES : 400
SERVICE_TIME : 200
NODE_COORD_SECTION
1	697	914
2	558	273
3	790	556
4	966	258
5	370	524
6	40	483
7	463	815
8	576	849
9	175	608
10	211	284
11	754	50
12	961	109
13	765	579
14	871	652
15	390	307
16	688	316
17	361	732
18	338	490
19	219	356
20	339	384
21	498	725
22	137	276
23	374	309
24	434	787
25	877	369
26	767	362
27	698	331
28	509	127
29	438	303
30	790	415
31	105	686
32	150	917
33	559	655
34	282	49
35	832	283
36	867	168
37	425	619
38	997	351
39	720	885
40	32	944
41	569	255
42	513	658
43	724	50
44	703	737
45	153	636
46	938	482
47	300	341
48	27	787
49	400	85
50	346	153
51	709	951
52	16	565
53	256	243
54	544	185
55	966	624
56	496	470
57	946	649
58	85	452
59	299	300
60	217	801
61	422	987
62	308	98
63	704	160
64	888	857
65	349	389
66	685	419
67	128	141
68	879	400
69	318	413
70	684	472
71	234	504
72	854	49
73	666	373
74	135	486
75	657	468
76	378	239
77	785	296
78	43	503
79	894	127
80	879	295
81	862	493
82	860	251
83	428	852
84	620	89
85	309	481
86	747	44
87	198	687
88	439	457
89	734	491
90	277	729
91	675	241
92	333	946
93	487	152
94	815	910
95	484	121
96	806	157
97	912	468
98	435	410
99	506	675
100	635	697
101	446	923
102	561	467
103	912	911
104	266	624
105	748	596
106	943	414
107	339	602
108	219	545
109	654	788
110	639	280
111	643	357
112	372	867
113	674	558
114	277	842
115	69	178
116	317	975
117	597	582
118	629	484
119	455	647
120	192	276
121	703	461
122	77	186
123	331	94
124	279	9
125	702	308
126	545	563
127	422	783
128	134	597
129	524	258
130	486	714
131	980	708
132	706	974
133	764	85
134	429	692
135	264	144
136	907	916
137	597	628
138	622	356
139	191	79
140	311	347
141	799	773
142	349	751
143	211	971
144	167	939
145	980	913
146	171	46
147	950	486
148	479	732
149	447	584
150	69	514
151	466	833
152	29	810
153	281	371
154	527	590
155	445	737
156	358	828
157	497	239
158	490	344
159	248	358
160	709	116
161	495	302
162	81	25
163	61	141
164	375	660
165	481	577
166	936	908
167	562	174
168	951	572
169	924	111
170	177	684
171	924	664
172	910	190
173	891	728
174	154	761
175	179	970
176	995	457
177	990	95
178	571	595
179	669	687
180	354	946
181	802	324
182	143	822
183	263	671
184	33	17
185	182	30
186	945	639
187	991	408
188	828	285
189	726	487
190	287	613
191	984	355
192	264	792
193	374	253
194	969	275
195	43	905
196	212	258
197	671	742
198	539	32
199	870	390
200	1000	167
201	29	710
202	156	315
203	378	13
204	831	566
205	711	648
206	407	724
207	406	70
208	351	485
209	108	286
210	336	218
211	826	435
212	6	190
213	405	495
214	781	865
215	601	207
216	845	545
217	520	605
218	40	471
219	301	63
220	621	384
221	783	848
222	471	261
223	755	881
224	624	25
225	865	101
226	646	68
227	921	990
228	977	570
229	518	22
230	680	555
231	793	21
232	528	632
233	697	960
234	219	978
235	165	901
236	853	341
237	107	990
238	600	689
239	886	571
240	585	129
241	597	26
242	119	91
243	694	746
244	434	638
245	24	980
246	737	574
247	767	430
248	25	126
249	398	713
250	747	772
251	266	681
252	951	773
253	822	421
254	403	278
255	835	609
256	986	999
257	533	431
258	37	735
259	265	716
260	692	503
261	735	203
262	2	761
263	452	274
264	62	393
265	734	663
266	318	708
267	587	594
268	226	421
269	447	737
270	766	128
271	487	635
272	312	557
273	716	520
274	32	167
275	17	617
276	884	473
277	144	303
278	737	158
279	276	508
280	768	699
281	225	129
282	167	364
283	581	371
284	639	602
285	297	395
286	621	939
287	15	674
288	388	676
289	112	961
290	558	207
291	905	244
292	401	588
293	828	627
294	204	414
295	573	242
296	170	133
297	305	393
298	756	447
299	322	720
300	638	874
301	786	724
302	736	908
303	528	623
304	411	746
305	351	842
306	191	870
307	13	372
308	773	909
309	948	229
310	394	233
311	165	961
312	816	248
313	82	925
314	471	835
315	231	459
316	355	728
317	372	665
318	918	898
319	748	967
320	241	197
321	222	15
322	353	322
323	387	399
324	895	724
325	860	345
326	713	33
327	669	839
328	412	633
329	745	914
330	422	650
331	190	145
332	59	311
333	909	564
334	8	866
335	101	147
336	114	531
337	882	46
338	24	440
339	247	550
340	859	21
341	916	172
342	161	191
343	541	176
344	119	705
345	493	731
346	17	714
347	943	400
348	923	342
349	245	958
350	828	837
351	966	319
352	225	708
353	844	978
354	285	684
355	247	689
356	116	67
357	632	159
358	939	834
359	395	846
360	53	650
361	411	261
362	584	196
363	301	189
364	129	161
365	730	175
366	452	453
367	767	902
368	131	337
369	669	38
370	198	573
371	293	724
372	569	105
373	969	136
374	405	797
375	9	190
376	415	26
377	737	697
378	660	345
379	609	407
380	279	7
381	152	790
382	218	439
383	454	179
384	991	909
385	808	863
386	764	814
387	103	293
388	916	814
389	712	135
390	404	24
391	124	219
392	340	726
393	850	487
394	308	7
395	798	817
396	351	637
397	420	962
398	916	115
399	561	751
400	928	178
401	964	491
DEMAND_SECTION
1	0
2	7
3	5
4	5
5	3
6	4
7	3
8	2
9	2
10	7
11	4
12	3
13	6
14	1
15	3
16	6
17	4
18	4
19	4
20	5
21	2
22	8
23	1
24	2
25	4
26	7
27	9
28	5
29	4
30	5
31	8
32	6
33	3
34	3
35	2
36	6
37	7
38	3
39	1
40	4
41	8
42	9
43	4
44	4
45	6
46	8
47	4
48	4
49	5
50	2
51	9
52	7
53	5
54	5
55	5
56	2
57	8
58	6
59	6
60	7
61	1
62	8
63	5
64	1
65	4
66	5
67	6
68	4
69	6
70	3
71	7
72	5
73	6
74	5
75	9
76	5
77	1
78	7
79	5
80	8
81	9
82	3
83	2
84	2
85	4
86	1
87	5
88	9
89	7
90	7
91	6
92	5
93	4
94	4
95	8
96	2
97	6
98	3
99	2
100	9
101	3
102	1
103	6
104	9
105	5
106	1
107	7
108	9
109	8
110	8
111	5
112	7
113	3
114	5
115	3
116	4
117	7
118	3
119	2
120	7
121	6
122	4
123	1
124	3
125	3
126	1
127	2
128	4
129	7
130	6
131	1
132	8
133	1
134	7
135	1
136	2
137	8
138	6
139	6
140	4
141	3
142	3
143	8
144	4
145	7
146	4
147	8
148	4
149	4
150	3
151	3
152	3
153	6
154	4
155	1
156	8
157	7
158	7
159	3
160	9
161	1
162	6
163	6
164	8
165	6
166	1
167	4
168	8
169	3
170	9
171	2
172	9
173	9
174	6
175	5
176	3
177	5
178	4
179	3
180	5
181	4
182	3
183	8
184	4
185	5
186	6
187	2
188	2
189	3
190	3
191	7
192	5
193	7
194	1
195	1
196	3
197	1
198	2
199	8
200	8
201	8
202	7
203	4
204	9
205	6
206	8
207	8
208	9
209	7
210	5
211	5
212	1
213	4
214	1
215	5
216	6
217	9
218	1
219	8
220	2
221	1
222	1
223	2
224	9
225	4
226	4
227	8
228	2
229	2
230	3
231	3
232	5
233	1
234	6
235	5
236	5
237	3
238	3
239	9
240	7
241	4
242	5
243	8
244	1
245	1
246	2
247	1
248	1
249	9
250	3
251	3
252	8
253	6
254	4
255	5
256	7
257	3
258	3
259	9
260	1
261	5
262	9
263	4
264	3
265	4
266	3
267	5
268	8
269	7
270	8
271	2
272	3
273	3
274	4
275	6
276	8
277	9
278	2
279	6
280	6
281	1
282	7
283	1
284	3
285	3
286	5
287	8
288	4
289	8
290	3
291	5
292	2
293	8
294	3
295	5
296	3
297	2
298	8
299	4
300	1
301	6
302	6
303	8
304	4
305	9
306	9
307	9
308	4
309	1
310	6
311	7
312	5
313	9
314	9
315	7
316	5
317	6
318	8
319	2
320	4
321	2
322	1
323	2
324	1
325	2
326	4
327	1
328	9
329	6
330	1
331	8
332	4
333	1
334	6
335	1
336	3
337	4
338	8
339	4
340	5
341	8
342	6
343	2
344	3
345	5
346	9
347	1
348	1
349	6
350	5
351	5
352	1
353	9
354	5
355	1
356	6
357	5
358	7
359	6
360	1
361	5
362	1
363	3
364	9
365	3
366	9
367	6
368	8
369	8
370	4
371	5
372	4
373	9
374	2
375	4
376	7
377	1
378	8
379	5
380	1
381	3
382	7
383	1
384	3
385	4
386	2
387	1
388	6
389	7
390	5
391	5
392	8
393	2
394	6
395	3
396	1
397	6
398	7
399	4
400	3
401	9
TIME_WINDOW_SECTION
1	0	3000
2	985	1686
3	1652	2877
4	194	1334
5	557	2410
6	935	2297
7	0	1738
8	0	1318
9	1174	2335
10	917	1675
11	864	2757
12	1254	1798
13	169	1460
14	1154	1864
15	1197	2837
16	1008	2912
17	21	1219
18	954	2394
19	1302	1974
20	354	1803
21	1324	2818
22	844	2025
23	579	1358
24	968	2426
25	46	1923
26	425	2368
27	1214	1801
28	602	2493
29	1677	2105
30	0	1494
31	949	1305
32	816	1658
33	951	1580
34	874	2665
35	7	1913
36	1024	1433
37	914	2530
38	463	947
39	2079	2323
40	255	1726
41	869	2796
42	1477	2377
43	710	2551
44	934	2537
45	506	1437
46	324	860
47	641	2248
48	601	938
49	558	2460
50	1683	1951
51	1591	2569
52	1547	1999
53	1348	2630
54	796	2221
55	600	839
56	327	1019
57	197	1886
58	344	1770
59	886	2603
60	1601	2163
61	1710	2396
62	489	1345
63	531	1648
64	1286	2343
65	187	1648
66	667	2005
67	941	1911
68	569	2452
69	703	1164
70	581	1536
71	268	2178
72	1060	2023
73	141	1411
74	1272	2284
75	1192	2095
76	685	2285
77	689	2665
78	1420	1980
79	1016	1838
80	839	2284
81	746	2577
82	451	2099
83	2010	2847
84	1122	1689
85	1963	2366
86	1193	1626
87	649	2318
88	0	1344
89	0	1011
90	542	1424
91	822	2562
92	0	1400
93	511	2463
94	2386	2838
95	1306	1894
96	402	1781
97	206	1257
98	1496	2652
99	1612	2692
100	1222	1752
101	752	2291
102	367	824
103	1815	3000
104	1501	2173
105	1733	2441
106	962	1485
107	1390	1877
108	766	2017
109	1612	2875
110	510	1795
111	903	2002
112	0	970
113	1511	2792
114	1300	1574
115	1345	2038
116	881	1751
117	67	1843
118	757	1391
119	1281	2994
120	1020	2511
121	1378	2929
122	1030	2272
123	1047	1743
124	871	2037
125	13	1857
126	648	1463
127	1215	1686
128	1203	2281
129	1673	2294
130	899	1304
131	1508	3000
132	474	2347
133	976	1586
134	344	1866
135	700	1507
136	0	1686
137	1845	2245
138	1670	1880
139	752	2037
140	1515	2176
141	0	1802
142	1450	2334
143	0	1729
144	742	1086
145	165	798
146	851	1446
147	201	1727
148	1634	3000
149	0	870
150	569	1173
151	1130	1941
152	1124	2369
153	1575	2172
154	229	785
155	694	2018
156	1420	2185
157	1130	1884
158	610	1741
159	706	2188
160	679	2359
161	1532	2625
162	811	2533
163	1144	1796
164	411	2073
165	1115	1869
166	2117	2666
167	235	1466
168	719	981
169	744	2676
170	978	2412
171	583	965
172	1631	2061
173	631	2119
174	405	1516
175	820	1499
176	1678	2008
177	691	1272
178	1318	3000
179	0	1436
180	1622	2244
181	1038	2674
182	442	2060
183	600	2312
184	843	2377
185	1188	1799
186	632	2628
187	501	1481
188	1526	2505
189	458	2377
190	0	1570
191	1036	1845
192	366	2342
193	645	2597
194	889	2395
195	1072	2041
196	1099	2187
197	0	1071
198	440	1470
199	1523	2835
200	785	2682
201	1766	2359
202	587	2399
203	1119	1568
204	24	1103
205	1003	1793
206	1522	3000
207	596	2376
208	1627	2775
209	798	2126
210	175	2165
211	405	1451
212	321	1953
213	343	1048
214	1378	2335
215	162	1290
216	1251	1826
217	778	2386
218	566	1888
219	692	2136
220	740	2003
221	1723	3000
222	1818	2166
223	1727	3000
224	378	2159
225	1018	1440
226	519	2502
227	0	1190
228	1641	2955
229	861	2738
230	732	1069
231	1485	1857
232	1064	1360
233	841	2506
234	1126	1396
235	1786	2494
236	1338	2440
237	1121	1371
238	700	1125
239	1151	2337
240	592	2288
241	1208	2134
242	677	2629
243	1089	2202
244	0	1673
245	511	1952
246	487	1949
247	1445	3000
248	1168	1772
249	1435	1958
250	1024	1515
251	2007	2298
252	44	1678
253	612	1086
254	545	2145
255	1434	3000
256	1019	1869
257	1379	2051
258	1093	2898
259	1082	2782
260	1962	2714
261	1043	1533
262	1071	2439
263	1434	2573
264	608	2425
265	668	1251
266	1580	2040
267	542	1048
268	1255	2379
269	352	956
270	630	1902
271	1555	2684
272	1698	2645
273	1263	2073
274	1307	2284
275	1129	2493
276	110	1724
277	1677	2159
278	191	1906
279	976	2072
280	0	1271
281	1140	1400
282	1064	1644
283	1243	2030
284	121	1034
285	0	1610
286	0	859
287	1689	2108
288	1628	2705
289	818	1798
290	473	1002
291	707	2249
292	1629	2992
293	1183	2420
294	1295	2522
295	665	1378
296	731	2071
297	932	1724
298	1959	2675
299	0	1730
300	78	1531
301	762	1590
302	105	872
303	1233	2595
304	1437	3000
305	843	1895
306	1537	2200
307	135	1840
308	1815	2227
309	422	1596
310	1512	1866
311	1624	2121
312	432	2275
313	273	1378
314	1004	2555
315	135	2133
316	2	999
317	1365	3000
318	857	2461
319	2422	3000
320	1466	1878
321	637	2028
322	678	2677
323	955	2158
324	996	1507
325	1824	2447
326	462	2460
327	1	1974
328	544	2307
329	1345	2573
330	733	1698
331	1069	2641
332	1081	1470
333	1479	2378
334	817	1722
335	856	1599
336	1256	2573
337	1200	2119
338	206	1711
339	860	2591
340	235	1599
341	1151	1868
342	133	1982
343	790	1573
344	1044	2996
345	0	1181
346	195	1328
347	1011	2766
348	1169	2343
349	655	2401
350	2353	2937
351	956	1704
352	1324	1994
353	0	1072
354	1654	2136
355	0	1430
356	1308	1663
357	1366	2346
358	2161	2761
359	1012	1710
360	0	1635
361	590	1682
362	51	1985
363	708	1650
364	1042	2654
365	563	1921
366	159	2017
367	689	1828
368	1459	2057
369	1052	2017
370	484	1345
371	931	2684
372	1070	1405
373	589	1807
374	1691	2128
375	1037	2228
376	1021	2585
377	0	1015
378	1346	2437
379	222	2051
380	407	1977
381	1254	2375
382	200	1259
383	185	1646
384	1625	3000
385	0	1267
386	2108	2809
387	216	1631
388	1531	3000
389	996	2956
390	840	1198
391	806	2364
392	139	1186
393	1070	2187
394	669	2352
395	1222	2768
396	260	989
397	1494	3000
398	704	1424
399	556	1271
400	876	2085
401	689	1374
BACKHAUL_SECTION
14	23	24	25	29	36	41	44	48	50	58	59	62	67	70	79	86	91	98	103	113	120	121	122	128	143	160	162	163	167	174	175	177	178	185	190	193	194	196	198	199	200	205	208	211	214	222	223	225	234	238	240	243	252	254	256	258	268	273	274	294	295	296	297	304	310	313	315	319	342	347	350	351	360	361	365	378	382	389	395	-1
DEPOT_SECTION
1
-1
EOF
