NAME : n101-0023
COMMENT : "Generated by pyvrp_manuel (OVRPTW)"
TYPE : OVRPTW
DIMENSION : 101
EDGE_WEIGHT_TYPE : EUC_2D
CAPACITY : 50
VEHICLES : 100
OPEN_ROUTE : YES
SERVICE_TIME : 200
NODE_COORD_SECTION
1	252	544
2	42	628
3	818	805
4	277	567
5	322	698
6	318	227
7	831	20
8	565	973
9	38	788
10	814	939
11	370	111
12	670	544
13	878	488
14	66	71
15	771	969
16	236	152
17	157	720
18	250	973
19	683	114
20	766	841
21	923	754
22	93	409
23	412	418
24	319	794
25	756	595
26	852	112
27	194	721
28	589	770
29	663	821
30	462	547
31	515	547
32	525	390
33	643	580
34	474	808
35	34	206
36	303	299
37	667	701
38	47	906
39	116	514
40	714	990
41	480	631
42	625	135
43	196	702
44	647	359
45	112	124
46	423	340
47	810	235
48	727	570
49	471	641
50	582	869
51	634	698
52	475	714
53	941	537
54	598	579
55	719	429
56	969	555
57	598	720
58	245	465
59	114	505
60	945	589
61	899	380
62	158	621
63	241	732
64	221	741
65	81	467
66	172	419
67	301	385
68	128	918
69	929	662
70	801	582
71	48	751
72	290	919
73	157	401
74	761	968
75	809	395
76	157	349
77	732	630
78	288	264
79	724	791
80	269	365
81	511	188
82	775	290
83	80	642
84	752	670
85	652	281
86	764	980
87	768	739
88	206	996
89	977	639
90	510	580
91	63	720
92	150	891
93	387	98
94	566	70
95	191	213
96	56	209
97	562	990
98	462	513
99	258	14
100	120	818
101	815	84
DEMAND_SECTION
1	0
2	3
3	1
4	6
5	5
6	2
7	5
8	3
9	6
10	1
11	7
12	8
13	3
14	3
15	9
16	1
17	6
18	6
19	2
20	3
21	9
22	1
23	6
24	5
25	4
26	1
27	9
28	8
29	9
30	7
31	5
32	2
33	6
34	6
35	3
36	5
37	2
38	8
39	2
40	5
41	9
42	1
43	4
44	7
45	5
46	7
47	2
48	2
49	4
50	4
51	5
52	1
53	2
54	5
55	4
56	9
57	9
58	1
59	5
60	1
61	6
62	8
63	2
64	4
65	2
66	9
67	1
68	5
69	5
70	4
71	8
72	4
73	1
74	1
75	1
76	8
77	9
78	7
79	2
80	8
81	1
82	1
83	1
84	7
85	8
86	4
87	1
88	5
89	9
90	8
91	8
92	3
93	5
94	3
95	7
96	1
97	4
98	1
99	7
100	1
101	3
TIME_WINDOW_SECTION
1	0	3000
2	770	1789
3	0	1572
4	135	1397
5	0	1788
6	2044	2652
7	487	1284
8	203	1608
9	1657	3000
10	534	2433
11	1620	1922
12	1061	1656
13	530	1008
14	388	1014
15	244	1544
16	940	2081
17	423	1163
18	1684	2458
19	1001	1746
20	651	2018
21	532	887
22	0	849
23	204	1485
24	1668	2301
25	462	1307
26	917	2277
27	1273	2058
28	1247	1762
29	1087	1549
30	0	1946
31	1185	2955
32	720	1138
33	133	1454
34	877	1337
35	0	1025
36	608	2305
37	348	1708
38	307	654
39	369	1448
40	0	1623
41	1339	1864
42	316	970
43	1343	1785
44	1053	1661
45	389	2113
46	1530	3000
47	1016	2315
48	1147	1456
49	1942	2287
50	901	2148
51	0	1498
52	979	1696
53	1142	2287
54	1207	1604
55	1626	2095
56	413	1068
57	1573	2540
58	34	1117
59	1103	2455
60	1120	2061
61	2004	2230
62	0	1156
63	2407	2708
64	1831	2863
65	0	1762
66	0	1307
67	1657	2073
68	447	2077
69	1205	1608
70	1006	2734
71	793	1551
72	1424	2190
73	630	1736
74	720	1400
75	898	1295
76	1100	2470
77	337	2169
78	1087	2291
79	509	1413
80	1077	1632
81	1234	1872
82	838	1963
83	1281	1965
84	956	2584
85	700	1186
86	780	1579
87	68	1696
88	1567	1931
89	51	1415
90	582	1518
91	337	1152
92	1663	3000
93	107	1584
94	1137	2555
95	1634	2897
96	461	1655
97	412	2038
98	0	1190
99	515	2283
100	1870	2591
101	316	1785
DEPOT_SECTION
1
-1
EOF
