NAME : n101-0014
COMMENT : "Generated by pyvrp_manuel (OVRPTW)"
TYPE : OVRPTW
DIMENSION : 101
EDGE_WEIGHT_TYPE : EUC_2D
CAPACITY : 50
VEHICLES : 100
OPEN_ROUTE : YES
SERVICE_TIME : 200
NODE_COORD_SECTION
1	389	868
2	363	596
3	575	339
4	549	141
5	693	516
6	324	229
7	287	651
8	983	959
9	402	86
10	880	317
11	627	920
12	125	88
13	352	969
14	555	120
15	928	739
16	273	318
17	653	506
18	299	101
19	237	469
20	830	350
21	887	47
22	456	445
23	411	3
24	55	124
25	30	508
26	814	787
27	586	831
28	334	721
29	419	940
30	180	359
31	71	498
32	334	197
33	785	275
34	50	123
35	527	782
36	512	758
37	59	318
38	229	377
39	99	293
40	954	135
41	115	695
42	244	575
43	708	272
44	975	404
45	16	944
46	761	966
47	775	15
48	327	133
49	170	617
50	821	251
51	366	290
52	758	320
53	799	486
54	519	197
55	226	552
56	573	631
57	199	784
58	461	9
59	966	153
60	868	413
61	783	61
62	634	16
63	841	530
64	17	945
65	939	14
66	667	298
67	13	261
68	480	913
69	493	705
70	23	665
71	24	610
72	516	691
73	315	988
74	569	111
75	653	773
76	870	485
77	473	47
78	684	187
79	404	915
80	91	570
81	489	695
82	376	898
83	755	190
84	893	948
85	462	948
86	931	474
87	458	895
88	540	736
89	273	103
90	709	907
91	97	894
92	633	500
93	799	703
94	838	833
95	340	717
96	780	46
97	357	663
98	438	586
99	196	8
100	193	41
101	973	222
DEMAND_SECTION
1	0
2	5
3	9
4	2
5	2
6	6
7	2
8	5
9	1
10	8
11	6
12	6
13	7
14	1
15	5
16	6
17	7
18	6
19	3
20	5
21	7
22	1
23	5
24	4
25	4
26	9
27	1
28	2
29	5
30	4
31	4
32	3
33	3
34	2
35	9
36	9
37	7
38	1
39	9
40	9
41	7
42	7
43	4
44	4
45	9
46	5
47	3
48	8
49	8
50	3
51	1
52	9
53	8
54	3
55	8
56	2
57	6
58	8
59	9
60	2
61	2
62	3
63	9
64	7
65	2
66	5
67	6
68	2
69	7
70	9
71	2
72	5
73	8
74	3
75	7
76	7
77	8
78	5
79	4
80	5
81	8
82	1
83	5
84	7
85	3
86	5
87	7
88	1
89	7
90	8
91	1
92	6
93	3
94	6
95	4
96	5
97	9
98	3
99	1
100	9
101	8
TIME_WINDOW_SECTION
1	0	3000
2	1430	2233
3	810	2035
4	314	1926
5	662	2455
6	249	1496
7	213	497
8	387	1463
9	448	1355
10	683	1284
11	1268	3000
12	1108	2043
13	2304	2987
14	154	1610
15	68	1204
16	376	1172
17	416	1092
18	346	1922
19	1962	2666
20	273	1956
21	1127	2464
22	1316	2796
23	346	1766
24	284	1689
25	1588	2113
26	0	1901
27	815	2349
28	1680	2131
29	2308	3000
30	628	2140
31	1345	2362
32	432	1526
33	1475	1844
34	1042	2102
35	1565	2318
36	2012	2982
37	638	2606
38	1840	2700
39	1096	1623
40	1121	1646
41	966	2616
42	1613	3000
43	1120	1938
44	866	2759
45	821	2604
46	1505	2780
47	557	1842
48	1740	2344
49	751	2737
50	956	1324
51	14	1723
52	1552	2243
53	1706	2722
54	471	2013
55	0	1633
56	1363	1917
57	240	1090
58	154	1663
59	396	1538
60	498	1965
61	765	1998
62	653	2614
63	0	1842
64	1550	2803
65	759	1755
66	892	2067
67	701	2557
68	2328	2986
69	1374	2863
70	344	758
71	761	1873
72	1334	3000
73	0	1279
74	806	1513
75	0	1412
76	629	1259
77	0	1819
78	1036	1715
79	798	1293
80	1560	2476
81	2184	2600
82	2101	2684
83	699	1468
84	1442	1878
85	543	1538
86	1390	2076
87	1037	2533
88	0	1427
89	289	2052
90	1811	2504
91	1305	2948
92	1927	2660
93	866	1407
94	381	1987
95	166	1970
96	659	1552
97	0	616
98	1198	1455
99	381	1460
100	191	1739
101	868	2315
DEPOT_SECTION
1
-1
EOF
