NAME : n101-0012
COMMENT : "Generated by pyvrp_manuel (OVRPTW)"
TYPE : OVRPTW
DIMENSION : 101
EDGE_WEIGHT_TYPE : EUC_2D
CAPACITY : 50
VEHICLES : 100
OPEN_ROUTE : YES
SERVICE_TIME : 200
NODE_COORD_SECTION
1	921	400
2	664	622
3	708	558
4	379	207
5	674	122
6	998	687
7	362	14
8	199	704
9	542	335
10	178	56
11	732	986
12	320	615
13	966	622
14	299	535
15	975	721
16	889	628
17	283	789
18	570	895
19	501	918
20	73	1
21	332	774
22	177	452
23	304	320
24	792	872
25	32	853
26	904	247
27	624	682
28	99	50
29	352	579
30	504	127
31	309	26
32	310	371
33	627	882
34	598	7
35	252	491
36	194	788
37	266	632
38	170	677
39	809	114
40	772	994
41	484	291
42	750	881
43	270	369
44	478	448
45	670	533
46	937	384
47	299	833
48	873	355
49	534	869
50	616	145
51	766	230
52	771	896
53	521	430
54	531	591
55	600	760
56	974	426
57	46	990
58	496	492
59	550	203
60	776	914
61	692	521
62	651	905
63	911	618
64	699	212
65	603	212
66	540	911
67	523	357
68	805	233
69	273	200
70	665	902
71	353	380
72	423	190
73	501	413
74	369	527
75	327	363
76	739	237
77	306	42
78	446	695
79	107	494
80	513	415
81	731	670
82	756	542
83	577	884
84	553	534
85	772	420
86	39	184
87	80	804
88	18	594
89	838	948
90	870	101
91	45	607
92	104	389
93	900	831
94	890	819
95	85	148
96	342	522
97	39	777
98	19	304
99	372	105
100	4	326
101	236	30
DEMAND_SECTION
1	0
2	5
3	6
4	5
5	2
6	7
7	2
8	9
9	2
10	9
11	2
12	9
13	5
14	5
15	8
16	4
17	4
18	3
19	6
20	9
21	3
22	5
23	8
24	4
25	3
26	3
27	4
28	2
29	7
30	5
31	1
32	3
33	6
34	9
35	9
36	7
37	2
38	6
39	9
40	3
41	1
42	1
43	3
44	3
45	9
46	5
47	1
48	1
49	9
50	1
51	5
52	6
53	9
54	7
55	6
56	2
57	9
58	2
59	1
60	3
61	1
62	6
63	9
64	1
65	1
66	5
67	6
68	8
69	7
70	2
71	3
72	5
73	8
74	1
75	2
76	2
77	3
78	5
79	3
80	3
81	2
82	6
83	4
84	4
85	5
86	7
87	8
88	1
89	9
90	7
91	5
92	4
93	8
94	1
95	8
96	5
97	3
98	7
99	9
100	2
101	6
TIME_WINDOW_SECTION
1	0	3000
2	2128	2735
3	155	1472
4	736	1814
5	50	1007
6	1350	2123
7	1594	2346
8	808	1600
9	1209	1545
10	1435	1876
11	1958	2410
12	670	2167
13	1668	2645
14	1463	2283
15	885	1783
16	812	2398
17	1404	1664
18	1506	2538
19	547	1628
20	411	2007
21	954	1972
22	295	1566
23	0	1616
24	370	1417
25	718	2311
26	1346	2742
27	1351	2818
28	986	1382
29	839	1885
30	180	1146
31	621	1719
32	1190	2646
33	971	1942
34	636	2538
35	0	1601
36	271	1713
37	1566	2200
38	1149	2120
39	1509	2849
40	0	1672
41	836	2004
42	1015	1705
43	1366	2747
44	1499	2590
45	92	522
46	0	1607
47	656	1712
48	552	2079
49	187	1935
50	425	1317
51	0	1149
52	0	1635
53	427	740
54	1338	3000
55	249	873
56	642	1791
57	1057	2305
58	1502	2867
59	0	1370
60	411	1646
61	756	1369
62	52	1260
63	1688	2075
64	388	1878
65	704	1658
66	1565	1831
67	1096	2927
68	1852	2646
69	427	1154
70	1653	2082
71	1015	1696
72	1311	3000
73	1778	2330
74	615	2474
75	1494	2268
76	667	1717
77	1838	2125
78	906	1594
79	1077	1768
80	852	2756
81	1990	2558
82	1477	3000
83	1038	1383
84	1298	1847
85	153	1258
86	581	2206
87	917	2218
88	1296	2177
89	467	1874
90	0	1371
91	693	2435
92	887	1555
93	764	1417
94	911	1532
95	814	2364
96	6	1345
97	398	2375
98	806	1542
99	1002	1924
100	201	2186
101	475	1083
DEPOT_SECTION
1
-1
EOF
