NAME : n101-0031
COMMENT : "Generated by pyvrp_manuel (OVRPTW)"
TYPE : OVRPTW
DIMENSION : 101
EDGE_WEIGHT_TYPE : EUC_2D
CAPACITY : 50
VEHICLES : 100
OPEN_ROUTE : YES
SERVICE_TIME : 200
NODE_COORD_SECTION
1	763	635
2	427	351
3	737	613
4	36	34
5	690	83
6	293	760
7	698	675
8	570	323
9	974	818
10	978	616
11	368	539
12	768	526
13	494	614
14	199	698
15	864	612
16	19	219
17	287	109
18	263	539
19	988	571
20	699	640
21	822	694
22	162	650
23	920	980
24	836	172
25	202	699
26	891	216
27	893	343
28	828	510
29	748	10
30	266	144
31	892	23
32	837	386
33	735	825
34	819	192
35	771	119
36	367	83
37	693	26
38	928	355
39	332	162
40	689	411
41	393	613
42	90	741
43	393	562
44	558	809
45	560	640
46	11	502
47	789	686
48	454	465
49	851	658
50	241	116
51	596	965
52	953	90
53	507	18
54	231	93
55	405	933
56	706	552
57	607	109
58	504	862
59	604	418
60	954	120
61	256	361
62	913	831
63	83	923
64	66	14
65	314	23
66	815	574
67	729	383
68	952	93
69	268	111
70	369	34
71	188	815
72	678	80
73	640	597
74	862	939
75	626	335
76	669	106
77	643	316
78	312	653
79	257	232
80	136	323
81	826	907
82	806	326
83	269	412
84	250	759
85	443	214
86	569	516
87	575	742
88	656	674
89	675	132
90	731	379
91	101	369
92	390	424
93	798	308
94	212	232
95	230	838
96	757	646
97	804	460
98	131	988
99	131	961
100	862	583
101	910	846
DEMAND_SECTION
1	0
2	9
3	4
4	5
5	3
6	6
7	8
8	4
9	4
10	9
11	2
12	9
13	7
14	3
15	2
16	4
17	9
18	8
19	7
20	1
21	2
22	2
23	4
24	5
25	1
26	2
27	9
28	6
29	1
30	2
31	7
32	2
33	5
34	3
35	1
36	4
37	4
38	5
39	2
40	9
41	6
42	4
43	8
44	2
45	2
46	4
47	6
48	4
49	5
50	3
51	9
52	1
53	8
54	5
55	9
56	1
57	2
58	6
59	7
60	2
61	7
62	9
63	2
64	1
65	3
66	9
67	8
68	2
69	9
70	4
71	3
72	3
73	3
74	2
75	3
76	6
77	4
78	9
79	5
80	1
81	7
82	4
83	4
84	6
85	1
86	6
87	8
88	7
89	5
90	5
91	7
92	4
93	8
94	2
95	2
96	5
97	5
98	2
99	5
100	4
101	5
TIME_WINDOW_SECTION
1	0	3000
2	0	1250
3	818	2440
4	725	1971
5	1712	2276
6	1381	2139
7	696	2492
8	855	1479
9	616	1269
10	283	2159
11	1752	2744
12	1301	2997
13	742	2597
14	971	1916
15	1747	3000
16	1029	1371
17	441	1992
18	559	1448
19	1428	2729
20	572	2251
21	748	2107
22	641	1454
23	1454	2259
24	1484	2735
25	0	1661
26	0	1227
27	1655	2390
28	0	1392
29	846	1565
30	1431	1707
31	0	1657
32	1888	2353
33	1568	3000
34	244	1214
35	1464	2611
36	1842	2246
37	1299	2178
38	1359	2667
39	351	1491
40	54	997
41	189	1612
42	291	1276
43	1424	3000
44	1684	2940
45	755	1874
46	1484	2287
47	0	1212
48	2098	2481
49	411	1261
50	104	1513
51	396	2046
52	1388	2772
53	1292	2750
54	743	1521
55	1389	2462
56	0	689
57	0	1609
58	776	1708
59	803	1277
60	1763	2085
61	0	1451
62	118	1069
63	1140	2061
64	1296	1674
65	1090	2380
66	536	804
67	0	1074
68	0	1697
69	1550	1838
70	832	2021
71	610	2121
72	451	2206
73	1969	2212
74	860	2281
75	452	2069
76	1517	1752
77	1575	2770
78	1946	2729
79	1497	2593
80	931	1464
81	996	2729
82	448	1016
83	1032	1276
84	1015	2668
85	1588	2048
86	0	1365
87	533	1067
88	995	1284
89	0	1518
90	1123	2795
91	130	1885
92	481	1007
93	1230	2975
94	1259	2413
95	1589	1861
96	656	1968
97	1623	2120
98	86	2053
99	1901	2227
100	1400	2987
101	2065	2744
DEPOT_SECTION
1
-1
EOF
