NAME : n101-0032
COMMENT : "Generated by pyvrp_manuel (OVRPTW)"
TYPE : OVRPTW
DIMENSION : 101
EDGE_WEIGHT_TYPE : EUC_2D
CAPACITY : 50
VEHICLES : 100
OPEN_ROUTE : YES
SERVICE_TIME : 200
NODE_COORD_SECTION
1	304	830
2	90	17
3	569	73
4	677	579
5	390	811
6	752	296
7	904	462
8	492	505
9	339	90
10	898	365
11	155	674
12	665	869
13	330	322
14	764	234
15	479	500
16	613	981
17	989	872
18	80	275
19	69	298
20	947	876
21	429	467
22	447	166
23	3	529
24	963	356
25	783	672
26	77	344
27	727	341
28	11	923
29	697	204
30	22	397
31	1000	155
32	374	837
33	44	505
34	201	887
35	647	224
36	75	182
37	699	581
38	729	671
39	999	138
40	433	340
41	63	354
42	46	649
43	224	825
44	60	356
45	376	962
46	819	941
47	832	150
48	36	153
49	714	906
50	583	679
51	182	654
52	950	386
53	199	661
54	323	662
55	433	360
56	998	230
57	726	805
58	415	639
59	682	349
60	944	978
61	800	9
62	340	742
63	339	689
64	463	287
65	159	750
66	754	954
67	377	301
68	203	969
69	508	20
70	79	744
71	62	6
72	196	506
73	653	58
74	171	854
75	387	964
76	469	804
77	254	691
78	850	171
79	853	933
80	895	925
81	274	918
82	701	468
83	267	84
84	932	394
85	44	993
86	803	950
87	466	780
88	902	540
89	326	788
90	450	32
91	454	697
92	986	349
93	656	0
94	17	758
95	732	624
96	969	638
97	248	79
98	388	772
99	564	836
100	48	872
101	769	44
DEMAND_SECTION
1	0
2	8
3	6
4	4
5	9
6	8
7	3
8	5
9	6
10	2
11	2
12	3
13	7
14	3
15	9
16	1
17	6
18	4
19	1
20	8
21	6
22	3
23	7
24	7
25	9
26	1
27	1
28	2
29	9
30	1
31	2
32	7
33	2
34	2
35	1
36	7
37	1
38	7
39	5
40	2
41	2
42	9
43	4
44	8
45	4
46	1
47	4
48	5
49	6
50	1
51	1
52	1
53	1
54	8
55	4
56	9
57	6
58	6
59	4
60	2
61	6
62	4
63	5
64	3
65	9
66	1
67	4
68	9
69	2
70	1
71	9
72	2
73	3
74	7
75	2
76	3
77	3
78	2
79	8
80	9
81	3
82	3
83	4
84	6
85	8
86	3
87	9
88	6
89	2
90	9
91	8
92	2
93	2
94	8
95	7
96	3
97	4
98	9
99	5
100	6
101	3
TIME_WINDOW_SECTION
1	0	3000
2	988	2725
3	17	2016
4	237	1356
5	0	999
6	1470	2570
7	452	1034
8	772	985
9	1453	2016
10	462	2074
11	1888	3000
12	301	631
13	212	1016
14	1086	2295
15	1256	1789
16	374	1512
17	532	1491
18	691	2115
19	669	2038
20	794	1019
21	303	1707
22	944	1457
23	1068	2224
24	932	1288
25	1123	2530
26	975	2457
27	1955	2217
28	1428	2384
29	101	1893
30	657	1169
31	1375	1922
32	1638	2023
33	723	2024
34	0	1730
35	267	1554
36	1177	2699
37	0	1568
38	553	902
39	1051	2102
40	1795	2312
41	1470	2958
42	861	2093
43	336	606
44	1509	2754
45	629	1305
46	1715	2377
47	1231	1904
48	817	2810
49	36	2018
50	518	1238
51	70	616
52	1622	1885
53	1186	2079
54	142	1979
55	171	893
56	733	1355
57	701	1644
58	57	915
59	1035	1808
60	249	1759
61	697	2437
62	388	1549
63	32	1865
64	770	1435
65	0	798
66	0	1670
67	1461	2854
68	1532	2331
69	444	2277
70	0	883
71	804	1266
72	0	1363
73	842	2349
74	1193	3000
75	2310	2845
76	218	1031
77	721	1587
78	1047	1828
79	678	2031
80	166	1948
81	11	330
82	1680	2150
83	241	1381
84	917	2353
85	871	1185
86	654	1488
87	1300	2179
88	0	1802
89	2052	3000
90	688	1020
91	1274	2433
92	1597	1916
93	1122	2205
94	0	1167
95	180	2128
96	365	1466
97	676	1373
98	1333	1620
99	0	1170
100	1594	2769
101	361	1468
DEPOT_SECTION
1
-1
EOF
