NAME : n401-0011
COMMENT : "Generated by pyvrp_manuel (OVRPBTW)"
TYPE : OVRPBTW
DIMENSION : 401
EDGE_WEIGHT_TYPE : EUC_2D
CAPACITY : 100
VEHICLES : 400
OPEN_ROUTE : YES
SERVICE_TIME : 200
NODE_COORD_SECTION
1	682	915
2	134	175
3	212	58
4	564	71
5	360	815
6	114	840
7	995	424
8	440	25
9	964	901
10	446	798
11	60	162
12	970	4
13	447	233
14	28	582
15	282	599
16	313	666
17	566	3
18	819	809
19	117	649
20	263	843
21	260	814
22	183	231
23	704	636
24	272	868
25	595	739
26	204	621
27	621	791
28	961	817
29	991	281
30	88	589
31	491	426
32	97	483
33	515	806
34	740	585
35	852	446
36	902	45
37	485	276
38	821	360
39	162	416
40	500	837
41	775	48
42	289	257
43	474	722
44	427	955
45	555	777
46	380	790
47	696	519
48	483	722
49	571	185
50	345	172
51	619	875
52	213	668
53	114	706
54	31	304
55	494	415
56	781	301
57	666	720
58	637	15
59	223	377
60	492	692
61	852	603
62	158	3
63	948	502
64	56	363
65	692	484
66	830	414
67	563	969
68	56	550
69	93	163
70	32	745
71	402	682
72	557	663
73	80	323
74	363	137
75	713	784
76	319	158
77	240	34
78	175	362
79	582	260
80	90	753
81	900	524
82	429	279
83	663	540
84	271	843
85	795	869
86	845	203
87	958	490
88	40	817
89	178	265
90	597	855
91	580	72
92	160	685
93	363	637
94	936	174
95	68	332
96	461	332
97	988	201
98	790	694
99	960	19
100	865	341
101	324	517
102	839	756
103	210	619
104	480	665
105	500	376
106	731	927
107	766	335
108	507	595
109	209	924
110	764	717
111	963	434
112	877	441
113	903	199
114	11	758
115	672	26
116	717	393
117	703	954
118	904	518
119	746	37
120	537	662
121	756	681
122	835	535
123	663	9
124	260	728
125	673	713
126	702	78
127	665	350
128	419	461
129	922	948
130	748	305
131	648	672
132	883	539
133	29	701
134	102	565
135	827	706
136	973	982
137	43	512
138	644	401
139	242	982
140	200	38
141	43	228
142	553	837
143	469	107
144	871	463
145	320	485
146	718	438
147	697	709
148	171	950
149	831	476
150	822	362
151	393	709
152	129	379
153	167	457
154	303	335
155	391	885
156	623	17
157	154	461
158	665	811
159	957	163
160	972	836
161	102	89
162	110	510
163	392	11
164	358	813
165	464	101
166	172	687
167	656	283
168	91	712
169	233	62
170	958	701
171	415	573
172	906	56
173	401	323
174	14	924
175	27	299
176	754	953
177	368	914
178	490	38
179	34	268
180	497	906
181	286	423
182	842	377
183	717	458
184	305	176
185	991	231
186	552	674
187	593	460
188	403	290
189	673	354
190	686	758
191	677	265
192	156	363
193	660	554
194	989	838
195	266	859
196	215	331
197	871	132
198	361	89
199	732	858
200	940	326
201	130	764
202	177	333
203	89	890
204	450	567
205	529	571
206	281	990
207	47	435
208	209	160
209	769	867
210	737	650
211	834	768
212	355	288
213	648	814
214	834	502
215	1000	141
216	707	928
217	531	802
218	939	113
219	825	732
220	763	751
221	799	660
222	777	47
223	2	766
224	998	351
225	884	446
226	751	459
227	743	283
228	89	767
229	290	873
230	568	296
231	981	978
232	241	722
233	643	193
234	563	62
235	538	66
236	928	751
237	896	597
238	287	755
239	720	774
240	423	998
241	181	54
242	634	952
243	577	356
244	74	836
245	8	294
246	778	217
247	173	248
248	739	287
249	386	380
250	771	939
251	531	502
252	449	738
253	861	618
254	809	343
255	475	84
256	717	243
257	423	11
258	543	657
259	802	390
260	524	970
261	506	860
262	990	925
263	727	819
264	956	451
265	901	294
266	342	725
267	199	308
268	527	541
269	525	433
270	659	983
271	332	775
272	622	816
273	908	452
274	396	303
275	361	287
276	377	792
277	650	264
278	783	545
279	520	693
280	220	447
281	881	824
282	782	430
283	550	825
284	587	775
285	753	719
286	735	165
287	61	5
288	892	222
289	107	564
290	404	659
291	369	887
292	26	7
293	931	283
294	623	682
295	578	184
296	554	173
297	922	577
298	861	853
299	713	677
300	782	181
301	877	393
302	886	467
303	732	869
304	595	403
305	704	2
306	449	398
307	117	476
308	616	14
309	910	783
310	993	285
311	146	805
312	970	209
313	207	463
314	925	423
315	21	293
316	214	877
317	134	873
318	687	455
319	374	776
320	217	307
321	941	307
322	551	906
323	108	583
324	514	242
325	904	844
326	467	446
327	811	335
328	783	166
329	89	834
330	841	111
331	389	712
332	767	798
333	850	271
334	607	929
335	90	824
336	626	522
337	995	292
338	362	128
339	921	135
340	947	132
341	787	250
342	939	165
343	176	356
344	98	975
345	685	228
346	122	335
347	575	275
348	791	255
349	649	860
350	146	110
351	22	594
352	893	181
353	433	813
354	888	774
355	660	587
356	537	937
357	518	694
358	464	896
359	4	341
360	21	617
361	386	89
362	117	643
363	875	926
364	843	96
365	916	977
366	524	20
367	138	57
368	581	911
369	821	257
370	282	618
371	232	452
372	645	317
373	679	429
374	960	89
375	922	837
376	52	618
377	436	735
378	861	231
379	216	137
380	863	81
381	189	950
382	758	843
383	931	64
384	376	458
385	962	359
386	467	784
387	760	174
388	66	311
389	660	976
390	725	789
391	654	373
392	417	921
393	607	600
394	793	860
395	643	450
396	279	196
397	250	907
398	898	236
399	922	371
400	374	659
401	94	204
DEMAND_SECTION
1	0
2	6
3	7
4	2
5	3
6	1
7	3
8	6
9	3
10	1
11	4
12	9
13	4
14	2
15	1
16	7
17	5
18	7
19	5
20	2
21	4
22	7
23	3
24	9
25	9
26	3
27	4
28	3
29	2
30	2
31	6
32	7
33	2
34	8
35	7
36	3
37	3
38	7
39	9
40	6
41	7
42	6
43	3
44	9
45	6
46	9
47	9
48	1
49	1
50	5
51	5
52	6
53	3
54	8
55	7
56	2
57	8
58	3
59	1
60	7
61	8
62	4
63	4
64	7
65	2
66	2
67	6
68	2
69	2
70	4
71	7
72	6
73	3
74	2
75	4
76	3
77	2
78	1
79	1
80	6
81	5
82	4
83	9
84	3
85	1
86	5
87	9
88	4
89	8
90	6
91	2
92	4
93	1
94	5
95	2
96	4
97	5
98	9
99	9
100	6
101	1
102	4
103	6
104	9
105	1
106	6
107	6
108	9
109	3
110	1
111	8
112	8
113	1
114	4
115	2
116	1
117	9
118	1
119	7
120	3
121	2
122	4
123	5
124	6
125	2
126	7
127	2
128	4
129	9
130	3
131	7
132	1
133	5
134	5
135	1
136	4
137	4
138	7
139	8
140	7
141	8
142	2
143	7
144	9
145	3
146	6
147	1
148	3
149	6
150	4
151	1
152	6
153	3
154	4
155	4
156	1
157	7
158	7
159	2
160	7
161	6
162	7
163	3
164	1
165	2
166	9
167	1
168	5
169	9
170	3
171	8
172	9
173	1
174	7
175	5
176	1
177	6
178	8
179	2
180	3
181	1
182	9
183	6
184	7
185	7
186	4
187	3
188	5
189	2
190	9
191	7
192	3
193	6
194	2
195	7
196	7
197	1
198	4
199	8
200	1
201	7
202	9
203	3
204	9
205	2
206	4
207	5
208	5
209	2
210	2
211	6
212	7
213	9
214	2
215	1
216	1
217	1
218	3
219	9
220	2
221	1
222	9
223	2
224	7
225	1
226	9
227	9
228	1
229	9
230	4
231	4
232	1
233	8
234	5
235	3
236	2
237	7
238	3
239	4
240	5
241	8
242	3
243	1
244	2
245	7
246	9
247	8
248	8
249	2
250	4
251	3
252	8
253	3
254	9
255	8
256	7
257	4
258	6
259	1
260	5
261	6
262	7
263	6
264	2
265	7
266	6
267	1
268	9
269	9
270	4
271	8
272	6
273	3
274	6
275	1
276	5
277	7
278	3
279	7
280	2
281	5
282	8
283	4
284	8
285	1
286	6
287	3
288	9
289	6
290	1
291	7
292	1
293	2
294	4
295	5
296	7
297	1
298	8
299	5
300	4
301	4
302	4
303	3
304	2
305	4
306	9
307	2
308	9
309	9
310	5
311	7
312	4
313	7
314	6
315	9
316	1
317	8
318	7
319	5
320	9
321	5
322	6
323	6
324	7
325	8
326	4
327	9
328	2
329	2
330	9
331	2
332	5
333	9
334	4
335	2
336	7
337	5
338	6
339	1
340	8
341	7
342	7
343	8
344	3
345	2
346	2
347	6
348	3
349	2
350	2
351	5
352	1
353	4
354	7
355	6
356	6
357	5
358	8
359	6
360	2
361	3
362	3
363	2
364	2
365	2
366	5
367	9
368	3
369	6
370	8
371	2
372	2
373	8
374	1
375	2
376	7
377	9
378	7
379	8
380	8
381	3
382	6
383	5
384	3
385	2
386	7
387	4
388	5
389	6
390	7
391	4
392	8
393	9
394	5
395	2
396	5
397	8
398	4
399	3
400	8
401	5
TIME_WINDOW_SECTION
1	0	3000
2	803	1964
3	1287	2272
4	840	2488
5	1186	2317
6	1119	1961
7	1561	2581
8	1240	1784
9	1120	2545
10	1811	3000
11	832	2499
12	991	2416
13	645	990
14	674	1912
15	1695	2277
16	269	639
17	679	2392
18	964	2772
19	318	1345
20	1340	1579
21	698	1279
22	1172	1736
23	1314	1603
24	207	1036
25	1578	1979
26	335	1283
27	0	1106
28	1498	3000
29	838	2058
30	1148	2879
31	848	1300
32	1415	2419
33	543	2410
34	1492	2988
35	411	1244
36	431	1897
37	546	1706
38	553	1765
39	603	2254
40	1481	3000
41	1062	2554
42	1173	2559
43	338	1197
44	1922	2323
45	1964	2262
46	519	1258
47	1834	2590
48	290	831
49	1265	2579
50	1378	2164
51	694	2482
52	782	2257
53	63	1441
54	865	1993
55	640	1598
56	210	2004
57	1847	2684
58	672	1722
59	1662	2230
60	1593	2791
61	961	1591
62	735	2018
63	1227	1551
64	286	1655
65	1155	1530
66	767	2666
67	0	782
68	1376	2509
69	635	2114
70	0	1587
71	261	2032
72	489	1939
73	1011	2684
74	738	1437
75	1046	2695
76	1549	1783
77	366	1907
78	363	1360
79	319	1188
80	545	1890
81	704	1794
82	1613	1928
83	13	1387
84	751	2224
85	968	2863
86	427	1785
87	0	1258
88	698	2421
89	796	2102
90	770	1960
91	1482	2294
92	1154	2801
93	1062	1293
94	1537	2469
95	930	1869
96	508	2037
97	731	1337
98	1170	2465
99	1042	2055
100	667	2389
101	923	2541
102	1274	1709
103	1037	1762
104	285	770
105	1153	3000
106	456	2192
107	97	1665
108	803	2255
109	1713	2014
110	315	1966
111	61	1168
112	1152	2967
113	512	1633
114	803	2738
115	536	2374
116	2111	2371
117	2165	2698
118	219	1283
119	589	2273
120	1235	1632
121	888	1300
122	200	796
123	567	2208
124	1440	2959
125	222	953
126	1279	2307
127	999	2742
128	887	1964
129	1514	2579
130	0	1605
131	139	982
132	480	759
133	545	2094
134	258	1811
135	1589	2550
136	1851	3000
137	340	1301
138	431	993
139	88	1346
140	629	2225
141	561	2086
142	0	1152
143	1632	2098
144	1390	2180
145	726	1459
146	0	1233
147	1777	2496
148	16	1081
149	1014	2766
150	188	1604
151	1099	2374
152	77	1947
153	81	1599
154	1102	2659
155	1064	2698
156	627	1337
157	191	1309
158	760	1813
159	234	2112
160	662	2067
161	1106	1547
162	802	1288
163	1546	2104
164	706	2292
165	1077	1671
166	1768	2262
167	189	1914
168	672	2394
169	796	2616
170	440	1612
171	547	1782
172	1454	2286
173	1098	1578
174	971	2245
175	791	1086
176	1890	2489
177	235	1059
178	962	2145
179	781	1144
180	1517	2578
181	1974	2197
182	1676	1911
183	1791	2843
184	527	2084
185	1615	1852
186	1077	1452
187	658	2570
188	1540	2095
189	368	1051
190	770	1655
191	375	1355
192	971	1458
193	307	1486
194	0	1211
195	0	1498
196	677	2626
197	205	1833
198	1177	1747
199	0	736
200	1155	2318
201	1337	2848
202	543	2461
203	964	1932
204	1057	2973
205	1118	2934
206	1217	2197
207	831	1934
208	1743	2036
209	201	1745
210	1969	2850
211	0	1183
212	1100	2169
213	1816	2409
214	728	2725
215	0	1854
216	2135	2720
217	341	1924
218	411	1962
219	1284	2555
220	1131	1933
221	1348	2426
222	831	2338
223	845	1127
224	319	1368
225	466	1663
226	1441	2238
227	171	2040
228	40	1904
229	581	2414
230	638	2000
231	0	1190
232	1382	2558
233	900	2859
234	26	1839
235	750	2012
236	1683	2152
237	1856	2331
238	1528	2946
239	2248	2715
240	1837	3000
241	1285	1904
242	439	1815
243	1157	2818
244	0	1462
245	914	1565
246	1029	2090
247	649	1131
248	964	1206
249	309	1518
250	2443	2942
251	291	2202
252	0	1238
253	1212	2658
254	348	1401
255	1295	1652
256	1624	2288
257	1262	1623
258	615	1596
259	0	1552
260	1494	2246
261	106	994
262	227	489
263	927	1673
264	414	2047
265	1041	2509
266	660	2480
267	1179	2254
268	291	1963
269	778	1345
270	665	2414
271	1656	2084
272	692	2040
273	205	1761
274	1654	2377
275	1731	1963
276	787	2587
277	1636	2549
278	1463	2814
279	561	903
280	1194	2342
281	1290	2707
282	1313	3000
283	157	2025
284	687	1914
285	925	2558
286	1632	2327
287	699	2587
288	514	2409
289	885	2521
290	462	2001
291	1481	2453
292	503	2375
293	1218	2042
294	1997	2843
295	1501	2123
296	594	1206
297	673	1837
298	1752	2422
299	1677	2206
300	1526	2542
301	375	1896
302	0	1342
303	2116	3000
304	1580	2954
305	935	1251
306	143	1326
307	1412	1709
308	1263	2446
309	1804	3000
310	242	1536
311	244	2074
312	1592	1964
313	1190	2155
314	1167	2686
315	843	1511
316	523	1425
317	1839	2044
318	1280	1786
319	497	2032
320	0	1829
321	828	1683
322	755	1324
323	642	1857
324	1411	2610
325	0	1283
326	1823	2488
327	463	1773
328	1754	2273
329	1109	2737
330	971	1813
331	618	1510
332	232	445
333	1294	2262
334	680	1256
335	609	970
336	711	976
337	683	1880
338	903	1773
339	572	2553
340	828	1728
341	468	2345
342	0	1802
343	1416	1646
344	1280	1522
345	199	1555
346	1722	1990
347	811	1437
348	1153	2794
349	1669	2846
350	892	2364
351	115	1708
352	1041	1826
353	0	1218
354	58	1329
355	936	2404
356	818	1668
357	822	2353
358	1526	3000
359	263	1678
360	1447	2636
361	993	2807
362	780	1471
363	0	1828
364	1238	2012
365	0	1722
366	703	1542
367	597	2004
368	0	773
369	1317	1859
370	1309	1764
371	1438	2157
372	485	2430
373	1012	2470
374	1343	1712
375	1340	2650
376	1240	2280
377	1183	1800
378	597	2175
379	959	2751
380	555	1679
381	1107	2233
382	2172	3000
383	1551	1847
384	456	1216
385	1776	2278
386	1867	2659
387	1077	2390
388	1330	2097
389	2406	2997
390	1378	2125
391	1054	1855
392	133	690
393	65	2022
394	1966	2174
395	829	2577
396	1275	2391
397	490	1437
398	393	2036
399	447	1325
400	940	1462
401	142	2134
BACKHAUL_SECTION
14	23	24	25	29	36	41	44	48	50	58	59	62	67	70	79	86	91	98	103	113	120	121	122	128	143	160	162	163	167	174	175	177	178	185	190	193	194	196	198	199	200	205	208	211	214	222	223	225	234	238	240	243	252	254	256	258	268	273	274	294	295	296	297	304	310	313	315	319	342	347	350	351	360	361	365	378	382	389	395	-1
DEPOT_SECTION
1
-1
EOF
