NAME : n501-0020
COMMENT : "Generated by pyvrp_manuel (OVRP)"
TYPE : OVRP
DIMENSION : 501
EDGE_WEIGHT_TYPE : EUC_2D
CAPACITY : 100
VEHICLES : 500
OPEN_ROUTE : YES
NODE_COORD_SECTION
1	957	917
2	37	679
3	12	499
4	817	126
5	944	670
6	644	731
7	633	110
8	197	484
9	185	402
10	167	368
11	893	366
12	3	335
13	723	935
14	710	669
15	243	26
16	78	317
17	496	58
18	664	75
19	956	2
20	682	254
21	32	522
22	260	998
23	274	527
24	58	299
25	133	148
26	601	296
27	79	438
28	518	123
29	532	752
30	988	6
31	584	201
32	617	210
33	920	306
34	935	440
35	531	981
36	689	965
37	991	611
38	198	237
39	475	631
40	418	11
41	395	216
42	208	405
43	39	951
44	165	283
45	740	598
46	577	100
47	467	521
48	684	19
49	384	372
50	651	568
51	22	206
52	255	714
53	781	966
54	148	65
55	79	562
56	893	501
57	643	518
58	131	279
59	627	235
60	157	899
61	526	123
62	156	952
63	3	307
64	255	952
65	134	28
66	677	28
67	35	172
68	289	132
69	416	199
70	121	871
71	845	131
72	233	365
73	511	245
74	530	207
75	308	927
76	448	945
77	511	501
78	628	650
79	1	487
80	607	442
81	65	106
82	608	473
83	307	97
84	456	804
85	226	292
86	651	219
87	608	902
88	256	437
89	375	443
90	378	655
91	13	820
92	194	738
93	641	155
94	359	4
95	641	247
96	320	324
97	272	350
98	386	210
99	519	483
100	556	451
101	116	295
102	139	466
103	919	100
104	607	859
105	248	621
106	344	368
107	552	586
108	403	162
109	243	46
110	259	616
111	142	391
112	515	364
113	307	407
114	254	556
115	147	202
116	217	163
117	162	926
118	263	289
119	604	695
120	415	507
121	57	702
122	399	628
123	225	821
124	702	481
125	648	557
126	317	553
127	79	625
128	521	618
129	330	977
130	599	436
131	578	484
132	35	303
133	944	194
134	319	790
135	75	904
136	876	318
137	21	799
138	326	144
139	831	457
140	975	731
141	649	35
142	228	260
143	826	28
144	235	232
145	152	46
146	646	524
147	23	830
148	186	551
149	399	900
150	248	324
151	422	512
152	582	404
153	994	439
154	691	637
155	200	360
156	438	980
157	100	282
158	217	869
159	734	618
160	745	427
161	376	736
162	954	314
163	99	467
164	662	863
165	723	621
166	365	613
167	755	700
168	526	133
169	676	505
170	937	749
171	344	92
172	655	231
173	367	733
174	947	424
175	477	352
176	865	502
177	416	985
178	886	613
179	719	941
180	97	269
181	716	455
182	179	578
183	788	133
184	634	43
185	914	323
186	14	471
187	746	350
188	477	98
189	288	317
190	516	954
191	662	126
192	169	278
193	433	874
194	552	477
195	244	452
196	367	527
197	645	708
198	580	589
199	753	206
200	586	636
201	243	68
202	48	3
203	792	986
204	417	877
205	556	519
206	860	843
207	847	386
208	404	793
209	111	360
210	295	453
211	877	377
212	496	435
213	236	46
214	173	699
215	342	879
216	689	668
217	588	160
218	244	308
219	384	340
220	95	245
221	776	164
222	864	367
223	300	329
224	573	113
225	856	191
226	264	53
227	591	493
228	479	248
229	725	707
230	230	758
231	739	340
232	522	388
233	597	62
234	325	290
235	908	170
236	458	325
237	366	904
238	224	557
239	677	619
240	774	796
241	196	2
242	368	956
243	627	964
244	674	991
245	932	205
246	638	625
247	195	188
248	617	220
249	545	992
250	55	104
251	800	60
252	784	937
253	970	602
254	739	664
255	830	28
256	980	393
257	403	218
258	745	787
259	863	924
260	522	572
261	820	684
262	989	476
263	403	692
264	158	317
265	265	856
266	863	253
267	224	6
268	243	693
269	904	945
270	108	356
271	330	949
272	293	560
273	312	798
274	767	923
275	771	26
276	731	834
277	339	946
278	850	210
279	698	363
280	808	550
281	895	696
282	842	843
283	742	114
284	398	642
285	845	306
286	213	58
287	76	71
288	890	524
289	184	209
290	406	329
291	562	364
292	816	681
293	807	982
294	467	902
295	206	997
296	442	655
297	554	371
298	105	907
299	946	391
300	787	530
301	521	608
302	454	25
303	859	404
304	313	21
305	393	819
306	790	155
307	373	198
308	221	589
309	167	745
310	32	353
311	114	971
312	717	303
313	236	649
314	107	934
315	495	626
316	969	192
317	411	204
318	912	847
319	341	55
320	263	46
321	186	241
322	159	596
323	450	747
324	24	793
325	202	819
326	56	904
327	588	841
328	108	328
329	851	687
330	126	19
331	513	504
332	101	638
333	457	706
334	182	20
335	970	279
336	221	190
337	989	729
338	671	138
339	0	55
340	852	238
341	113	689
342	220	203
343	826	170
344	670	551
345	954	686
346	614	579
347	555	946
348	883	265
349	287	816
350	306	140
351	888	71
352	667	744
353	727	291
354	872	905
355	40	872
356	43	976
357	283	136
358	858	448
359	121	293
360	824	454
361	87	475
362	522	600
363	331	422
364	586	515
365	349	919
366	687	517
367	496	33
368	186	932
369	227	663
370	948	199
371	904	444
372	388	669
373	681	644
374	57	486
375	503	534
376	277	452
377	830	482
378	300	915
379	126	890
380	432	689
381	206	796
382	151	878
383	46	980
384	465	89
385	680	945
386	636	991
387	581	478
388	725	904
389	606	325
390	350	312
391	109	385
392	705	873
393	572	489
394	562	973
395	153	948
396	465	400
397	948	736
398	24	296
399	452	390
400	858	125
401	270	220
402	475	937
403	320	700
404	116	582
405	247	692
406	211	956
407	809	21
408	237	188
409	27	482
410	180	39
411	201	278
412	641	471
413	945	195
414	410	488
415	292	457
416	638	307
417	564	890
418	437	158
419	449	614
420	943	997
421	46	344
422	813	426
423	389	91
424	79	556
425	507	403
426	598	205
427	346	390
428	45	927
429	727	967
430	712	798
431	865	188
432	275	230
433	637	390
434	357	432
435	464	321
436	544	945
437	284	723
438	763	952
439	360	991
440	801	315
441	872	800
442	193	338
443	566	573
444	781	586
445	458	96
446	641	495
447	727	987
448	823	561
449	525	464
450	252	706
451	120	250
452	720	937
453	441	406
454	156	166
455	393	784
456	856	704
457	921	321
458	381	617
459	861	975
460	788	264
461	638	267
462	671	161
463	793	881
464	201	25
465	877	706
466	876	963
467	952	819
468	479	716
469	511	992
470	358	193
471	125	259
472	232	103
473	592	724
474	23	501
475	961	96
476	594	877
477	835	192
478	546	366
479	469	438
480	34	988
481	867	817
482	477	832
483	55	506
484	467	689
485	87	75
486	422	494
487	481	121
488	103	403
489	36	45
490	84	760
491	784	460
492	322	481
493	697	950
494	577	852
495	438	961
496	947	530
497	463	234
498	19	312
499	386	197
500	858	630
501	997	629
DEMAND_SECTION
1	0
2	7
3	1
4	1
5	1
6	6
7	3
8	7
9	3
10	6
11	7
12	7
13	5
14	5
15	6
16	6
17	4
18	7
19	3
20	8
21	8
22	1
23	5
24	1
25	8
26	1
27	2
28	3
29	8
30	1
31	6
32	5
33	3
34	9
35	6
36	7
37	6
38	8
39	3
40	6
41	4
42	6
43	7
44	9
45	5
46	8
47	7
48	2
49	5
50	1
51	1
52	5
53	4
54	9
55	2
56	1
57	6
58	3
59	8
60	8
61	8
62	7
63	3
64	3
65	3
66	1
67	7
68	7
69	6
70	4
71	6
72	5
73	3
74	7
75	7
76	2
77	2
78	3
79	2
80	5
81	8
82	1
83	6
84	9
85	6
86	8
87	4
88	1
89	3
90	8
91	6
92	3
93	2
94	9
95	4
96	3
97	7
98	2
99	9
100	8
101	5
102	3
103	8
104	6
105	8
106	2
107	5
108	9
109	9
110	4
111	5
112	7
113	4
114	8
115	9
116	2
117	6
118	5
119	1
120	9
121	8
122	4
123	2
124	1
125	3
126	3
127	3
128	4
129	1
130	2
131	6
132	1
133	4
134	5
135	5
136	3
137	8
138	7
139	2
140	3
141	5
142	2
143	1
144	9
145	3
146	2
147	9
148	5
149	9
150	1
151	9
152	1
153	6
154	6
155	1
156	1
157	4
158	8
159	8
160	7
161	4
162	5
163	5
164	7
165	3
166	9
167	8
168	4
169	7
170	4
171	7
172	2
173	6
174	2
175	8
176	2
177	4
178	2
179	9
180	8
181	7
182	5
183	7
184	7
185	8
186	1
187	3
188	3
189	1
190	7
191	5
192	1
193	7
194	6
195	8
196	8
197	8
198	4
199	5
200	7
201	9
202	6
203	2
204	2
205	2
206	5
207	1
208	7
209	9
210	6
211	4
212	5
213	7
214	8
215	1
216	9
217	1
218	2
219	7
220	8
221	5
222	1
223	4
224	4
225	5
226	4
227	8
228	3
229	9
230	7
231	4
232	4
233	4
234	2
235	2
236	6
237	9
238	4
239	5
240	5
241	5
242	3
243	2
244	5
245	7
246	4
247	5
248	7
249	7
250	8
251	6
252	8
253	6
254	1
255	4
256	9
257	7
258	2
259	3
260	4
261	6
262	6
263	3
264	2
265	6
266	3
267	7
268	3
269	9
270	7
271	4
272	7
273	5
274	6
275	7
276	6
277	9
278	8
279	5
280	7
281	8
282	9
283	9
284	2
285	1
286	1
287	7
288	1
289	4
290	7
291	8
292	5
293	6
294	2
295	3
296	5
297	6
298	1
299	5
300	5
301	1
302	3
303	6
304	1
305	9
306	7
307	8
308	1
309	5
310	9
311	3
312	4
313	8
314	7
315	9
316	4
317	5
318	6
319	7
320	1
321	1
322	3
323	5
324	2
325	3
326	5
327	1
328	1
329	1
330	6
331	6
332	8
333	1
334	9
335	9
336	3
337	9
338	6
339	4
340	4
341	3
342	7
343	2
344	6
345	9
346	4
347	7
348	6
349	9
350	7
351	1
352	9
353	1
354	7
355	5
356	3
357	3
358	4
359	9
360	9
361	9
362	2
363	8
364	3
365	3
366	1
367	3
368	6
369	1
370	3
371	3
372	6
373	2
374	3
375	8
376	4
377	3
378	4
379	6
380	8
381	4
382	6
383	8
384	5
385	5
386	5
387	9
388	2
389	2
390	7
391	3
392	9
393	7
394	4
395	4
396	1
397	8
398	3
399	6
400	6
401	6
402	4
403	3
404	1
405	8
406	9
407	4
408	9
409	3
410	4
411	5
412	3
413	9
414	5
415	3
416	4
417	6
418	2
419	7
420	3
421	1
422	6
423	1
424	3
425	7
426	2
427	9
428	4
429	2
430	5
431	5
432	7
433	3
434	7
435	2
436	1
437	3
438	1
439	4
440	9
441	3
442	2
443	4
444	7
445	1
446	3
447	4
448	4
449	2
450	5
451	8
452	6
453	4
454	5
455	7
456	2
457	6
458	4
459	6
460	3
461	6
462	6
463	7
464	1
465	1
466	2
467	7
468	9
469	5
470	7
471	9
472	3
473	6
474	5
475	6
476	1
477	9
478	5
479	7
480	8
481	5
482	2
483	7
484	4
485	2
486	2
487	9
488	9
489	3
490	5
491	1
492	1
493	2
494	6
495	9
496	4
497	8
498	4
499	7
500	2
501	1
DEPOT_SECTION
1
-1
EOF
