NAME : n501-0028
COMMENT : "Generated by pyvrp_manuel (OVRP)"
TYPE : OVRP
DIMENSION : 501
EDGE_WEIGHT_TYPE : EUC_2D
CAPACITY : 100
VEHICLES : 500
OPEN_ROUTE : YES
NODE_COORD_SECTION
1	936	394
2	445	6
3	993	579
4	827	784
5	85	691
6	384	237
7	760	504
8	212	35
9	141	580
10	625	805
11	557	131
12	133	884
13	371	435
14	370	12
15	258	328
16	106	137
17	960	771
18	529	212
19	820	836
20	299	265
21	116	999
22	494	244
23	173	518
24	874	209
25	431	128
26	462	196
27	616	361
28	126	372
29	645	74
30	730	629
31	402	679
32	829	876
33	558	774
34	851	863
35	276	175
36	520	3
37	121	788
38	747	614
39	502	687
40	415	872
41	804	633
42	652	973
43	759	107
44	260	258
45	718	132
46	43	672
47	256	904
48	77	450
49	773	240
50	366	353
51	344	49
52	432	619
53	175	763
54	826	846
55	553	985
56	326	938
57	171	612
58	867	965
59	490	339
60	328	180
61	414	589
62	996	654
63	153	741
64	443	629
65	926	822
66	869	9
67	909	725
68	338	733
69	951	209
70	100	459
71	311	810
72	548	770
73	581	492
74	206	838
75	108	282
76	298	299
77	704	811
78	904	244
79	982	68
80	604	216
81	957	685
82	239	725
83	408	414
84	134	571
85	466	428
86	297	840
87	887	124
88	724	613
89	661	364
90	411	187
91	888	398
92	339	327
93	943	804
94	610	68
95	452	247
96	697	373
97	812	976
98	405	397
99	958	880
100	103	891
101	620	213
102	114	296
103	917	190
104	193	864
105	254	859
106	822	818
107	437	448
108	785	800
109	818	745
110	689	252
111	826	22
112	709	987
113	702	352
114	561	856
115	841	782
116	920	205
117	74	148
118	921	376
119	82	720
120	754	174
121	226	303
122	404	409
123	554	557
124	450	653
125	603	760
126	158	109
127	937	547
128	394	696
129	395	825
130	249	855
131	381	279
132	49	265
133	836	827
134	866	75
135	387	142
136	562	980
137	225	877
138	292	732
139	36	841
140	399	240
141	547	452
142	237	41
143	91	157
144	589	506
145	575	467
146	288	248
147	236	565
148	275	191
149	399	859
150	468	201
151	271	258
152	625	74
153	756	623
154	149	863
155	254	616
156	630	510
157	723	487
158	143	373
159	83	592
160	917	772
161	793	334
162	423	708
163	567	330
164	540	185
165	924	526
166	291	333
167	465	366
168	973	456
169	373	830
170	975	724
171	532	145
172	955	774
173	643	12
174	495	796
175	400	489
176	607	128
177	586	189
178	271	818
179	449	870
180	853	4
181	354	311
182	725	556
183	651	873
184	611	337
185	989	820
186	325	1
187	738	541
188	611	763
189	12	455
190	737	858
191	251	74
192	565	10
193	789	625
194	912	484
195	932	9
196	266	801
197	612	816
198	305	185
199	405	536
200	352	936
201	872	530
202	275	811
203	983	570
204	443	943
205	228	956
206	316	23
207	711	224
208	832	483
209	483	476
210	699	624
211	426	637
212	498	815
213	128	540
214	163	302
215	426	456
216	677	105
217	848	409
218	589	783
219	648	968
220	763	541
221	347	544
222	946	548
223	723	997
224	432	425
225	421	928
226	275	779
227	992	225
228	93	979
229	170	554
230	379	1
231	71	361
232	974	971
233	770	27
234	588	14
235	349	991
236	494	262
237	267	713
238	24	16
239	651	772
240	552	32
241	869	93
242	497	571
243	711	613
244	334	965
245	279	430
246	220	441
247	267	569
248	997	534
249	732	376
250	720	108
251	862	853
252	209	709
253	268	238
254	640	856
255	199	519
256	745	422
257	577	314
258	94	156
259	909	205
260	622	867
261	634	240
262	15	523
263	372	799
264	538	484
265	536	950
266	23	828
267	492	160
268	300	265
269	61	895
270	487	858
271	93	906
272	195	808
273	21	345
274	108	128
275	175	801
276	478	639
277	91	249
278	301	941
279	976	791
280	659	879
281	676	828
282	181	515
283	716	968
284	629	129
285	629	38
286	471	974
287	93	197
288	264	56
289	692	930
290	192	158
291	813	207
292	159	156
293	30	23
294	907	508
295	53	716
296	203	841
297	781	729
298	722	68
299	922	452
300	842	664
301	829	652
302	313	708
303	171	437
304	239	685
305	296	867
306	48	875
307	410	633
308	350	1000
309	852	591
310	103	551
311	377	775
312	566	665
313	555	251
314	345	870
315	578	498
316	510	366
317	47	780
318	556	121
319	609	127
320	371	261
321	916	795
322	990	809
323	845	127
324	792	736
325	795	83
326	579	5
327	175	395
328	332	285
329	906	525
330	889	853
331	512	422
332	996	286
333	457	968
334	792	952
335	590	946
336	257	251
337	953	564
338	841	841
339	942	7
340	0	275
341	63	596
342	414	140
343	272	435
344	80	696
345	125	30
346	628	993
347	297	647
348	230	290
349	324	463
350	339	597
351	204	545
352	165	410
353	36	773
354	668	331
355	220	56
356	943	781
357	845	763
358	389	477
359	700	681
360	697	351
361	914	519
362	400	759
363	642	356
364	675	825
365	854	12
366	128	879
367	377	856
368	530	168
369	355	918
370	511	117
371	820	748
372	866	773
373	153	255
374	389	939
375	919	418
376	54	713
377	475	890
378	851	747
379	574	509
380	360	588
381	986	386
382	944	538
383	116	172
384	880	205
385	887	151
386	690	686
387	497	734
388	890	350
389	93	442
390	609	803
391	757	487
392	731	206
393	841	667
394	207	909
395	354	591
396	658	256
397	291	323
398	409	448
399	208	199
400	129	710
401	295	922
402	914	330
403	117	308
404	836	893
405	807	981
406	421	69
407	215	589
408	754	129
409	170	789
410	901	720
411	572	689
412	486	304
413	295	33
414	802	37
415	729	336
416	264	320
417	0	954
418	673	567
419	981	195
420	446	271
421	889	21
422	197	29
423	380	985
424	573	144
425	939	886
426	898	37
427	987	16
428	677	770
429	7	229
430	581	492
431	678	790
432	414	558
433	538	11
434	286	273
435	3	369
436	692	167
437	554	406
438	178	137
439	858	593
440	8	598
441	743	96
442	789	143
443	189	861
444	463	610
445	902	843
446	348	287
447	691	483
448	837	365
449	32	764
450	623	712
451	818	794
452	696	135
453	784	900
454	393	137
455	491	474
456	108	18
457	174	254
458	973	145
459	242	551
460	86	988
461	37	616
462	144	143
463	562	432
464	82	839
465	940	384
466	475	196
467	354	515
468	246	44
469	307	55
470	611	846
471	772	962
472	675	487
473	643	903
474	443	152
475	799	547
476	688	34
477	100	456
478	132	551
479	523	801
480	137	79
481	628	629
482	76	316
483	780	8
484	497	41
485	833	563
486	52	58
487	241	183
488	504	335
489	969	374
490	813	110
491	635	740
492	804	603
493	106	934
494	882	250
495	476	742
496	176	119
497	115	457
498	585	402
499	642	565
500	383	500
501	510	389
DEMAND_SECTION
1	0
2	8
3	7
4	7
5	4
6	8
7	5
8	5
9	2
10	3
11	2
12	1
13	6
14	8
15	1
16	7
17	1
18	5
19	5
20	3
21	4
22	5
23	2
24	7
25	9
26	6
27	8
28	7
29	9
30	3
31	8
32	3
33	5
34	7
35	8
36	6
37	2
38	6
39	9
40	7
41	4
42	7
43	9
44	7
45	6
46	3
47	4
48	2
49	4
50	6
51	5
52	9
53	4
54	4
55	7
56	3
57	6
58	1
59	9
60	4
61	3
62	3
63	7
64	6
65	3
66	9
67	2
68	7
69	3
70	5
71	9
72	5
73	8
74	6
75	2
76	8
77	3
78	5
79	7
80	6
81	1
82	6
83	1
84	4
85	2
86	9
87	2
88	1
89	5
90	9
91	9
92	9
93	6
94	1
95	4
96	3
97	2
98	1
99	8
100	9
101	2
102	2
103	7
104	6
105	7
106	1
107	5
108	5
109	3
110	1
111	4
112	6
113	6
114	6
115	8
116	5
117	9
118	2
119	9
120	7
121	7
122	3
123	8
124	5
125	6
126	1
127	5
128	8
129	2
130	8
131	4
132	5
133	7
134	7
135	3
136	7
137	4
138	2
139	8
140	7
141	7
142	7
143	7
144	5
145	5
146	6
147	9
148	5
149	4
150	8
151	6
152	9
153	3
154	2
155	8
156	1
157	9
158	2
159	2
160	3
161	4
162	2
163	1
164	6
165	9
166	9
167	5
168	8
169	7
170	6
171	4
172	5
173	5
174	7
175	2
176	5
177	8
178	1
179	4
180	9
181	9
182	3
183	6
184	9
185	3
186	7
187	4
188	2
189	8
190	5
191	9
192	4
193	3
194	9
195	7
196	4
197	4
198	1
199	3
200	9
201	6
202	4
203	2
204	3
205	5
206	2
207	2
208	1
209	1
210	6
211	6
212	1
213	9
214	6
215	8
216	4
217	5
218	1
219	7
220	6
221	8
222	8
223	5
224	6
225	8
226	5
227	1
228	3
229	1
230	5
231	1
232	6
233	7
234	3
235	9
236	8
237	6
238	6
239	8
240	2
241	2
242	2
243	3
244	5
245	3
246	1
247	1
248	6
249	9
250	3
251	5
252	8
253	7
254	9
255	1
256	9
257	7
258	6
259	2
260	6
261	3
262	7
263	5
264	4
265	1
266	6
267	1
268	8
269	8
270	9
271	5
272	2
273	3
274	8
275	1
276	9
277	9
278	2
279	4
280	5
281	1
282	5
283	3
284	4
285	5
286	6
287	1
288	1
289	8
290	7
291	2
292	3
293	5
294	6
295	4
296	6
297	7
298	8
299	5
300	1
301	2
302	6
303	8
304	3
305	2
306	3
307	4
308	2
309	7
310	7
311	4
312	8
313	2
314	9
315	5
316	8
317	1
318	1
319	2
320	9
321	9
322	4
323	5
324	5
325	8
326	6
327	2
328	7
329	7
330	6
331	7
332	3
333	8
334	9
335	6
336	2
337	8
338	5
339	6
340	3
341	5
342	5
343	2
344	9
345	8
346	4
347	6
348	1
349	6
350	8
351	1
352	3
353	8
354	5
355	7
356	3
357	4
358	9
359	4
360	1
361	9
362	4
363	3
364	8
365	9
366	3
367	1
368	1
369	7
370	2
371	5
372	7
373	2
374	8
375	5
376	9
377	9
378	6
379	4
380	4
381	6
382	4
383	9
384	1
385	4
386	4
387	8
388	2
389	4
390	3
391	2
392	5
393	8
394	1
395	5
396	7
397	8
398	1
399	9
400	8
401	6
402	1
403	1
404	4
405	7
406	9
407	1
408	3
409	1
410	8
411	5
412	8
413	3
414	9
415	4
416	9
417	8
418	7
419	2
420	1
421	6
422	5
423	7
424	7
425	7
426	8
427	7
428	4
429	5
430	9
431	8
432	6
433	8
434	7
435	4
436	7
437	3
438	1
439	1
440	6
441	7
442	1
443	5
444	4
445	4
446	1
447	1
448	5
449	4
450	4
451	9
452	9
453	9
454	8
455	1
456	9
457	8
458	5
459	8
460	3
461	9
462	8
463	1
464	9
465	1
466	3
467	6
468	6
469	4
470	1
471	1
472	9
473	6
474	5
475	7
476	3
477	3
478	2
479	7
480	6
481	8
482	5
483	8
484	3
485	2
486	9
487	5
488	4
489	7
490	7
491	8
492	3
493	6
494	9
495	5
496	8
497	7
498	3
499	8
500	7
501	4
DEPOT_SECTION
1
-1
EOF
