NAME : n501-0049
COMMENT : "Generated by pyvrp_manuel (OVRP)"
TYPE : OVRP
DIMENSION : 501
EDGE_WEIGHT_TYPE : EUC_2D
CAPACITY : 100
VEHICLES : 500
OPEN_ROUTE : YES
NODE_COORD_SECTION
1	82	264
2	953	634
3	132	578
4	294	429
5	705	986
6	225	309
7	74	244
8	772	980
9	306	10
10	556	125
11	519	699
12	422	122
13	439	208
14	680	206
15	349	480
16	168	182
17	654	905
18	368	624
19	224	1
20	822	883
21	453	538
22	933	829
23	193	656
24	312	359
25	695	56
26	164	909
27	932	760
28	123	296
29	75	808
30	166	644
31	204	974
32	489	706
33	759	440
34	346	205
35	372	55
36	776	213
37	742	705
38	627	463
39	324	683
40	612	857
41	271	530
42	385	681
43	760	737
44	73	663
45	634	397
46	439	251
47	144	248
48	304	11
49	497	32
50	614	536
51	705	855
52	626	20
53	185	10
54	76	969
55	256	640
56	758	978
57	806	591
58	567	59
59	910	188
60	544	723
61	637	220
62	1	849
63	955	585
64	144	954
65	704	393
66	448	453
67	790	637
68	58	416
69	268	344
70	966	463
71	245	676
72	393	382
73	11	196
74	468	737
75	307	111
76	614	763
77	441	832
78	306	815
79	432	674
80	365	715
81	858	475
82	866	471
83	989	901
84	4	261
85	351	667
86	732	690
87	498	144
88	533	953
89	765	711
90	316	531
91	93	162
92	284	85
93	157	809
94	921	238
95	774	448
96	495	933
97	943	704
98	500	100
99	556	102
100	686	543
101	724	444
102	563	687
103	795	474
104	343	538
105	119	546
106	473	468
107	707	137
108	305	591
109	726	220
110	306	920
111	660	895
112	644	955
113	52	553
114	567	619
115	349	133
116	194	341
117	489	958
118	19	914
119	827	296
120	958	41
121	965	868
122	788	621
123	999	892
124	618	475
125	488	970
126	400	13
127	441	342
128	753	442
129	207	265
130	3	722
131	669	654
132	417	676
133	303	637
134	623	312
135	235	892
136	733	613
137	751	516
138	761	406
139	17	131
140	491	825
141	743	114
142	613	276
143	738	477
144	136	494
145	696	760
146	186	987
147	345	359
148	419	486
149	895	184
150	184	841
151	72	430
152	835	738
153	81	516
154	112	419
155	535	970
156	117	924
157	2	49
158	653	633
159	0	452
160	176	832
161	353	262
162	441	535
163	778	520
164	642	294
165	432	951
166	38	444
167	482	720
168	135	185
169	742	646
170	299	908
171	24	606
172	704	999
173	751	766
174	395	3
175	714	602
176	414	158
177	895	770
178	982	28
179	723	228
180	958	702
181	254	865
182	125	762
183	981	922
184	774	938
185	439	880
186	491	794
187	204	719
188	180	775
189	642	37
190	31	592
191	1	814
192	146	135
193	533	742
194	251	544
195	970	60
196	447	349
197	220	465
198	916	694
199	396	244
200	87	566
201	887	565
202	152	309
203	753	731
204	688	982
205	492	482
206	70	733
207	149	213
208	634	450
209	2	262
210	787	71
211	603	248
212	739	828
213	439	712
214	589	168
215	388	522
216	115	449
217	448	570
218	721	867
219	36	202
220	626	21
221	114	909
222	543	733
223	719	113
224	521	403
225	159	216
226	345	569
227	971	766
228	355	588
229	691	965
230	319	266
231	847	111
232	449	331
233	708	532
234	415	653
235	348	340
236	353	671
237	954	590
238	735	617
239	7	78
240	763	534
241	941	902
242	568	64
243	475	555
244	660	882
245	323	631
246	566	283
247	384	576
248	611	91
249	494	493
250	398	934
251	444	710
252	32	273
253	660	624
254	531	30
255	999	987
256	393	139
257	413	344
258	898	977
259	482	237
260	482	587
261	918	424
262	690	263
263	5	63
264	297	735
265	519	37
266	413	936
267	594	188
268	879	783
269	538	479
270	757	524
271	581	63
272	296	777
273	248	432
274	773	515
275	916	307
276	253	227
277	79	512
278	293	2
279	301	374
280	652	725
281	584	918
282	107	441
283	639	693
284	441	238
285	715	985
286	963	572
287	566	805
288	442	696
289	556	525
290	324	542
291	810	160
292	161	449
293	550	920
294	174	191
295	410	744
296	100	656
297	7	390
298	980	253
299	642	645
300	522	949
301	167	590
302	152	984
303	888	947
304	89	80
305	992	0
306	316	525
307	453	293
308	934	746
309	858	715
310	861	265
311	715	702
312	555	129
313	515	826
314	210	406
315	654	60
316	17	302
317	371	773
318	954	189
319	145	2
320	472	215
321	269	230
322	64	48
323	462	479
324	190	410
325	540	926
326	856	458
327	632	958
328	67	843
329	193	622
330	846	222
331	793	911
332	571	71
333	130	207
334	912	795
335	566	854
336	992	386
337	533	734
338	522	671
339	415	742
340	734	588
341	508	275
342	586	460
343	342	503
344	67	281
345	179	4
346	13	391
347	480	672
348	979	323
349	604	748
350	990	519
351	689	770
352	724	611
353	133	301
354	866	708
355	923	196
356	122	128
357	370	224
358	460	721
359	39	86
360	538	962
361	903	439
362	429	872
363	118	759
364	310	992
365	399	106
366	383	927
367	597	309
368	887	765
369	661	918
370	961	337
371	250	458
372	46	191
373	840	262
374	393	890
375	809	278
376	108	676
377	511	69
378	260	515
379	737	130
380	143	810
381	372	67
382	545	822
383	406	86
384	794	724
385	223	792
386	666	27
387	459	658
388	553	678
389	601	308
390	483	868
391	865	935
392	525	438
393	851	65
394	697	806
395	809	964
396	792	898
397	796	595
398	294	163
399	46	510
400	825	613
401	791	649
402	549	815
403	409	773
404	426	710
405	167	509
406	46	256
407	771	2
408	92	144
409	723	287
410	359	736
411	993	811
412	4	378
413	185	495
414	728	595
415	176	928
416	679	425
417	724	812
418	461	239
419	292	994
420	452	765
421	6	989
422	515	403
423	650	162
424	1	75
425	188	590
426	212	849
427	175	811
428	82	483
429	509	385
430	667	589
431	282	326
432	595	781
433	550	422
434	783	740
435	833	858
436	198	570
437	700	295
438	671	725
439	501	823
440	102	494
441	686	721
442	800	85
443	136	563
444	428	98
445	331	138
446	260	303
447	167	314
448	334	768
449	777	895
450	108	407
451	185	701
452	299	142
453	32	50
454	889	177
455	548	600
456	616	202
457	115	335
458	650	582
459	629	693
460	891	72
461	791	375
462	676	917
463	292	244
464	131	566
465	249	956
466	205	346
467	13	193
468	10	290
469	893	457
470	36	604
471	340	953
472	38	503
473	841	998
474	885	190
475	378	19
476	761	403
477	953	636
478	231	144
479	725	445
480	841	191
481	34	949
482	704	849
483	144	576
484	246	942
485	730	375
486	53	367
487	713	648
488	222	160
489	119	813
490	436	412
491	404	716
492	517	711
493	940	570
494	865	775
495	79	757
496	551	480
497	686	342
498	412	253
499	646	123
500	730	490
501	718	856
DEMAND_SECTION
1	0
2	4
3	1
4	8
5	7
6	2
7	8
8	1
9	6
10	1
11	2
12	5
13	2
14	6
15	5
16	3
17	7
18	1
19	7
20	1
21	4
22	6
23	9
24	1
25	7
26	4
27	1
28	8
29	5
30	3
31	3
32	5
33	3
34	5
35	3
36	8
37	5
38	2
39	2
40	3
41	4
42	3
43	3
44	9
45	2
46	6
47	8
48	2
49	7
50	2
51	2
52	6
53	1
54	7
55	3
56	1
57	3
58	9
59	6
60	2
61	3
62	8
63	8
64	9
65	3
66	3
67	4
68	2
69	1
70	3
71	7
72	2
73	5
74	1
75	5
76	6
77	6
78	3
79	7
80	2
81	4
82	3
83	2
84	3
85	5
86	7
87	5
88	9
89	2
90	3
91	6
92	2
93	3
94	8
95	7
96	9
97	7
98	9
99	5
100	2
101	7
102	2
103	7
104	5
105	8
106	1
107	8
108	4
109	5
110	9
111	9
112	2
113	4
114	9
115	8
116	1
117	1
118	2
119	9
120	2
121	3
122	9
123	1
124	2
125	2
126	1
127	9
128	4
129	4
130	1
131	4
132	1
133	8
134	9
135	5
136	8
137	2
138	6
139	9
140	3
141	1
142	6
143	2
144	8
145	9
146	6
147	6
148	1
149	6
150	5
151	9
152	1
153	2
154	7
155	2
156	8
157	1
158	2
159	2
160	1
161	2
162	1
163	1
164	1
165	5
166	6
167	1
168	9
169	4
170	5
171	3
172	3
173	4
174	6
175	4
176	1
177	4
178	9
179	6
180	7
181	9
182	8
183	4
184	8
185	2
186	9
187	8
188	9
189	4
190	2
191	1
192	3
193	8
194	2
195	8
196	4
197	6
198	8
199	2
200	9
201	8
202	1
203	6
204	5
205	9
206	3
207	9
208	3
209	3
210	9
211	4
212	9
213	4
214	2
215	1
216	4
217	1
218	1
219	4
220	4
221	7
222	9
223	7
224	3
225	1
226	8
227	1
228	8
229	7
230	5
231	4
232	9
233	3
234	4
235	9
236	4
237	8
238	9
239	7
240	2
241	4
242	6
243	2
244	8
245	6
246	6
247	5
248	8
249	8
250	2
251	6
252	7
253	4
254	4
255	2
256	8
257	9
258	7
259	9
260	8
261	2
262	2
263	7
264	1
265	2
266	6
267	9
268	3
269	8
270	6
271	6
272	4
273	2
274	7
275	5
276	6
277	7
278	3
279	7
280	1
281	5
282	5
283	2
284	8
285	1
286	2
287	9
288	3
289	3
290	8
291	7
292	5
293	3
294	8
295	5
296	6
297	1
298	3
299	9
300	5
301	6
302	9
303	4
304	5
305	1
306	4
307	4
308	6
309	2
310	8
311	3
312	8
313	2
314	1
315	7
316	6
317	5
318	6
319	5
320	7
321	6
322	6
323	5
324	5
325	7
326	2
327	5
328	8
329	4
330	2
331	7
332	4
333	6
334	3
335	5
336	9
337	5
338	5
339	5
340	1
341	8
342	3
343	8
344	8
345	5
346	6
347	3
348	3
349	5
350	3
351	3
352	2
353	9
354	2
355	8
356	5
357	3
358	1
359	4
360	6
361	4
362	8
363	3
364	4
365	9
366	6
367	9
368	8
369	5
370	3
371	3
372	2
373	5
374	7
375	7
376	4
377	7
378	1
379	3
380	1
381	3
382	6
383	2
384	1
385	2
386	9
387	8
388	1
389	5
390	5
391	3
392	6
393	1
394	9
395	6
396	6
397	3
398	2
399	1
400	1
401	9
402	9
403	4
404	6
405	9
406	7
407	3
408	6
409	6
410	6
411	3
412	3
413	8
414	2
415	3
416	8
417	6
418	9
419	1
420	5
421	9
422	3
423	4
424	1
425	5
426	5
427	2
428	8
429	6
430	5
431	6
432	5
433	2
434	6
435	3
436	9
437	4
438	8
439	5
440	8
441	7
442	3
443	6
444	1
445	9
446	5
447	6
448	9
449	9
450	2
451	7
452	2
453	5
454	5
455	8
456	2
457	3
458	9
459	6
460	9
461	6
462	8
463	5
464	7
465	5
466	6
467	3
468	5
469	1
470	2
471	2
472	7
473	6
474	1
475	2
476	6
477	9
478	4
479	4
480	9
481	8
482	4
483	6
484	1
485	4
486	4
487	1
488	5
489	3
490	4
491	1
492	3
493	7
494	8
495	7
496	6
497	9
498	6
499	6
500	1
501	5
DEPOT_SECTION
1
-1
EOF
