NAME : n501-0014
COMMENT : "Generated by pyvrp_manuel (OVRP)"
TYPE : OVRP
DIMENSION : 501
EDGE_WEIGHT_TYPE : EUC_2D
CAPACITY : 100
VEHICLES : 500
OPEN_ROUTE : YES
NODE_COORD_SECTION
1	414	98
2	190	78
3	342	780
4	432	685
5	657	261
6	170	494
7	370	242
8	11	427
9	842	267
10	540	180
11	898	395
12	975	661
13	745	567
14	952	230
15	940	451
16	274	851
17	744	845
18	243	412
19	358	50
20	361	817
21	943	80
22	56	812
23	831	660
24	131	645
25	404	353
26	9	590
27	722	53
28	943	493
29	274	313
30	489	228
31	237	521
32	364	861
33	371	975
34	337	61
35	338	529
36	27	232
37	933	113
38	297	469
39	773	265
40	122	854
41	440	35
42	194	549
43	219	303
44	818	161
45	687	374
46	530	43
47	18	726
48	880	42
49	709	135
50	286	866
51	896	363
52	596	575
53	339	549
54	141	693
55	516	324
56	229	287
57	651	983
58	959	402
59	86	880
60	317	627
61	920	125
62	88	352
63	969	555
64	120	928
65	739	273
66	318	653
67	506	299
68	101	237
69	469	830
70	350	887
71	47	456
72	445	411
73	3	55
74	124	30
75	508	814
76	787	586
77	831	334
78	721	419
79	940	180
80	359	71
81	498	334
82	197	785
83	275	50
84	123	527
85	782	512
86	758	59
87	318	229
88	377	99
89	293	954
90	135	115
91	695	244
92	575	708
93	272	975
94	404	16
95	944	761
96	966	775
97	15	327
98	133	170
99	617	821
100	251	366
101	290	758
102	320	799
103	486	519
104	197	226
105	552	573
106	631	199
107	784	461
108	9	966
109	153	868
110	413	783
111	61	634
112	16	841
113	530	17
114	945	939
115	14	667
116	298	13
117	261	480
118	913	493
119	705	23
120	665	24
121	610	516
122	691	315
123	988	569
124	111	653
125	773	870
126	485	473
127	47	684
128	187	404
129	915	91
130	570	489
131	695	376
132	898	755
133	190	893
134	948	462
135	948	931
136	474	458
137	895	540
138	736	273
139	103	709
140	907	97
141	894	633
142	500	799
143	703	838
144	833	340
145	717	780
146	46	357
147	663	438
148	586	196
149	8	193
150	41	973
151	222	84
152	667	429
153	374	161
154	966	413
155	185	208
156	706	872
157	745	744
158	885	461
159	145	369
160	494	36
161	900	454
162	91	642
163	349	70
164	565	559
165	490	497
166	233	615
167	372	705
168	246	479
169	117	547
170	711	460
171	739	73
172	563	667
173	913	74
174	220	85
175	243	306
176	396	398
177	975	166
178	814	911
179	638	463
180	900	676
181	30	108
182	44	208
183	355	78
184	884	539
185	519	924
186	850	354
187	292	969
188	828	493
189	370	536
190	323	596
191	5	393
192	715	34
193	680	195
194	648	275
195	929	472
196	257	967
197	161	286
198	767	337
199	176	272
200	600	354
201	639	741
202	509	405
203	372	135
204	852	192
205	886	567
206	911	767
207	916	533
208	433	385
209	835	466
210	892	68
211	814	863
212	869	846
213	531	899
214	165	960
215	995	972
216	638	695
217	599	92
218	558	608
219	762	268
220	234	810
221	872	44
222	711	112
223	376	715
224	871	284
225	773	934
226	758	7
227	948	861
228	482	274
229	481	172
230	774	422
231	684	679
232	157	978
233	952	956
234	67	4
235	238	951
236	895	953
237	348	871
238	48	941
239	883	603
240	587	557
241	653	88
242	699	119
243	88	740
244	485	128
245	23	961
246	910	621
247	181	406
248	683	310
249	376	497
250	456	392
251	578	163
252	250	332
253	532	774
254	780	782
255	175	855
256	548	345
257	641	299
258	675	14
259	582	644
260	520	562
261	986	511
262	578	491
263	839	311
264	192	257
265	625	989
266	426	925
267	802	841
268	709	265
269	788	124
270	509	813
271	976	423
272	533	649
273	919	766
274	509	469
275	53	428
276	458	160
277	83	934
278	720	45
279	529	330
280	78	970
281	659	790
282	134	44
283	648	294
284	926	966
285	84	818
286	89	230
287	69	567
288	602	397
289	971	13
290	106	994
291	381	77
292	713	251
293	586	580
294	694	451
295	775	781
296	951	905
297	909	267
298	723	416
299	844	667
300	106	934
301	630	384
302	538	324
303	64	181
304	982	204
305	464	641
306	542	776
307	675	246
308	548	620
309	405	653
310	455	496
311	309	510
312	502	751
313	282	358
314	197	699
315	158	641
316	764	234
317	125	494
318	23	252
319	954	817
320	511	236
321	348	893
322	553	839
323	417	7
324	903	854
325	900	524
326	369	375
327	935	968
328	431	538
329	362	463
330	27	94
331	979	443
332	978	204
333	193	509
334	721	433
335	133	503
336	105	319
337	968	965
338	128	833
339	59	49
340	69	302
341	547	223
342	499	366
343	870	53
344	685	56
345	510	260
346	944	409
347	508	144
348	210	469
349	170	369
350	470	303
351	961	514
352	429	723
353	746	48
354	162	446
355	672	264
356	374	671
357	394	69
358	901	343
359	746	999
360	230	275
361	138	546
362	387	240
363	480	522
364	959	548
365	564	360
366	604	185
367	734	64
368	520	567
369	835	696
370	648	322
371	25	875
372	619	626
373	701	548
374	438	932
375	864	767
376	389	884
377	668	295
378	20	448
379	708	124
380	484	880
381	912	206
382	414	687
383	977	893
384	634	590
385	873	55
386	13	583
387	816	321
388	879	713
389	343	192
390	179	393
391	448	118
392	687	983
393	12	67
394	949	920
395	999	441
396	559	125
397	862	953
398	456	507
399	152	389
400	340	303
401	130	332
402	743	463
403	763	942
404	6	656
405	982	245
406	793	632
407	630	82
408	536	326
409	977	185
410	435	531
411	719	175
412	5	432
413	628	304
414	840	61
415	128	302
416	453	163
417	273	853
418	214	639
419	855	423
420	890	740
421	381	141
422	619	58
423	378	578
424	510	431
425	155	457
426	576	659
427	886	230
428	505	794
429	842	272
430	485	418
431	247	428
432	963	967
433	62	944
434	831	854
435	619	511
436	857	238
437	300	252
438	4	884
439	987	296
440	837	738
441	398	93
442	316	734
443	589	653
444	132	282
445	707	503
446	43	494
447	493	124
448	29	697
449	637	433
450	401	226
451	809	374
452	467	564
453	195	483
454	643	544
455	809	320
456	345	185
457	319	919
458	423	788
459	906	159
460	107	541
461	978	789
462	798	951
463	651	888
464	584	238
465	218	434
466	149	860
467	554	74
468	280	648
469	297	467
470	438	194
471	73	283
472	341	634
473	889	945
474	701	691
475	811	381
476	674	118
477	292	346
478	485	579
479	115	646
480	527	796
481	445	761
482	398	931
483	351	903
484	57	487
485	482	290
486	98	128
487	306	182
488	723	195
489	981	255
490	557	628
491	364	505
492	936	348
493	293	58
494	357	372
495	154	385
496	450	660
497	196	983
498	593	589
499	262	774
500	392	548
501	155	212
DEMAND_SECTION
1	0
2	5
3	4
4	6
5	4
6	7
7	7
8	7
9	5
10	2
11	2
12	4
13	9
14	5
15	1
16	7
17	9
18	7
19	7
20	8
21	8
22	3
23	6
24	6
25	6
26	4
27	6
28	7
29	4
30	6
31	5
32	3
33	3
34	7
35	4
36	6
37	2
38	6
39	7
40	1
41	4
42	8
43	4
44	3
45	3
46	9
47	8
48	1
49	4
50	7
51	8
52	7
53	5
54	2
55	5
56	6
57	2
58	3
59	4
60	2
61	7
62	1
63	4
64	1
65	9
66	1
67	9
68	3
69	6
70	5
71	5
72	7
73	6
74	4
75	7
76	1
77	7
78	8
79	3
80	9
81	7
82	3
83	5
84	5
85	9
86	9
87	5
88	8
89	6
90	2
91	2
92	5
93	7
94	3
95	7
96	5
97	1
98	6
99	5
100	3
101	6
102	1
103	6
104	9
105	5
106	9
107	4
108	7
109	4
110	1
111	1
112	3
113	4
114	9
115	4
116	5
117	1
118	7
119	3
120	1
121	9
122	5
123	1
124	5
125	7
126	6
127	1
128	9
129	4
130	9
131	8
132	6
133	5
134	1
135	3
136	6
137	1
138	5
139	9
140	5
141	1
142	5
143	7
144	4
145	6
146	7
147	8
148	1
149	4
150	9
151	3
152	1
153	7
154	2
155	7
156	3
157	9
158	7
159	9
160	7
161	7
162	8
163	6
164	7
165	1
166	2
167	9
168	4
169	2
170	3
171	1
172	2
173	6
174	8
175	5
176	8
177	4
178	4
179	4
180	5
181	9
182	7
183	9
184	1
185	2
186	2
187	3
188	6
189	6
190	5
191	4
192	8
193	3
194	9
195	8
196	5
197	8
198	7
199	4
200	5
201	8
202	6
203	3
204	8
205	9
206	6
207	2
208	7
209	7
210	5
211	1
212	9
213	3
214	6
215	5
216	9
217	3
218	8
219	8
220	5
221	2
222	6
223	5
224	9
225	8
226	5
227	4
228	1
229	5
230	3
231	8
232	3
233	6
234	5
235	7
236	3
237	5
238	6
239	5
240	4
241	1
242	1
243	1
244	7
245	4
246	3
247	8
248	5
249	2
250	4
251	8
252	1
253	8
254	8
255	5
256	7
257	1
258	4
259	2
260	3
261	2
262	6
263	6
264	1
265	7
266	5
267	8
268	2
269	4
270	2
271	6
272	6
273	3
274	2
275	7
276	9
277	1
278	4
279	7
280	7
281	5
282	6
283	1
284	6
285	7
286	4
287	7
288	4
289	4
290	6
291	8
292	9
293	9
294	4
295	6
296	1
297	3
298	4
299	4
300	8
301	1
302	7
303	7
304	2
305	5
306	9
307	3
308	3
309	6
310	9
311	6
312	8
313	2
314	7
315	6
316	5
317	3
318	3
319	1
320	3
321	3
322	2
323	8
324	8
325	2
326	7
327	9
328	5
329	4
330	2
331	4
332	9
333	5
334	6
335	5
336	2
337	3
338	8
339	4
340	2
341	9
342	9
343	8
344	6
345	3
346	6
347	3
348	1
349	9
350	8
351	7
352	5
353	6
354	5
355	4
356	4
357	2
358	1
359	7
360	3
361	9
362	3
363	6
364	9
365	2
366	4
367	2
368	7
369	6
370	4
371	4
372	9
373	9
374	7
375	7
376	9
377	2
378	8
379	4
380	9
381	7
382	5
383	9
384	6
385	1
386	4
387	9
388	2
389	2
390	5
391	6
392	2
393	1
394	2
395	7
396	8
397	6
398	1
399	1
400	6
401	9
402	7
403	9
404	3
405	6
406	2
407	5
408	1
409	5
410	8
411	4
412	9
413	1
414	5
415	4
416	8
417	9
418	4
419	7
420	4
421	3
422	3
423	7
424	5
425	4
426	7
427	1
428	1
429	3
430	3
431	4
432	4
433	1
434	9
435	2
436	5
437	6
438	9
439	1
440	7
441	1
442	2
443	6
444	1
445	6
446	3
447	3
448	4
449	2
450	8
451	5
452	2
453	5
454	2
455	3
456	6
457	2
458	7
459	3
460	3
461	1
462	6
463	5
464	7
465	8
466	4
467	5
468	9
469	2
470	7
471	2
472	5
473	1
474	2
475	6
476	4
477	6
478	7
479	6
480	2
481	6
482	4
483	7
484	1
485	6
486	5
487	6
488	5
489	2
490	9
491	6
492	4
493	5
494	3
495	9
496	1
497	1
498	2
499	3
500	5
501	8
DEPOT_SECTION
1
-1
EOF
