NAME : n501-0005
COMMENT : "Generated by pyvrp_manuel (OVRP)"
TYPE : OVRP
DIMENSION : 501
EDGE_WEIGHT_TYPE : EUC_2D
CAPACITY : 100
VEHICLES : 500
OPEN_ROUTE : YES
NODE_COORD_SECTION
1	107	124
2	680	614
3	254	668
4	977	346
5	7	323
6	836	650
7	270	315
8	462	522
9	163	699
10	930	203
11	308	581
12	215	194
13	615	616
14	173	902
15	267	301
16	646	650
17	301	466
18	919	147
19	497	713
20	421	983
21	236	987
22	396	169
23	946	58
24	232	356
25	914	735
26	237	211
27	518	885
28	287	483
29	961	151
30	957	47
31	350	847
32	374	921
33	10	571
34	346	905
35	492	50
36	583	956
37	938	602
38	719	501
39	67	114
40	733	890
41	210	762
42	216	464
43	815	636
44	506	484
45	657	912
46	934	507
47	331	816
48	95	947
49	352	986
50	382	800
51	162	462
52	34	757
53	422	459
54	817	801
55	410	754
56	179	475
57	737	868
58	745	716
59	880	274
60	209	287
61	768	1
62	906	175
63	767	327
64	39	573
65	527	383
66	454	983
67	214	63
68	230	487
69	313	211
70	923	347
71	564	868
72	823	832
73	344	664
74	776	203
75	188	721
76	17	274
77	88	233
78	622	413
79	382	795
80	95	175
81	775	377
82	808	671
83	621	248
84	545	789
85	1	164
86	782	412
87	590	598
88	262	969
89	486	910
90	627	215
91	397	920
92	994	246
93	390	339
94	901	418
95	378	970
96	981	691
97	623	637
98	312	573
99	869	374
100	162	837
101	833	65
102	604	445
103	396	199
104	287	921
105	198	12
106	613	807
107	708	886
108	570	663
109	622	574
110	302	623
111	682	664
112	652	829
113	412	699
114	822	846
115	213	388
116	815	467
117	944	404
118	83	618
119	171	9
120	365	841
121	950	627
122	856	239
123	912	554
124	370	389
125	945	755
126	323	836
127	781	806
128	832	659
129	619	631
130	53	833
131	598	701
132	630	197
133	251	381
134	925	714
135	158	368
136	354	108
137	232	172
138	101	579
139	665	203
140	334	498
141	301	361
142	116	915
143	5	710
144	78	152
145	783	921
146	924	889
147	29	750
148	142	616
149	192	455
150	238	421
151	858	1000
152	543	81
153	961	453
154	325	781
155	902	277
156	586	115
157	386	777
158	450	71
159	151	883
160	338	321
161	711	202
162	469	802
163	366	752
164	502	434
165	375	167
166	931	678
167	596	561
168	81	792
169	635	339
170	956	206
171	779	203
172	257	285
173	363	771
174	946	469
175	939	395
176	129	250
177	206	7
178	417	839
179	898	673
180	771	242
181	235	208
182	987	741
183	327	813
184	535	470
185	435	802
186	678	613
187	364	864
188	228	372
189	435	321
190	261	477
191	393	362
192	587	43
193	495	33
194	491	451
195	978	990
196	722	299
197	890	429
198	27	327
199	743	870
200	95	157
201	463	447
202	931	44
203	252	181
204	605	374
205	505	167
206	662	469
207	984	140
208	481	164
209	541	711
210	669	146
211	189	102
212	217	505
213	434	793
214	669	477
215	273	96
216	634	78
217	496	605
218	640	787
219	770	206
220	276	507
221	188	725
222	258	805
223	779	912
224	826	741
225	18	997
226	903	441
227	261	170
228	932	520
229	308	423
230	642	465
231	401	51
232	73	412
233	580	454
234	73	924
235	782	226
236	323	795
237	154	511
238	763	637
239	241	895
240	95	836
241	248	215
242	589	469
243	130	376
244	388	751
245	94	491
246	922	474
247	524	334
248	328	395
249	292	880
250	942	41
251	219	28
252	421	564
253	908	501
254	59	415
255	28	442
256	687	761
257	829	896
258	325	991
259	431	413
260	642	485
261	516	15
262	83	110
263	630	650
264	400	947
265	30	93
266	740	230
267	588	399
268	576	74
269	197	596
270	711	329
271	467	233
272	179	400
273	817	616
274	586	30
275	404	358
276	552	87
277	743	809
278	539	15
279	480	323
280	85	213
281	26	581
282	242	78
283	399	692
284	289	785
285	210	841
286	610	158
287	59	367
288	6	188
289	762	50
290	773	424
291	838	635
292	536	360
293	880	978
294	989	132
295	121	557
296	987	444
297	25	315
298	135	764
299	499	548
300	6	802
301	724	594
302	835	258
303	80	515
304	237	891
305	265	792
306	279	227
307	532	866
308	336	678
309	945	26
310	390	3
311	253	588
312	306	402
313	566	45
314	441	656
315	487	293
316	590	25
317	619	233
318	592	701
319	134	247
320	883	302
321	991	413
322	842	670
323	105	976
324	962	205
325	273	432
326	1	547
327	354	861
328	233	950
329	386	145
330	37	518
331	957	692
332	784	692
333	9	620
334	678	553
335	198	372
336	805	286
337	640	676
338	265	210
339	69	879
340	204	649
341	759	254
342	962	887
343	72	823
344	86	940
345	36	36
346	911	315
347	870	379
348	366	264
349	905	48
350	794	705
351	436	705
352	704	10
353	500	686
354	863	497
355	31	39
356	543	166
357	533	204
358	85	816
359	25	549
360	292	380
361	163	266
362	150	250
363	742	382
364	815	992
365	880	251
366	687	827
367	48	944
368	475	393
369	7	636
370	113	548
371	247	805
372	88	428
373	561	952
374	226	764
375	764	18
376	512	674
377	228	870
378	633	805
379	53	578
380	422	348
381	383	430
382	856	338
383	990	720
384	260	777
385	451	414
386	917	922
387	875	395
388	748	672
389	773	258
390	847	396
391	468	241
392	414	966
393	153	800
394	568	237
395	697	677
396	960	733
397	981	581
398	611	100
399	317	845
400	407	663
401	115	105
402	293	884
403	866	274
404	667	285
405	709	310
406	43	293
407	538	476
408	343	660
409	150	585
410	85	723
411	119	38
412	675	495
413	542	159
414	210	97
415	878	84
416	570	450
417	948	386
418	266	687
419	963	965
420	315	693
421	702	525
422	236	645
423	574	263
424	715	887
425	345	514
426	678	79
427	863	289
428	890	33
429	341	618
430	719	918
431	347	614
432	477	568
433	125	855
434	78	422
435	971	414
436	331	263
437	930	379
438	407	752
439	235	254
440	512	462
441	132	443
442	671	739
443	111	647
444	905	992
445	216	398
446	451	160
447	719	728
448	161	521
449	927	564
450	579	259
451	413	125
452	723	454
453	895	664
454	866	438
455	811	890
456	392	983
457	359	653
458	89	126
459	872	464
460	995	647
461	711	681
462	449	30
463	506	615
464	777	578
465	11	634
466	523	515
467	688	995
468	242	199
469	546	129
470	345	255
471	734	560
472	980	311
473	533	238
474	677	755
475	832	463
476	795	671
477	281	299
478	67	204
479	81	443
480	472	772
481	945	561
482	383	644
483	936	867
484	10	23
485	596	785
486	911	983
487	332	613
488	820	543
489	872	589
490	425	734
491	119	910
492	838	382
493	322	352
494	21	266
495	501	559
496	127	945
497	509	506
498	991	714
499	463	915
500	808	416
501	630	17
DEMAND_SECTION
1	0
2	3
3	2
4	2
5	4
6	9
7	2
8	1
9	8
10	5
11	9
12	8
13	5
14	3
15	7
16	2
17	3
18	6
19	6
20	2
21	6
22	7
23	8
24	3
25	6
26	3
27	4
28	6
29	5
30	4
31	6
32	9
33	3
34	1
35	8
36	5
37	2
38	2
39	7
40	3
41	3
42	6
43	4
44	8
45	6
46	2
47	7
48	1
49	7
50	9
51	9
52	7
53	6
54	8
55	8
56	1
57	5
58	6
59	9
60	5
61	9
62	8
63	5
64	5
65	3
66	7
67	8
68	3
69	9
70	5
71	1
72	9
73	9
74	5
75	9
76	4
77	6
78	4
79	9
80	3
81	3
82	1
83	7
84	1
85	2
86	4
87	9
88	1
89	3
90	7
91	8
92	7
93	5
94	9
95	2
96	2
97	2
98	6
99	1
100	7
101	3
102	1
103	7
104	4
105	6
106	2
107	8
108	6
109	2
110	6
111	2
112	6
113	9
114	4
115	2
116	7
117	8
118	2
119	6
120	6
121	4
122	2
123	2
124	4
125	6
126	6
127	2
128	4
129	8
130	9
131	7
132	2
133	5
134	8
135	9
136	9
137	4
138	4
139	8
140	4
141	6
142	6
143	1
144	9
145	4
146	3
147	1
148	9
149	4
150	6
151	2
152	2
153	5
154	2
155	2
156	7
157	7
158	6
159	8
160	2
161	5
162	8
163	6
164	4
165	9
166	9
167	8
168	3
169	5
170	9
171	3
172	1
173	8
174	3
175	5
176	7
177	4
178	5
179	7
180	2
181	5
182	9
183	1
184	7
185	3
186	6
187	1
188	3
189	4
190	2
191	2
192	5
193	8
194	2
195	8
196	7
197	1
198	7
199	3
200	3
201	7
202	3
203	1
204	6
205	5
206	2
207	5
208	3
209	6
210	1
211	7
212	8
213	3
214	3
215	9
216	1
217	6
218	6
219	2
220	3
221	9
222	1
223	6
224	5
225	4
226	1
227	9
228	8
229	9
230	7
231	5
232	2
233	6
234	6
235	3
236	5
237	2
238	8
239	2
240	5
241	9
242	1
243	4
244	7
245	5
246	7
247	2
248	2
249	4
250	4
251	5
252	1
253	2
254	5
255	4
256	9
257	9
258	1
259	5
260	1
261	6
262	8
263	2
264	4
265	2
266	9
267	1
268	5
269	5
270	4
271	8
272	4
273	1
274	1
275	1
276	8
277	9
278	7
279	2
280	8
281	1
282	1
283	1
284	7
285	8
286	4
287	1
288	5
289	9
290	8
291	8
292	3
293	5
294	3
295	7
296	1
297	4
298	1
299	7
300	1
301	3
302	7
303	5
304	7
305	1
306	1
307	9
308	6
309	1
310	7
311	1
312	7
313	8
314	7
315	5
316	8
317	9
318	6
319	8
320	3
321	4
322	6
323	1
324	4
325	6
326	7
327	7
328	5
329	5
330	4
331	7
332	3
333	1
334	4
335	3
336	5
337	8
338	4
339	1
340	8
341	9
342	2
343	2
344	3
345	9
346	2
347	8
348	5
349	9
350	1
351	8
352	2
353	2
354	1
355	5
356	8
357	3
358	4
359	7
360	6
361	9
362	4
363	5
364	6
365	6
366	7
367	6
368	3
369	2
370	8
371	7
372	6
373	2
374	6
375	5
376	7
377	3
378	3
379	2
380	5
381	2
382	1
383	2
384	8
385	6
386	5
387	1
388	8
389	5
390	2
391	9
392	6
393	9
394	6
395	9
396	7
397	3
398	1
399	9
400	1
401	6
402	3
403	2
404	1
405	3
406	5
407	8
408	2
409	9
410	1
411	9
412	1
413	7
414	6
415	5
416	1
417	9
418	6
419	6
420	6
421	4
422	8
423	4
424	8
425	6
426	7
427	7
428	9
429	8
430	3
431	3
432	2
433	6
434	9
435	6
436	9
437	6
438	6
439	5
440	8
441	6
442	4
443	1
444	5
445	4
446	3
447	4
448	8
449	9
450	1
451	6
452	5
453	2
454	5
455	5
456	4
457	9
458	4
459	4
460	5
461	9
462	4
463	8
464	3
465	6
466	9
467	5
468	1
469	8
470	2
471	2
472	9
473	8
474	7
475	2
476	5
477	6
478	9
479	2
480	3
481	1
482	2
483	3
484	5
485	9
486	5
487	7
488	7
489	7
490	8
491	2
492	5
493	7
494	6
495	2
496	3
497	1
498	8
499	6
500	3
501	7
DEPOT_SECTION
1
-1
EOF
