NAME : n501-0045
COMMENT : "Generated by pyvrp_manuel (OVRP)"
TYPE : OVRP
DIMENSION : 501
EDGE_WEIGHT_TYPE : EUC_2D
CAPACITY : 100
VEHICLES : 500
OPEN_ROUTE : YES
NODE_COORD_SECTION
1	956	763
2	531	588
3	343	684
4	315	254
5	653	922
6	936	992
7	546	268
8	432	95
9	299	536
10	920	614
11	27	157
12	147	386
13	351	6
14	589	296
15	795	228
16	527	282
17	85	646
18	473	135
19	437	460
20	374	236
21	827	491
22	486	992
23	97	605
24	186	171
25	458	530
26	381	65
27	876	100
28	141	195
29	813	694
30	298	550
31	179	519
32	581	232
33	359	86
34	388	779
35	713	694
36	474	416
37	775	355
38	925	887
39	255	808
40	83	912
41	573	77
42	877	894
43	115	400
44	693	398
45	382	239
46	665	737
47	511	224
48	705	698
49	258	624
50	438	608
51	553	318
52	167	834
53	786	861
54	541	814
55	716	711
56	86	45
57	525	286
58	597	813
59	467	17
60	311	971
61	149	689
62	647	698
63	168	883
64	475	579
65	614	494
66	361	54
67	872	646
68	280	87
69	323	341
70	891	702
71	74	491
72	287	768
73	503	707
74	569	119
75	284	152
76	562	360
77	318	983
78	796	533
79	838	52
80	646	167
81	320	50
82	646	32
83	811	706
84	569	801
85	491	234
86	514	333
87	560	840
88	44	100
89	775	247
90	922	909
91	484	820
92	814	203
93	908	542
94	522	841
95	93	35
96	288	238
97	255	615
98	630	701
99	795	631
100	688	519
101	893	369
102	581	678
103	519	237
104	382	440
105	156	232
106	966	623
107	552	563
108	27	779
109	739	913
110	738	595
111	889	619
112	916	108
113	32	714
114	556	743
115	270	395
116	661	657
117	98	601
118	548	295
119	209	590
120	992	966
121	469	646
122	947	653
123	328	528
124	853	683
125	199	402
126	39	504
127	424	348
128	749	923
129	715	807
130	627	633
131	163	700
132	563	59
133	506	566
134	988	981
135	694	563
136	263	477
137	538	58
138	132	315
139	378	423
140	356	32
141	667	818
142	885	133
143	443	613
144	386	31
145	280	19
146	74	38
147	253	505
148	775	758
149	938	493
150	845	373
151	963	857
152	262	473
153	212	998
154	831	88
155	799	712
156	719	293
157	109	809
158	584	133
159	996	911
160	355	200
161	544	966
162	938	788
163	33	818
164	900	94
165	213	970
166	186	233
167	768	84
168	90	568
169	527	311
170	577	789
171	585	897
172	152	649
173	156	876
174	908	463
175	292	317
176	202	4
177	478	230
178	544	608
179	367	320
180	842	353
181	56	549
182	449	655
183	297	24
184	499	321
185	561	661
186	191	555
187	833	391
188	506	361
189	846	350
190	47	859
191	53	298
192	782	458
193	26	763
194	588	26
195	395	581
196	600	641
197	709	627
198	676	314
199	854	380
200	541	868
201	541	560
202	359	889
203	696	677
204	29	158
205	536	647
206	490	119
207	571	809
208	667	96
209	476	807
210	586	110
211	858	180
212	78	802
213	791	424
214	597	921
215	121	334
216	472	326
217	272	373
218	993	643
219	462	86
220	94	86
221	746	966
222	661	662
223	458	534
224	658	870
225	439	72
226	505	917
227	401	59
228	264	82
229	800	377
230	642	645
231	607	270
232	931	466
233	971	44
234	635	996
235	162	655
236	463	458
237	126	246
238	152	369
239	740	69
240	163	125
241	299	913
242	969	35
243	579	197
244	682	283
245	195	583
246	353	529
247	564	541
248	243	170
249	19	291
250	657	415
251	836	598
252	51	233
253	451	826
254	828	613
255	663	850
256	929	724
257	872	200
258	741	646
259	601	745
260	973	310
261	49	546
262	779	510
263	509	423
264	411	174
265	263	989
266	814	838
267	387	231
268	335	900
269	515	812
270	608	450
271	916	470
272	852	454
273	802	270
274	8	880
275	397	490
276	180	511
277	792	450
278	512	538
279	945	959
280	299	929
281	899	736
282	919	231
283	0	872
284	929	363
285	956	636
286	523	926
287	707	772
288	133	317
289	990	454
290	198	19
291	440	62
292	384	719
293	842	349
294	819	286
295	438	169
296	845	619
297	171	739
298	439	899
299	855	788
300	921	780
301	678	31
302	712	297
303	681	737
304	602	715
305	733	854
306	467	155
307	460	14
308	138	747
309	527	132
310	700	971
311	85	149
312	242	25
313	504	4
314	25	339
315	852	574
316	683	874
317	827	56
318	466	935
319	730	922
320	608	102
321	605	450
322	168	436
323	162	938
324	126	55
325	652	550
326	973	790
327	34	363
328	647	254
329	966	168
330	338	601
331	130	446
332	248	497
333	985	397
334	104	148
335	365	809
336	610	62
337	148	650
338	942	117
339	70	264
340	484	246
341	259	847
342	984	415
343	231	782
344	704	800
345	60	975
346	528	487
347	919	944
348	913	814
349	251	677
350	481	36
351	488	473
352	316	38
353	791	300
354	611	722
355	603	2
356	147	693
357	406	4
358	326	418
359	640	554
360	194	531
361	910	712
362	68	342
363	395	927
364	174	297
365	280	346
366	955	591
367	982	35
368	656	943
369	226	976
370	596	85
371	968	229
372	242	434
373	665	105
374	48	516
375	427	247
376	177	490
377	265	563
378	669	359
379	94	743
380	981	10
381	471	220
382	890	849
383	765	514
384	42	209
385	261	198
386	709	486
387	861	585
388	770	546
389	372	668
390	218	864
391	365	740
392	992	568
393	5	314
394	537	721
395	351	61
396	215	703
397	68	375
398	536	843
399	849	984
400	906	48
401	564	309
402	411	826
403	956	233
404	664	401
405	471	832
406	414	213
407	548	27
408	842	254
409	519	190
410	918	888
411	299	203
412	339	741
413	640	803
414	278	212
415	421	787
416	754	833
417	559	468
418	563	357
419	343	708
420	575	303
421	840	912
422	268	897
423	92	999
424	512	943
425	143	36
426	605	752
427	391	603
428	807	577
429	647	446
430	358	11
431	291	149
432	15	551
433	651	223
434	709	510
435	538	166
436	275	834
437	832	301
438	141	732
439	528	624
440	907	427
441	820	215
442	913	221
443	613	496
444	695	656
445	149	832
446	275	223
447	426	182
448	79	435
449	291	7
450	342	856
451	476	310
452	18	451
453	290	31
454	236	508
455	857	26
456	292	951
457	771	835
458	357	979
459	747	536
460	179	513
461	435	764
462	519	5
463	207	75
464	698	438
465	649	215
466	226	272
467	894	449
468	91	811
469	221	741
470	136	97
471	835	823
472	528	25
473	672	172
474	132	677
475	392	528
476	424	457
477	525	515
478	126	890
479	287	459
480	200	116
481	883	508
482	362	156
483	695	578
484	57	638
485	667	968
486	189	684
487	781	731
488	370	279
489	712	802
490	191	802
491	896	736
492	198	781
493	289	300
494	493	970
495	424	150
496	303	791
497	236	246
498	529	78
499	691	229
500	950	686
501	211	309
DEMAND_SECTION
1	0
2	1
3	2
4	5
5	7
6	3
7	4
8	9
9	4
10	8
11	3
12	1
13	9
14	3
15	7
16	4
17	4
18	2
19	6
20	6
21	5
22	1
23	1
24	9
25	8
26	2
27	6
28	3
29	4
30	6
31	5
32	8
33	7
34	9
35	2
36	9
37	8
38	7
39	5
40	1
41	7
42	8
43	1
44	9
45	1
46	2
47	2
48	4
49	7
50	9
51	7
52	2
53	9
54	8
55	5
56	9
57	1
58	3
59	1
60	5
61	7
62	6
63	4
64	5
65	7
66	1
67	2
68	7
69	4
70	1
71	8
72	2
73	4
74	3
75	6
76	8
77	1
78	6
79	1
80	9
81	9
82	2
83	4
84	6
85	2
86	8
87	1
88	1
89	6
90	3
91	1
92	7
93	5
94	4
95	8
96	1
97	5
98	7
99	7
100	3
101	5
102	8
103	2
104	7
105	8
106	3
107	3
108	5
109	5
110	1
111	8
112	2
113	9
114	9
115	1
116	3
117	4
118	7
119	9
120	1
121	8
122	5
123	8
124	2
125	3
126	6
127	1
128	9
129	4
130	9
131	3
132	3
133	1
134	1
135	9
136	3
137	1
138	6
139	3
140	9
141	5
142	9
143	7
144	5
145	4
146	7
147	3
148	6
149	4
150	5
151	5
152	6
153	4
154	2
155	9
156	9
157	3
158	7
159	2
160	7
161	5
162	6
163	2
164	7
165	1
166	9
167	8
168	4
169	5
170	1
171	3
172	8
173	9
174	3
175	1
176	8
177	5
178	8
179	3
180	6
181	5
182	5
183	9
184	9
185	6
186	9
187	1
188	1
189	6
190	2
191	2
192	1
193	1
194	5
195	5
196	5
197	7
198	3
199	3
200	6
201	3
202	4
203	8
204	6
205	5
206	7
207	3
208	5
209	1
210	1
211	1
212	9
213	2
214	5
215	7
216	3
217	4
218	2
219	4
220	7
221	1
222	7
223	3
224	3
225	1
226	7
227	8
228	8
229	4
230	9
231	1
232	6
233	2
234	9
235	1
236	1
237	7
238	7
239	7
240	3
241	4
242	9
243	9
244	8
245	7
246	9
247	4
248	2
249	5
250	2
251	3
252	3
253	8
254	7
255	1
256	2
257	1
258	2
259	2
260	6
261	1
262	5
263	4
264	6
265	8
266	2
267	9
268	1
269	9
270	7
271	1
272	9
273	8
274	6
275	8
276	1
277	3
278	4
279	4
280	7
281	4
282	8
283	9
284	5
285	5
286	5
287	2
288	4
289	1
290	9
291	2
292	9
293	2
294	2
295	5
296	1
297	1
298	3
299	5
300	9
301	2
302	2
303	4
304	9
305	4
306	6
307	1
308	8
309	2
310	9
311	7
312	4
313	8
314	8
315	7
316	4
317	2
318	9
319	6
320	4
321	1
322	1
323	4
324	7
325	5
326	1
327	9
328	3
329	9
330	7
331	5
332	7
333	9
334	3
335	4
336	2
337	8
338	1
339	7
340	7
341	2
342	2
343	4
344	9
345	7
346	8
347	1
348	5
349	5
350	5
351	5
352	1
353	7
354	9
355	9
356	3
357	9
358	6
359	8
360	4
361	2
362	4
363	4
364	5
365	6
366	3
367	4
368	1
369	3
370	9
371	1
372	6
373	9
374	1
375	5
376	6
377	4
378	2
379	9
380	2
381	7
382	8
383	2
384	3
385	8
386	1
387	7
388	9
389	2
390	2
391	8
392	1
393	6
394	3
395	9
396	1
397	1
398	1
399	1
400	7
401	1
402	7
403	4
404	1
405	9
406	8
407	5
408	9
409	5
410	8
411	4
412	1
413	7
414	9
415	8
416	7
417	5
418	3
419	5
420	6
421	2
422	8
423	8
424	8
425	2
426	4
427	9
428	1
429	3
430	1
431	4
432	2
433	7
434	6
435	1
436	2
437	4
438	3
439	5
440	3
441	8
442	9
443	5
444	9
445	8
446	4
447	3
448	8
449	9
450	8
451	5
452	3
453	2
454	3
455	3
456	3
457	1
458	9
459	2
460	1
461	1
462	3
463	6
464	1
465	8
466	7
467	2
468	6
469	4
470	5
471	8
472	5
473	9
474	9
475	6
476	5
477	4
478	7
479	8
480	2
481	5
482	7
483	4
484	8
485	9
486	5
487	6
488	7
489	8
490	2
491	8
492	8
493	2
494	4
495	7
496	5
497	9
498	9
499	8
500	7
501	1
DEPOT_SECTION
1
-1
EOF
