NAME : n501-0006
COMMENT : "Generated by pyvrp_manuel (OVRP)"
TYPE : OVRP
DIMENSION : 501
EDGE_WEIGHT_TYPE : EUC_2D
CAPACITY : 100
VEHICLES : 500
OPEN_ROUTE : YES
NODE_COORD_SECTION
1	30	457
2	840	819
3	619	451
4	115	890
5	328	104
6	455	243
7	825	801
8	279	940
9	703	905
10	80	894
11	462	946
12	240	35
13	444	341
14	103	335
15	655	342
16	213	725
17	387	906
18	403	55
19	177	19
20	526	709
21	14	432
22	722	832
23	988	365
24	157	886
25	689	449
26	844	787
27	562	997
28	107	983
29	261	735
30	454	216
31	752	14
32	848	750
33	265	326
34	823	617
35	669	189
36	960	406
37	840	115
38	727	793
39	624	638
40	599	403
41	115	609
42	452	409
43	271	169
44	246	551
45	264	462
46	291	526
47	262	471
48	314	428
49	291	605
50	709	506
51	883	678
52	748	790
53	197	158
54	71	938
55	327	873
56	600	155
57	230	723
58	732	63
59	774	246
60	301	170
61	401	44
62	12	120
63	943	408
64	712	242
65	293	779
66	490	645
67	243	821
68	467	518
69	598	65
70	779	963
71	98	815
72	464	930
73	23	458
74	421	337
75	181	628
76	245	579
77	738	820
78	818	131
79	836	888
80	931	573
81	329	444
82	876	889
83	863	31
84	351	63
85	683	602
86	449	605
87	194	702
88	49	707
89	52	282
90	743	582
91	159	44
92	568	383
93	887	255
94	163	495
95	136	325
96	639	399
97	747	848
98	138	137
99	897	69
100	668	790
101	656	792
102	603	606
103	984	550
104	83	897
105	52	931
106	220	386
107	213	395
108	159	544
109	371	240
110	944	995
111	924	178
112	415	428
113	772	613
114	279	808
115	187	498
116	324	990
117	684	550
118	202	808
119	61	466
120	970	690
121	486	516
122	705	174
123	888	11
124	778	931
125	732	125
126	517	147
127	141	287
128	741	806
129	79	804
130	352	574
131	473	253
132	367	947
133	212	240
134	783	779
135	576	326
136	60	756
137	312	385
138	662	526
139	163	670
140	279	959
141	610	103
142	673	440
143	990	432
144	482	54
145	938	548
146	271	983
147	200	553
148	949	875
149	976	748
150	978	597
151	863	10
152	64	919
153	887	463
154	270	353
155	132	940
156	799	973
157	724	418
158	689	167
159	133	720
160	497	331
161	302	336
162	937	657
163	155	565
164	539	628
165	737	850
166	694	937
167	919	916
168	452	862
169	287	631
170	228	941
171	626	675
172	799	101
173	189	761
174	201	654
175	688	792
176	127	676
177	283	584
178	461	215
179	997	594
180	928	68
181	302	56
182	212	807
183	547	861
184	931	421
185	109	677
186	520	64
187	655	855
188	621	339
189	817	569
190	28	532
191	997	270
192	662	297
193	106	828
194	979	627
195	780	328
196	189	237
197	210	937
198	392	31
199	796	508
200	328	765
201	210	736
202	533	919
203	96	237
204	490	937
205	977	548
206	310	559
207	412	447
208	724	348
209	958	595
210	475	876
211	99	699
212	142	547
213	935	744
214	926	677
215	335	158
216	691	749
217	967	139
218	473	955
219	383	300
220	712	93
221	418	539
222	153	946
223	729	983
224	87	370
225	447	483
226	352	155
227	659	144
228	160	316
229	915	900
230	102	135
231	181	372
232	509	384
233	875	885
234	495	299
235	863	547
236	168	120
237	175	307
238	607	589
239	931	656
240	624	765
241	218	787
242	602	916
243	8	436
244	170	91
245	699	616
246	505	422
247	181	884
248	493	726
249	446	307
250	448	406
251	1	120
252	622	816
253	264	358
254	161	502
255	496	341
256	191	609
257	275	434
258	67	537
259	571	980
260	606	725
261	700	209
262	505	578
263	655	951
264	82	721
265	686	619
266	8	875
267	564	226
268	984	161
269	277	708
270	739	997
271	311	589
272	959	253
273	171	467
274	110	233
275	697	53
276	910	49
277	163	988
278	348	105
279	996	840
280	683	580
281	951	170
282	250	277
283	386	1000
284	6	774
285	585	212
286	157	160
287	635	806
288	468	416
289	375	909
290	797	674
291	65	259
292	396	46
293	650	845
294	92	626
295	19	625
296	273	364
297	230	390
298	207	172
299	597	577
300	911	352
301	641	93
302	97	235
303	593	670
304	526	493
305	845	473
306	493	205
307	665	894
308	652	575
309	1	365
310	439	767
311	271	924
312	651	628
313	78	585
314	232	633
315	235	800
316	203	498
317	700	793
318	134	950
319	724	14
320	240	926
321	960	615
322	483	607
323	554	107
324	791	845
325	85	279
326	17	896
327	610	936
328	372	416
329	154	215
330	417	744
331	717	887
332	733	670
333	144	726
334	43	335
335	779	425
336	483	685
337	576	4
338	118	553
339	585	467
340	845	810
341	757	281
342	638	403
343	554	990
344	939	984
345	732	557
346	656	260
347	835	139
348	355	926
349	458	772
350	638	606
351	460	510
352	203	944
353	695	808
354	965	518
355	827	769
356	805	800
357	520	974
358	274	823
359	271	889
360	687	211
361	584	10
362	86	173
363	490	412
364	17	821
365	640	629
366	28	830
367	583	260
368	544	378
369	782	465
370	439	408
371	533	392
372	807	983
373	54	774
374	856	889
375	327	695
376	769	945
377	876	784
378	902	192
379	530	729
380	111	807
381	592	313
382	284	988
383	626	76
384	952	507
385	551	865
386	94	137
387	453	870
388	994	634
389	908	721
390	837	451
391	326	891
392	57	839
393	387	485
394	298	621
395	226	819
396	451	775
397	220	588
398	819	356
399	821	535
400	938	482
401	71	248
402	418	336
403	788	245
404	961	425
405	227	456
406	625	377
407	399	554
408	809	977
409	335	230
410	503	888
411	502	528
412	114	888
413	231	288
414	822	315
415	115	993
416	438	226
417	632	384
418	364	46
419	592	327
420	174	694
421	324	143
422	583	128
423	641	891
424	853	300
425	172	478
426	877	224
427	411	251
428	883	584
429	409	328
430	729	35
431	526	866
432	540	846
433	589	796
434	821	787
435	136	612
436	33	799
437	230	354
438	97	946
439	994	627
440	539	538
441	785	803
442	353	580
443	401	847
444	654	208
445	226	724
446	686	350
447	422	360
448	233	632
449	854	296
450	657	213
451	700	596
452	627	387
453	969	159
454	613	36
455	900	653
456	466	998
457	219	909
458	552	725
459	700	278
460	569	195
461	272	803
462	738	2
463	698	852
464	536	384
465	564	510
466	329	708
467	852	929
468	167	382
469	991	720
470	205	512
471	748	289
472	62	694
473	172	236
474	718	484
475	401	591
476	199	220
477	476	917
478	830	637
479	452	406
480	472	581
481	597	23
482	776	507
483	758	979
484	930	741
485	510	97
486	992	603
487	775	657
488	833	158
489	167	517
490	23	507
491	78	329
492	80	355
493	829	405
494	630	472
495	400	82
496	150	151
497	736	540
498	977	563
499	165	787
500	225	99
501	289	934
DEMAND_SECTION
1	0
2	8
3	1
4	3
5	3
6	8
7	3
8	4
9	9
10	4
11	9
12	8
13	3
14	3
15	7
16	9
17	5
18	8
19	4
20	6
21	7
22	4
23	8
24	3
25	3
26	6
27	8
28	6
29	9
30	6
31	9
32	5
33	9
34	8
35	9
36	9
37	5
38	3
39	8
40	6
41	2
42	6
43	8
44	2
45	9
46	5
47	2
48	7
49	6
50	5
51	3
52	6
53	9
54	6
55	2
56	4
57	7
58	3
59	2
60	4
61	7
62	6
63	9
64	2
65	2
66	2
67	5
68	8
69	4
70	6
71	3
72	5
73	3
74	4
75	5
76	6
77	2
78	7
79	6
80	4
81	1
82	7
83	2
84	7
85	3
86	9
87	7
88	5
89	4
90	8
91	9
92	5
93	8
94	4
95	5
96	3
97	5
98	4
99	2
100	7
101	1
102	3
103	3
104	9
105	8
106	9
107	7
108	5
109	4
110	8
111	8
112	1
113	8
114	5
115	7
116	2
117	6
118	4
119	8
120	4
121	9
122	5
123	9
124	1
125	7
126	4
127	3
128	9
129	3
130	9
131	7
132	2
133	5
134	4
135	7
136	9
137	8
138	5
139	2
140	7
141	2
142	2
143	1
144	2
145	2
146	3
147	4
148	6
149	8
150	9
151	4
152	4
153	7
154	6
155	1
156	1
157	4
158	4
159	8
160	7
161	3
162	8
163	1
164	4
165	1
166	6
167	5
168	6
169	1
170	2
171	7
172	4
173	7
174	9
175	6
176	9
177	3
178	2
179	8
180	6
181	9
182	8
183	9
184	9
185	7
186	8
187	4
188	2
189	9
190	6
191	6
192	8
193	1
194	5
195	1
196	7
197	8
198	6
199	4
200	8
201	7
202	9
203	8
204	5
205	7
206	7
207	9
208	4
209	6
210	9
211	4
212	4
213	9
214	7
215	5
216	5
217	5
218	3
219	8
220	9
221	4
222	7
223	6
224	4
225	3
226	3
227	7
228	4
229	3
230	4
231	7
232	6
233	9
234	6
235	4
236	1
237	9
238	1
239	5
240	1
241	6
242	8
243	9
244	9
245	2
246	6
247	5
248	7
249	6
250	5
251	7
252	8
253	7
254	9
255	2
256	2
257	1
258	6
259	6
260	6
261	3
262	3
263	5
264	1
265	8
266	8
267	9
268	1
269	1
270	4
271	3
272	2
273	1
274	9
275	6
276	6
277	3
278	1
279	4
280	5
281	9
282	8
283	3
284	9
285	4
286	5
287	3
288	8
289	5
290	8
291	6
292	4
293	1
294	7
295	8
296	9
297	9
298	9
299	2
300	6
301	5
302	3
303	2
304	1
305	6
306	4
307	9
308	4
309	2
310	1
311	8
312	5
313	6
314	9
315	1
316	4
317	7
318	8
319	4
320	4
321	7
322	1
323	2
324	2
325	6
326	2
327	8
328	2
329	9
330	4
331	2
332	4
333	3
334	7
335	3
336	5
337	6
338	4
339	1
340	5
341	9
342	9
343	3
344	8
345	3
346	4
347	7
348	1
349	7
350	1
351	1
352	5
353	5
354	2
355	7
356	5
357	4
358	2
359	1
360	4
361	4
362	6
363	5
364	5
365	7
366	6
367	9
368	1
369	3
370	4
371	4
372	7
373	2
374	5
375	1
376	1
377	3
378	9
379	6
380	8
381	8
382	3
383	1
384	4
385	3
386	5
387	8
388	1
389	7
390	3
391	7
392	3
393	2
394	5
395	8
396	2
397	2
398	6
399	5
400	9
401	4
402	4
403	1
404	4
405	9
406	3
407	3
408	3
409	7
410	2
411	2
412	2
413	9
414	7
415	9
416	5
417	1
418	4
419	3
420	8
421	7
422	9
423	1
424	2
425	1
426	4
427	7
428	6
429	5
430	8
431	7
432	3
433	2
434	6
435	9
436	6
437	6
438	1
439	1
440	8
441	2
442	9
443	6
444	7
445	8
446	4
447	5
448	4
449	8
450	3
451	6
452	6
453	9
454	5
455	5
456	1
457	7
458	3
459	2
460	4
461	6
462	9
463	4
464	5
465	8
466	8
467	6
468	3
469	6
470	4
471	5
472	1
473	2
474	8
475	8
476	4
477	6
478	1
479	3
480	3
481	8
482	1
483	1
484	3
485	5
486	2
487	4
488	9
489	3
490	9
491	3
492	2
493	7
494	6
495	2
496	9
497	5
498	4
499	6
500	6
501	1
DEPOT_SECTION
1
-1
EOF
