NAME : n501-0030
COMMENT : "Generated by pyvrp_manuel (OVRP)"
TYPE : OVRP
DIMENSION : 501
EDGE_WEIGHT_TYPE : EUC_2D
CAPACITY : 100
VEHICLES : 500
OPEN_ROUTE : YES
NODE_COORD_SECTION
1	222	60
2	269	339
3	347	25
4	691	776
5	745	883
6	99	810
7	235	650
8	489	469
9	253	203
10	517	676
11	812	280
12	496	68
13	775	196
14	696	465
15	538	583
16	989	41
17	848	264
18	842	885
19	440	910
20	924	518
21	966	352
22	44	93
23	666	821
24	912	778
25	842	432
26	501	916
27	379	708
28	362	252
29	757	2
30	742	498
31	463	196
32	979	584
33	563	914
34	471	801
35	955	289
36	505	989
37	202	823
38	192	108
39	1	576
40	539	521
41	552	6
42	393	471
43	243	643
44	873	787
45	495	964
46	54	815
47	727	661
48	845	991
49	971	26
50	908	143
51	447	627
52	396	470
53	628	410
54	276	616
55	636	363
56	57	528
57	185	941
58	561	683
59	820	635
60	943	288
61	288	77
62	887	724
63	472	608
64	735	57
65	505	24
66	845	391
67	631	221
68	639	447
69	260	205
70	883	198
71	132	175
72	604	140
73	287	752
74	881	684
75	584	49
76	593	640
77	436	270
78	771	435
79	85	891
80	925	931
81	605	579
82	341	795
83	428	760
84	690	757
85	133	770
86	601	998
87	411	800
88	231	306
89	338	601
90	436	131
91	244	34
92	768	645
93	812	575
94	766	835
95	766	69
96	74	828
97	283	721
98	271	797
99	830	840
100	378	132
101	910	888
102	10	619
103	86	149
104	568	806
105	498	486
106	804	458
107	340	854
108	948	852
109	828	425
110	167	851
111	17	445
112	127	510
113	896	244
114	74	61
115	257	817
116	745	348
117	756	497
118	227	853
119	445	686
120	507	827
121	270	507
122	892	322
123	3	485
124	196	9
125	302	954
126	359	13
127	836	571
128	800	479
129	811	603
130	452	858
131	49	752
132	862	139
133	939	95
134	360	870
135	173	974
136	461	609
137	764	515
138	234	829
139	532	877
140	952	700
141	464	709
142	466	324
143	948	344
144	795	996
145	160	101
146	158	864
147	964	215
148	694	488
149	262	260
150	372	872
151	67	277
152	968	395
153	246	992
154	775	790
155	31	223
156	525	320
157	857	123
158	442	340
159	504	492
160	361	854
161	434	188
162	277	683
163	990	806
164	467	753
165	963	340
166	193	860
167	198	212
168	699	908
169	113	503
170	479	317
171	28	548
172	242	228
173	314	377
174	432	190
175	93	568
176	57	789
177	85	786
178	707	916
179	646	665
180	433	558
181	781	879
182	746	894
183	556	704
184	293	346
185	688	637
186	252	753
187	774	167
188	294	657
189	694	950
190	371	663
191	370	78
192	40	198
193	102	731
194	640	964
195	764	539
196	174	455
197	655	174
198	41	571
199	805	222
200	605	212
201	315	579
202	525	666
203	333	591
204	81	481
205	688	271
206	687	366
207	816	152
208	624	196
209	84	863
210	893	377
211	699	699
212	888	293
213	372	308
214	970	666
215	153	708
216	222	891
217	333	384
218	903	194
219	577	447
220	197	316
221	786	976
222	837	132
223	814	867
224	463	493
225	736	342
226	157	231
227	565	90
228	20	700
229	324	105
230	824	593
231	876	801
232	700	764
233	617	950
234	164	37
235	382	28
236	53	926
237	203	351
238	29	403
239	505	699
240	81	945
241	484	745
242	54	44
243	36	276
244	278	240
245	371	597
246	215	560
247	57	243
248	720	871
249	591	229
250	877	926
251	791	650
252	354	759
253	423	283
254	283	215
255	560	194
256	440	971
257	96	795
258	243	416
259	840	833
260	175	280
261	350	658
262	283	991
263	70	915
264	59	918
265	68	217
266	241	108
267	479	934
268	499	115
269	666	991
270	710	850
271	226	610
272	460	458
273	898	864
274	563	297
275	217	478
276	142	364
277	333	727
278	393	308
279	317	951
280	558	795
281	476	645
282	76	331
283	287	854
284	793	916
285	334	317
286	357	951
287	2	55
288	807	596
289	348	122
290	27	539
291	577	268
292	956	600
293	179	575
294	765	683
295	929	241
296	474	114
297	621	924
298	645	564
299	621	885
300	28	290
301	316	991
302	263	451
303	949	237
304	295	191
305	715	377
306	339	867
307	356	322
308	672	526
309	762	695
310	84	830
311	748	386
312	748	878
313	25	621
314	831	241
315	678	659
316	81	736
317	48	663
318	765	205
319	479	497
320	225	452
321	108	468
322	745	657
323	524	305
324	199	812
325	651	214
326	527	239
327	893	383
328	582	323
329	66	587
330	798	294
331	337	453
332	204	666
333	13	608
334	579	501
335	452	418
336	81	983
337	605	133
338	354	432
339	455	517
340	551	660
341	858	412
342	606	211
343	506	719
344	403	782
345	682	218
346	649	220
347	439	646
348	979	806
349	790	233
350	100	712
351	634	67
352	151	957
353	932	372
354	63	19
355	758	548
356	284	356
357	462	58
358	58	328
359	476	167
360	133	982
361	613	197
362	696	35
363	187	914
364	168	652
365	291	663
366	524	126
367	582	470
368	492	479
369	144	42
370	593	483
371	349	157
372	834	550
373	271	776
374	522	879
375	104	783
376	238	41
377	71	691
378	442	858
379	113	628
380	347	362
381	771	578
382	896	351
383	707	231
384	673	476
385	409	10
386	933	141
387	728	142
388	685	698
389	621	336
390	272	452
391	528	38
392	406	97
393	220	305
394	534	142
395	342	672
396	469	370
397	106	575
398	697	378
399	585	677
400	701	276
401	818	823
402	530	181
403	99	16
404	88	998
405	52	291
406	841	684
407	375	669
408	705	970
409	176	138
410	204	824
411	144	945
412	32	800
413	506	441
414	618	398
415	670	156
416	81	730
417	792	454
418	139	167
419	581	129
420	284	283
421	242	832
422	410	827
423	11	40
424	954	584
425	536	778
426	925	295
427	521	611
428	280	195
429	214	968
430	972	955
431	96	419
432	309	200
433	954	697
434	22	923
435	440	379
436	800	781
437	856	840
438	392	993
439	29	892
440	970	761
441	386	318
442	729	200
443	658	508
444	707	373
445	865	89
446	181	125
447	799	212
448	151	109
449	281	89
450	834	402
451	543	941
452	207	260
453	489	347
454	553	509
455	458	970
456	76	650
457	637	675
458	749	328
459	626	474
460	149	692
461	789	491
462	156	672
463	226	554
464	755	510
465	944	236
466	862	139
467	992	984
468	66	254
469	332	41
470	790	288
471	870	77
472	255	962
473	595	981
474	339	619
475	534	198
476	147	504
477	994	795
478	697	6
479	546	948
480	488	932
481	132	656
482	985	805
483	923	938
484	22	256
485	290	920
486	746	850
487	267	505
488	5	335
489	432	263
490	40	867
491	491	13
492	199	738
493	366	605
494	296	31
495	425	65
496	259	612
497	247	155
498	448	380
499	492	716
500	113	515
501	23	660
DEMAND_SECTION
1	0
2	3
3	6
4	6
5	2
6	2
7	3
8	4
9	2
10	5
11	7
12	9
13	9
14	5
15	8
16	4
17	6
18	8
19	9
20	2
21	3
22	7
23	7
24	8
25	4
26	2
27	9
28	3
29	8
30	7
31	1
32	9
33	5
34	1
35	3
36	9
37	7
38	9
39	7
40	6
41	3
42	9
43	7
44	2
45	2
46	7
47	7
48	4
49	1
50	4
51	7
52	5
53	8
54	5
55	6
56	9
57	6
58	3
59	1
60	4
61	8
62	9
63	8
64	4
65	3
66	9
67	4
68	4
69	6
70	2
71	5
72	5
73	6
74	7
75	2
76	3
77	2
78	8
79	8
80	5
81	2
82	4
83	3
84	2
85	3
86	5
87	6
88	3
89	5
90	2
91	3
92	7
93	6
94	7
95	2
96	1
97	7
98	9
99	5
100	9
101	2
102	9
103	2
104	7
105	9
106	9
107	2
108	6
109	1
110	7
111	1
112	8
113	1
114	6
115	7
116	3
117	1
118	8
119	7
120	6
121	9
122	2
123	2
124	1
125	5
126	3
127	5
128	1
129	5
130	9
131	6
132	4
133	3
134	9
135	8
136	3
137	3
138	8
139	5
140	6
141	7
142	5
143	2
144	5
145	2
146	6
147	9
148	9
149	3
150	1
151	6
152	5
153	6
154	3
155	8
156	1
157	6
158	8
159	2
160	3
161	5
162	4
163	3
164	5
165	9
166	1
167	7
168	8
169	8
170	6
171	7
172	8
173	7
174	3
175	3
176	8
177	1
178	8
179	9
180	2
181	2
182	5
183	5
184	6
185	8
186	5
187	6
188	9
189	2
190	3
191	8
192	3
193	8
194	7
195	7
196	4
197	5
198	2
199	4
200	7
201	9
202	4
203	2
204	6
205	8
206	1
207	9
208	3
209	1
210	1
211	8
212	3
213	8
214	5
215	2
216	4
217	4
218	7
219	8
220	1
221	7
222	6
223	6
224	7
225	5
226	2
227	1
228	2
229	5
230	3
231	1
232	4
233	9
234	9
235	2
236	5
237	9
238	1
239	5
240	1
241	7
242	3
243	2
244	1
245	7
246	9
247	8
248	6
249	5
250	8
251	3
252	1
253	6
254	9
255	4
256	3
257	5
258	6
259	5
260	5
261	1
262	7
263	4
264	4
265	1
266	4
267	6
268	8
269	1
270	3
271	1
272	3
273	1
274	4
275	7
276	4
277	4
278	1
279	6
280	7
281	2
282	1
283	8
284	6
285	2
286	2
287	2
288	4
289	2
290	3
291	5
292	3
293	2
294	5
295	9
296	6
297	8
298	8
299	7
300	8
301	1
302	4
303	5
304	9
305	4
306	9
307	2
308	9
309	4
310	1
311	8
312	5
313	9
314	8
315	6
316	2
317	4
318	4
319	4
320	3
321	7
322	7
323	1
324	7
325	5
326	4
327	3
328	1
329	5
330	4
331	1
332	5
333	8
334	1
335	8
336	2
337	1
338	8
339	3
340	8
341	1
342	7
343	7
344	3
345	3
346	8
347	5
348	9
349	2
350	4
351	9
352	3
353	7
354	4
355	9
356	1
357	7
358	3
359	9
360	5
361	6
362	9
363	2
364	3
365	6
366	4
367	7
368	4
369	9
370	4
371	2
372	8
373	2
374	5
375	9
376	8
377	9
378	5
379	7
380	5
381	7
382	7
383	4
384	6
385	5
386	6
387	8
388	7
389	3
390	2
391	7
392	6
393	9
394	8
395	7
396	9
397	9
398	4
399	7
400	9
401	6
402	5
403	9
404	6
405	9
406	9
407	8
408	9
409	9
410	1
411	1
412	1
413	3
414	4
415	9
416	3
417	6
418	9
419	6
420	2
421	3
422	6
423	7
424	6
425	7
426	1
427	2
428	7
429	6
430	5
431	4
432	9
433	1
434	6
435	3
436	8
437	5
438	7
439	7
440	5
441	3
442	4
443	6
444	3
445	3
446	8
447	6
448	5
449	1
450	7
451	9
452	9
453	6
454	9
455	6
456	1
457	5
458	4
459	4
460	5
461	1
462	1
463	4
464	2
465	4
466	1
467	3
468	9
469	1
470	4
471	5
472	9
473	5
474	6
475	4
476	2
477	7
478	9
479	2
480	3
481	4
482	8
483	3
484	2
485	5
486	7
487	4
488	9
489	3
490	9
491	8
492	5
493	1
494	6
495	7
496	8
497	8
498	2
499	8
500	1
501	3
DEPOT_SECTION
1
-1
EOF
