NAME : n501-0008
COMMENT : "Generated by pyvrp_manuel (OVRP)"
TYPE : OVRP
DIMENSION : 501
EDGE_WEIGHT_TYPE : EUC_2D
CAPACITY : 100
VEHICLES : 500
OPEN_ROUTE : YES
NODE_COORD_SECTION
1	535	742
2	658	55
3	704	134
4	740	847
5	258	495
6	468	55
7	194	679
8	263	112
9	321	970
10	26	718
11	854	949
12	715	248
13	919	67
14	15	586
15	374	349
16	54	340
17	717	280
18	401	371
19	145	433
20	831	915
21	815	144
22	206	559
23	874	211
24	556	349
25	407	652
26	915	751
27	478	849
28	557	327
29	317	636
30	251	386
31	451	913
32	178	408
33	700	256
34	746	128
35	934	733
36	105	888
37	404	839
38	580	654
39	171	988
40	352	167
41	470	690
42	827	253
43	621	955
44	137	612
45	702	485
46	772	601
47	917	541
48	413	736
49	426	65
50	682	109
51	318	815
52	383	264
53	978	665
54	281	176
55	933	664
56	980	76
57	231	330
58	215	395
59	993	646
60	611	398
61	970	550
62	60	494
63	655	533
64	901	591
65	488	153
66	820	290
67	557	168
68	543	366
69	359	215
70	597	684
71	562	832
72	318	377
73	910	810
74	696	518
75	834	47
76	85	444
77	370	503
78	853	405
79	707	443
80	482	609
81	595	429
82	372	709
83	486	347
84	500	859
85	204	135
86	407	969
87	346	379
88	287	85
89	489	782
90	247	250
91	777	135
92	292	288
93	403	312
94	272	818
95	482	766
96	220	437
97	158	560
98	663	488
99	639	206
100	48	419
101	629	426
102	768	631
103	412	545
104	497	832
105	393	756
106	427	525
107	300	382
108	492	336
109	761	401
110	963	403
111	357	824
112	585	252
113	585	577
114	496	2
115	199	224
116	480	508
117	275	223
118	284	274
119	106	628
120	920	659
121	945	736
122	6	20
123	431	170
124	104	696
125	931	568
126	21	696
127	681	144
128	560	106
129	651	635
130	550	367
131	145	532
132	78	177
133	807	269
134	49	191
135	724	832
136	595	332
137	258	599
138	611	723
139	575	3
140	519	179
141	90	317
142	420	202
143	907	644
144	609	728
145	329	350
146	549	280
147	512	977
148	764	965
149	352	509
150	691	182
151	669	313
152	545	750
153	15	574
154	429	234
155	664	620
156	337	561
157	39	533
158	925	31
159	207	64
160	809	72
161	331	574
162	461	948
163	673	815
164	860	909
165	79	469
166	375	414
167	499	749
168	562	895
169	505	561
170	271	723
171	721	913
172	162	673
173	635	311
174	678	91
175	964	13
176	222	257
177	832	912
178	652	362
179	124	992
180	719	286
181	909	276
182	893	426
183	868	589
184	861	563
185	17	753
186	950	12
187	631	451
188	864	953
189	933	887
190	251	24
191	57	228
192	920	198
193	402	109
194	267	392
195	514	629
196	651	310
197	505	246
198	904	233
199	923	9
200	308	94
201	332	711
202	596	808
203	417	552
204	41	707
205	391	702
206	296	621
207	960	618
208	18	232
209	12	777
210	564	257
211	407	423
212	556	227
213	234	703
214	682	226
215	554	809
216	70	789
217	369	340
218	789	195
219	632	155
220	923	845
221	686	597
222	686	62
223	805	523
224	1000	294
225	727	194
226	63	113
227	184	243
228	779	331
229	522	90
230	489	943
231	928	391
232	892	938
233	189	274
234	129	669
235	385	666
236	722	137
237	945	69
238	203	158
239	394	607
240	150	245
241	245	629
242	389	319
243	211	765
244	520	374
245	410	645
246	649	868
247	794	428
248	674	594
249	396	894
250	724	983
251	259	623
252	758	138
253	709	362
254	433	226
255	483	5
256	314	997
257	70	673
258	182	677
259	987	234
260	40	564
261	891	886
262	506	471
263	5	129
264	795	961
265	147	880
266	694	139
267	777	710
268	781	520
269	484	986
270	457	29
271	191	611
272	292	122
273	224	161
274	141	643
275	247	421
276	279	969
277	928	111
278	71	146
279	265	478
280	664	201
281	51	523
282	579	101
283	323	7
284	240	296
285	740	703
286	473	124
287	570	857
288	526	919
289	984	88
290	861	30
291	1000	559
292	193	903
293	908	103
294	460	718
295	301	720
296	799	823
297	937	72
298	267	567
299	577	211
300	827	790
301	127	545
302	34	923
303	639	912
304	305	157
305	635	819
306	73	201
307	235	12
308	294	391
309	250	307
310	196	696
311	86	682
312	405	562
313	846	393
314	106	311
315	697	726
316	822	388
317	439	814
318	922	527
319	610	28
320	541	488
321	524	928
322	558	278
323	377	876
324	553	94
325	827	191
326	659	516
327	26	338
328	803	342
329	42	109
330	825	768
331	264	749
332	248	441
333	388	648
334	108	449
335	270	241
336	244	449
337	666	348
338	410	684
339	519	536
340	335	573
341	1	840
342	247	561
343	10	21
344	351	199
345	631	39
346	497	13
347	730	193
348	131	82
349	709	243
350	726	806
351	426	136
352	652	939
353	720	716
354	790	370
355	606	316
356	866	159
357	148	512
358	339	907
359	161	688
360	525	358
361	127	749
362	887	688
363	200	674
364	669	873
365	884	10
366	87	267
367	806	720
368	43	573
369	410	639
370	626	338
371	87	562
372	769	764
373	156	37
374	239	425
375	540	654
376	136	471
377	445	18
378	681	427
379	432	969
380	130	149
381	348	412
382	827	341
383	58	462
384	932	704
385	693	19
386	79	862
387	830	262
388	562	288
389	127	804
390	628	372
391	524	287
392	869	143
393	965	552
394	696	834
395	162	723
396	788	377
397	367	511
398	789	494
399	171	190
400	458	646
401	7	391
402	913	475
403	79	196
404	239	340
405	6	664
406	192	674
407	131	336
408	422	854
409	100	148
410	99	455
411	931	487
412	14	415
413	244	233
414	435	222
415	87	863
416	24	14
417	271	182
418	172	988
419	72	841
420	988	285
421	725	582
422	501	290
423	293	710
424	457	713
425	614	603
426	605	420
427	890	953
428	427	205
429	267	469
430	399	197
431	660	780
432	706	995
433	527	535
434	386	434
435	212	362
436	629	377
437	533	722
438	836	837
439	22	728
440	199	48
441	267	349
442	758	537
443	239	871
444	634	963
445	892	523
446	807	90
447	117	877
448	526	339
449	312	16
450	823	920
451	190	35
452	438	557
453	43	392
454	132	688
455	333	241
456	39	366
457	950	501
458	743	629
459	8	798
460	714	17
461	332	669
462	887	54
463	633	701
464	668	325
465	794	825
466	902	90
467	986	735
468	680	187
469	828	520
470	698	143
471	726	395
472	345	968
473	516	401
474	555	588
475	242	321
476	391	67
477	986	485
478	785	882
479	198	620
480	441	180
481	604	1
482	924	305
483	702	349
484	732	364
485	846	783
486	856	879
487	756	848
488	807	440
489	229	843
490	951	276
491	161	506
492	301	560
493	578	827
494	467	115
495	268	196
496	841	892
497	729	227
498	237	893
499	489	911
500	395	634
501	198	797
DEMAND_SECTION
1	0
2	2
3	6
4	9
5	7
6	7
7	2
8	8
9	7
10	4
11	7
12	9
13	9
14	4
15	3
16	8
17	5
18	2
19	3
20	2
21	7
22	3
23	6
24	7
25	5
26	3
27	6
28	1
29	1
30	3
31	5
32	1
33	1
34	2
35	4
36	7
37	3
38	3
39	6
40	1
41	2
42	5
43	3
44	4
45	8
46	8
47	7
48	8
49	6
50	3
51	5
52	5
53	7
54	4
55	6
56	6
57	7
58	5
59	5
60	9
61	3
62	4
63	4
64	6
65	6
66	5
67	4
68	8
69	8
70	9
71	8
72	1
73	9
74	6
75	1
76	7
77	4
78	8
79	2
80	6
81	5
82	9
83	3
84	5
85	8
86	1
87	1
88	2
89	6
90	4
91	1
92	4
93	8
94	2
95	1
96	9
97	2
98	8
99	7
100	5
101	5
102	3
103	9
104	8
105	2
106	3
107	5
108	4
109	4
110	4
111	5
112	4
113	6
114	2
115	2
116	4
117	7
118	4
119	9
120	4
121	6
122	2
123	2
124	2
125	3
126	3
127	7
128	5
129	7
130	9
131	8
132	5
133	9
134	9
135	3
136	1
137	7
138	3
139	8
140	4
141	8
142	5
143	2
144	6
145	3
146	1
147	2
148	8
149	2
150	6
151	2
152	8
153	8
154	6
155	7
156	1
157	6
158	7
159	8
160	1
161	9
162	3
163	1
164	7
165	9
166	1
167	5
168	3
169	8
170	8
171	7
172	6
173	5
174	7
175	3
176	2
177	4
178	9
179	3
180	4
181	4
182	2
183	7
184	2
185	9
186	7
187	2
188	4
189	1
190	4
191	1
192	5
193	4
194	2
195	7
196	5
197	1
198	1
199	3
200	6
201	1
202	8
203	4
204	2
205	8
206	5
207	6
208	2
209	9
210	2
211	6
212	3
213	6
214	3
215	8
216	7
217	4
218	5
219	8
220	6
221	2
222	8
223	8
224	1
225	8
226	4
227	3
228	4
229	2
230	1
231	4
232	9
233	2
234	9
235	6
236	2
237	2
238	7
239	6
240	5
241	9
242	5
243	5
244	3
245	6
246	9
247	9
248	6
249	6
250	5
251	6
252	5
253	8
254	8
255	3
256	9
257	4
258	9
259	3
260	8
261	9
262	6
263	9
264	7
265	7
266	7
267	1
268	9
269	3
270	5
271	5
272	5
273	7
274	7
275	5
276	1
277	6
278	5
279	5
280	5
281	3
282	9
283	4
284	5
285	8
286	7
287	3
288	8
289	9
290	8
291	1
292	3
293	6
294	3
295	5
296	6
297	2
298	6
299	6
300	1
301	4
302	1
303	8
304	9
305	2
306	4
307	5
308	9
309	5
310	4
311	8
312	5
313	4
314	3
315	5
316	5
317	5
318	1
319	9
320	8
321	2
322	2
323	4
324	6
325	2
326	4
327	9
328	4
329	4
330	3
331	7
332	9
333	9
334	7
335	2
336	2
337	4
338	7
339	7
340	6
341	6
342	7
343	5
344	1
345	1
346	3
347	5
348	8
349	9
350	3
351	9
352	7
353	4
354	7
355	7
356	1
357	2
358	2
359	6
360	9
361	8
362	4
363	3
364	4
365	5
366	6
367	5
368	3
369	7
370	8
371	2
372	2
373	4
374	4
375	1
376	8
377	1
378	7
379	4
380	7
381	4
382	2
383	4
384	2
385	3
386	3
387	9
388	5
389	2
390	4
391	6
392	9
393	5
394	7
395	6
396	1
397	2
398	6
399	1
400	4
401	1
402	1
403	2
404	1
405	4
406	2
407	5
408	7
409	5
410	3
411	8
412	2
413	9
414	1
415	3
416	8
417	6
418	6
419	1
420	7
421	3
422	3
423	1
424	8
425	8
426	7
427	1
428	2
429	4
430	8
431	5
432	4
433	2
434	2
435	3
436	7
437	7
438	8
439	9
440	6
441	3
442	8
443	5
444	6
445	4
446	4
447	1
448	9
449	5
450	1
451	5
452	5
453	1
454	8
455	7
456	8
457	8
458	5
459	8
460	4
461	4
462	1
463	2
464	7
465	2
466	5
467	5
468	2
469	8
470	9
471	6
472	6
473	7
474	7
475	7
476	4
477	2
478	8
479	3
480	1
481	2
482	4
483	3
484	6
485	7
486	6
487	6
488	5
489	4
490	3
491	8
492	3
493	8
494	8
495	6
496	7
497	4
498	6
499	2
500	1
501	6
DEPOT_SECTION
1
-1
EOF
