NAME : n1001-0031
COMMENT : "Generated by pyvrp_manuel (OVRPBLTW)"
TYPE : OVRPBLTW
DIMENSION : 1001
EDGE_WEIGHT_TYPE : EUC_2D
CAPACITY : 150
VEHICLES : 1000
OPEN_ROUTE : YES
DISTANCE : 3000
SERVICE_TIME : 200
NODE_COORD_SECTION
1	854	220
2	134	999
3	526	195
4	129	140
5	862	309
6	944	916
7	529	832
8	352	88
9	809	530
10	678	922
11	13	262
12	190	283
13	827	904
14	188	70
15	462	185
16	654	139
17	742	197
18	224	732
19	340	752
20	604	390
21	620	191
22	558	832
23	275	944
24	265	787
25	676	285
26	19	957
27	86	10
28	552	531
29	965	725
30	603	978
31	862	972
32	651	725
33	314	876
34	689	629
35	124	76
36	297	174
37	431	99
38	342	603
39	805	164
40	305	575
41	62	121
42	576	745
43	712	758
44	910	616
45	166	800
46	730	701
47	811	417
48	616	343
49	637	642
50	316	261
51	665	383
52	672	845
53	531	471
54	702	803
55	830	743
56	93	115
57	639	758
58	115	828
59	228	600
60	493	2
61	733	64
62	18	10
63	101	354
64	322	548
65	901	410
66	870	750
67	321	556
68	32	562
69	115	524
70	312	468
71	211	261
72	515	328
73	440	43
74	603	283
75	548	319
76	318	797
77	217	838
78	273	21
79	661	893
80	557	953
81	197	616
82	65	678
83	720	381
84	306	993
85	83	38
86	388	986
87	452	112
88	795	254
89	764	85
90	580	860
91	280	663
92	917	904
93	620	728
94	668	319
95	4	667
96	262	800
97	30	329
98	921	597
99	818	768
100	600	131
101	274	314
102	347	60
103	393	222
104	788	918
105	138	902
106	280	266
107	529	374
108	379	859
109	36	167
110	904	872
111	866	76
112	944	731
113	446	112
114	594	807
115	419	817
116	805	32
117	220	629
118	151	55
119	892	200
120	725	128
121	673	170
122	897	326
123	464	10
124	349	73
125	113	366
126	876	723
127	611	563
128	965	110
129	662	153
130	863	910
131	598	448
132	981	298
133	351	979
134	110	329
135	774	865
136	450	336
137	508	123
138	419	669
139	922	70
140	467	835
141	112	167
142	498	972
143	44	959
144	988	23
145	460	354
146	161	606
147	588	213
148	846	934
149	647	822
150	483	120
151	155	394
152	202	104
153	501	258
154	464	235
155	821	548
156	247	987
157	777	891
158	409	467
159	15	947
160	505	104
161	582	290
162	311	138
163	773	91
164	340	8
165	425	475
166	212	183
167	177	71
168	888	152
169	85	416
170	853	287
171	587	277
172	872	391
173	142	571
174	903	364
175	932	217
176	673	728
177	55	495
178	347	358
179	133	112
180	74	459
181	603	950
182	824	965
183	414	701
184	751	916
185	892	134
186	99	489
187	191	678
188	361	579
189	261	981
190	750	442
191	340	5
192	309	152
193	170	701
194	754	821
195	957	537
196	902	11
197	46	122
198	870	127
199	678	834
200	663	739
201	802	266
202	560	356
203	27	980
204	306	946
205	554	730
206	994	291
207	905	644
208	27	159
209	96	914
210	963	605
211	210	310
212	513	976
213	360	131
214	641	341
215	870	655
216	130	762
217	737	386
218	621	580
219	100	576
220	995	550
221	1	513
222	530	934
223	341	771
224	64	534
225	234	531
226	506	743
227	871	760
228	67	64
229	605	16
230	766	266
231	10	319
232	398	140
233	953	438
234	445	775
235	449	211
236	955	591
237	96	581
238	366	872
239	244	640
240	735	739
241	933	351
242	989	533
243	551	751
244	97	906
245	746	214
246	650	441
247	445	380
248	948	452
249	287	494
250	408	373
251	586	154
252	595	46
253	120	696
254	587	935
255	491	117
256	37	119
257	743	390
258	806	30
259	501	107
260	762	142
261	910	380
262	747	770
263	32	903
264	456	597
265	767	722
266	438	396
267	851	834
268	306	137
269	348	147
270	814	646
271	177	713
272	491	210
273	42	565
274	325	736
275	572	335
276	695	684
277	661	629
278	947	20
279	697	736
280	781	860
281	957	538
282	435	94
283	323	175
284	826	583
285	238	333
286	749	765
287	968	847
288	863	522
289	137	516
290	77	832
291	521	738
292	654	410
293	125	254
294	146	906
295	511	506
296	9	191
297	596	171
298	79	827
299	667	602
300	779	701
301	658	232
302	508	598
303	385	158
304	424	881
305	827	314
306	568	541
307	49	890
308	56	973
309	871	375
310	372	277
311	977	837
312	660	765
313	68	643
314	167	579
315	749	664
316	30	267
317	82	723
318	830	346
319	437	826
320	869	360
321	205	360
322	326	527
323	869	101
324	793	549
325	744	282
326	623	273
327	711	129
328	16	713
329	152	878
330	572	752
331	384	672
332	987	998
333	735	355
334	122	193
335	865	156
336	115	182
337	171	410
338	313	247
339	952	413
340	38	539
341	933	672
342	901	620
343	845	821
344	471	906
345	970	94
346	856	653
347	990	196
348	744	678
349	498	890
350	263	161
351	864	515
352	201	28
353	803	914
354	789	919
355	693	812
356	43	357
357	44	427
358	750	978
359	170	470
360	189	547
361	563	364
362	224	837
363	354	523
364	700	460
365	565	860
366	109	987
367	30	169
368	863	607
369	318	463
370	470	673
371	896	235
372	713	997
373	889	277
374	548	16
375	143	472
376	248	96
377	776	281
378	806	746
379	896	403
380	899	925
381	593	163
382	841	534
383	500	619
384	413	950
385	177	495
386	146	224
387	844	323
388	430	955
389	845	61
390	466	859
391	485	830
392	408	494
393	670	672
394	887	624
395	761	875
396	873	712
397	185	723
398	179	528
399	770	760
400	237	843
401	305	781
402	579	817
403	213	906
404	733	409
405	39	952
406	486	464
407	743	366
408	69	472
409	514	844
410	468	639
411	81	26
412	345	890
413	802	845
414	900	211
415	827	88
416	712	443
417	782	671
418	757	601
419	374	951
420	583	282
421	658	767
422	945	762
423	955	897
424	135	405
425	672	848
426	831	377
427	736	642
428	883	919
429	608	375
430	12	727
431	432	871
432	836	755
433	866	873
434	63	86
435	796	917
436	476	593
437	521	570
438	823	857
439	792	552
440	380	400
441	181	124
442	755	643
443	627	416
444	33	971
445	162	644
446	973	490
447	273	989
448	218	811
449	443	566
450	110	747
451	28	842
452	226	221
453	293	990
454	423	769
455	216	747
456	423	449
457	429	771
458	434	262
459	114	354
460	691	568
461	271	450
462	95	515
463	596	999
464	536	288
465	111	756
466	606	999
467	971	913
468	126	646
469	796	256
470	783	436
471	845	328
472	85	182
473	346	686
474	625	138
475	415	807
476	617	704
477	427	114
478	789	660
479	76	540
480	455	155
481	949	571
482	699	556
483	779	502
484	218	84
485	88	50
486	885	232
487	429	913
488	335	465
489	483	960
490	638	903
491	665	167
492	4	6
493	369	204
494	310	199
495	612	614
496	74	705
497	771	987
498	217	307
499	453	476
500	770	898
501	916	818
502	998	901
503	182	623
504	492	117
505	525	725
506	290	424
507	658	349
508	617	660
509	555	198
510	657	405
511	785	198
512	649	478
513	216	174
514	35	900
515	300	585
516	246	574
517	651	447
518	585	644
519	982	723
520	144	777
521	892	618
522	220	134
523	339	498
524	376	394
525	29	653
526	521	853
527	867	193
528	226	992
529	646	46
530	880	127
531	7	388
532	212	579
533	283	799
534	945	230
535	200	588
536	931	123
537	460	43
538	21	604
539	126	37
540	963	410
541	994	634
542	854	490
543	557	766
544	415	866
545	463	152
546	935	827
547	685	94
548	62	463
549	601	192
550	255	310
551	689	818
552	611	405
553	295	70
554	545	175
555	81	424
556	783	76
557	13	594
558	633	570
559	24	369
560	730	714
561	852	750
562	547	767
563	569	691
564	908	42
565	129	684
566	963	561
567	606	67
568	648	953
569	975	217
570	216	28
571	195	73
572	727	956
573	904	774
574	746	810
575	671	774
576	224	119
577	534	440
578	868	140
579	953	644
580	435	453
581	30	375
582	728	771
583	658	957
584	849	732
585	828	205
586	653	232
587	907	538
588	965	757
589	797	289
590	153	500
591	984	975
592	210	487
593	918	731
594	6	730
595	403	8
596	487	855
597	799	509
598	947	98
599	169	748
600	891	323
601	300	590
602	913	381
603	39	381
604	856	808
605	936	837
606	129	651
607	830	332
608	307	952
609	458	566
610	602	101
611	630	520
612	815	636
613	543	212
614	117	922
615	125	576
616	114	989
617	312	602
618	779	712
619	451	588
620	754	189
621	189	441
622	543	704
623	792	515
624	968	884
625	201	916
626	883	310
627	451	111
628	62	245
629	315	753
630	36	990
631	310	771
632	306	753
633	469	239
634	386	441
635	465	318
636	191	43
637	368	647
638	804	204
639	760	579
640	721	232
641	304	371
642	365	994
643	611	277
644	259	524
645	288	859
646	395	479
647	454	277
648	856	320
649	600	5
650	755	722
651	843	593
652	438	103
653	733	748
654	528	860
655	725	275
656	160	685
657	643	823
658	234	71
659	753	868
660	656	924
661	212	216
662	595	614
663	937	413
664	926	485
665	823	916
666	658	387
667	264	815
668	520	178
669	619	649
670	839	778
671	747	524
672	810	240
673	469	789
674	820	169
675	740	230
676	206	177
677	717	336
678	473	370
679	590	755
680	261	810
681	433	420
682	901	426
683	833	466
684	525	46
685	226	875
686	982	543
687	236	851
688	618	932
689	29	466
690	515	90
691	341	804
692	701	533
693	733	573
694	984	713
695	572	670
696	574	835
697	381	613
698	325	847
699	776	917
700	259	718
701	543	169
702	367	329
703	282	912
704	991	308
705	869	669
706	375	662
707	553	731
708	591	313
709	554	196
710	699	318
711	771	352
712	46	403
713	27	44
714	144	283
715	911	49
716	260	512
717	862	466
718	741	382
719	288	320
720	126	235
721	64	991
722	982	802
723	31	32
724	761	720
725	457	786
726	808	802
727	608	519
728	991	496
729	226	816
730	223	395
731	362	243
732	713	816
733	233	515
734	979	937
735	260	592
736	533	740
737	658	803
738	334	65
739	267	773
740	405	990
741	900	291
742	867	590
743	863	244
744	16	213
745	164	164
746	248	616
747	433	674
748	942	823
749	324	984
750	937	461
751	444	112
752	579	437
753	917	336
754	453	947
755	447	267
756	785	315
757	362	950
758	169	910
759	385	47
760	710	719
761	738	534
762	206	392
763	166	95
764	969	93
765	173	317
766	37	982
767	813	130
768	71	662
769	858	352
770	284	845
771	126	854
772	462	628
773	460	789
774	656	959
775	628	314
776	685	602
777	471	16
778	202	796
779	590	772
780	607	606
781	114	150
782	472	587
783	355	60
784	355	169
785	850	222
786	295	148
787	439	955
788	924	479
789	628	359
790	472	877
791	27	339
792	921	240
793	927	446
794	899	398
795	452	215
796	670	958
797	782	622
798	189	436
799	606	713
800	208	339
801	237	889
802	349	622
803	442	125
804	295	461
805	923	920
806	728	4
807	316	808
808	125	993
809	798	839
810	727	273
811	654	328
812	506	960
813	632	60
814	816	127
815	436	408
816	901	481
817	122	252
818	510	132
819	744	559
820	751	543
821	305	648
822	909	884
823	799	294
824	126	310
825	997	92
826	638	443
827	147	830
828	144	173
829	837	541
830	511	96
831	510	403
832	45	829
833	710	617
834	894	770
835	473	457
836	267	805
837	508	908
838	508	540
839	872	589
840	593	862
841	370	662
842	310	259
843	852	9
844	135	30
845	497	360
846	265	958
847	250	381
848	726	118
849	942	630
850	281	972
851	514	806
852	793	560
853	284	258
854	186	820
855	828	349
856	630	405
857	458	527
858	563	480
859	463	949
860	526	396
861	820	327
862	929	931
863	731	103
864	176	701
865	972	149
866	324	327
867	305	499
868	379	861
869	264	269
870	456	633
871	658	99
872	101	937
873	57	845
874	520	3
875	369	560
876	279	778
877	156	877
878	217	915
879	867	22
880	955	856
881	398	274
882	393	477
883	722	630
884	170	794
885	384	983
886	553	818
887	434	919
888	844	988
889	822	686
890	105	372
891	537	932
892	906	761
893	525	410
894	764	111
895	533	778
896	730	830
897	797	670
898	330	801
899	143	825
900	857	256
901	853	837
902	979	573
903	228	104
904	266	764
905	953	344
906	785	901
907	821	201
908	629	122
909	589	293
910	14	480
911	302	291
912	789	829
913	832	708
914	572	902
915	34	779
916	928	800
917	303	773
918	454	545
919	400	935
920	460	791
921	18	794
922	802	842
923	425	209
924	883	82
925	633	265
926	341	385
927	841	235
928	984	985
929	414	773
930	900	401
931	805	318
932	345	779
933	467	369
934	822	48
935	729	48
936	210	373
937	436	26
938	793	617
939	274	706
940	727	821
941	422	113
942	359	873
943	987	49
944	367	345
945	505	942
946	548	231
947	725	984
948	955	758
949	504	57
950	194	624
951	226	91
952	938	774
953	493	875
954	933	942
955	209	106
956	821	483
957	451	625
958	270	648
959	405	471
960	781	981
961	934	381
962	297	886
963	941	798
964	463	626
965	667	541
966	193	123
967	876	408
968	460	525
969	421	809
970	33	180
971	45	995
972	300	222
973	944	205
974	882	663
975	117	218
976	957	621
977	405	557
978	741	61
979	33	660
980	489	533
981	897	491
982	142	145
983	260	72
984	59	650
985	743	801
986	514	295
987	522	442
988	222	750
989	438	797
990	590	122
991	818	740
992	399	584
993	432	134
994	221	639
995	960	89
996	910	774
997	307	386
998	236	464
999	206	266
1000	638	906
1001	383	55
DEMAND_SECTION
1	0
2	6
3	9
4	2
5	4
6	3
7	6
8	2
9	6
10	2
11	9
12	1
13	9
14	7
15	5
16	6
17	6
18	8
19	9
20	4
21	3
22	8
23	2
24	7
25	4
26	8
27	4
28	4
29	4
30	2
31	8
32	9
33	7
34	3
35	3
36	7
37	7
38	5
39	3
40	3
41	9
42	7
43	3
44	2
45	4
46	8
47	3
48	5
49	8
50	1
51	9
52	8
53	8
54	9
55	3
56	1
57	3
58	4
59	3
60	9
61	5
62	6
63	7
64	1
65	2
66	9
67	9
68	1
69	1
70	3
71	8
72	8
73	6
74	9
75	4
76	6
77	9
78	6
79	2
80	1
81	5
82	5
83	1
84	3
85	4
86	1
87	5
88	2
89	1
90	5
91	2
92	7
93	5
94	8
95	2
96	4
97	2
98	5
99	7
100	2
101	1
102	2
103	5
104	6
105	3
106	9
107	4
108	1
109	8
110	8
111	5
112	5
113	5
114	2
115	3
116	1
117	4
118	8
119	8
120	2
121	7
122	7
123	4
124	1
125	5
126	6
127	3
128	6
129	5
130	5
131	9
132	7
133	7
134	7
135	3
136	6
137	1
138	8
139	5
140	6
141	5
142	3
143	4
144	1
145	6
146	7
147	6
148	2
149	4
150	6
151	4
152	3
153	3
154	1
155	6
156	8
157	1
158	8
159	5
160	6
161	7
162	8
163	9
164	6
165	9
166	5
167	2
168	9
169	3
170	4
171	5
172	8
173	1
174	1
175	8
176	9
177	7
178	7
179	8
180	9
181	3
182	4
183	7
184	2
185	1
186	9
187	4
188	7
189	8
190	9
191	5
192	3
193	6
194	7
195	5
196	8
197	5
198	7
199	1
200	6
201	1
202	3
203	2
204	9
205	8
206	5
207	6
208	2
209	4
210	5
211	6
212	5
213	5
214	4
215	4
216	4
217	8
218	5
219	8
220	2
221	4
222	7
223	1
224	6
225	1
226	1
227	1
228	1
229	1
230	6
231	6
232	5
233	1
234	8
235	3
236	9
237	9
238	1
239	1
240	6
241	2
242	6
243	3
244	4
245	4
246	3
247	2
248	8
249	2
250	5
251	5
252	9
253	8
254	3
255	4
256	1
257	7
258	3
259	8
260	8
261	3
262	4
263	3
264	3
265	3
266	4
267	5
268	7
269	4
270	2
271	1
272	2
273	8
274	5
275	4
276	9
277	8
278	8
279	6
280	2
281	9
282	4
283	1
284	6
285	7
286	8
287	7
288	4
289	3
290	6
291	1
292	6
293	7
294	8
295	9
296	1
297	3
298	7
299	7
300	4
301	7
302	5
303	8
304	3
305	5
306	8
307	7
308	9
309	7
310	7
311	6
312	9
313	6
314	1
315	8
316	4
317	9
318	4
319	4
320	4
321	7
322	4
323	8
324	7
325	3
326	8
327	9
328	1
329	7
330	5
331	4
332	9
333	9
334	4
335	7
336	8
337	6
338	7
339	1
340	9
341	3
342	6
343	1
344	8
345	4
346	2
347	6
348	5
349	9
350	9
351	5
352	1
353	3
354	1
355	7
356	8
357	1
358	7
359	8
360	9
361	4
362	4
363	5
364	9
365	3
366	4
367	4
368	7
369	6
370	3
371	9
372	8
373	8
374	8
375	2
376	7
377	9
378	3
379	9
380	6
381	9
382	3
383	1
384	8
385	4
386	4
387	1
388	4
389	1
390	6
391	4
392	7
393	3
394	8
395	5
396	7
397	4
398	1
399	3
400	6
401	1
402	6
403	5
404	2
405	5
406	9
407	6
408	3
409	8
410	9
411	9
412	9
413	1
414	5
415	8
416	3
417	2
418	7
419	4
420	5
421	2
422	3
423	7
424	3
425	9
426	8
427	5
428	2
429	2
430	9
431	7
432	2
433	1
434	6
435	8
436	1
437	2
438	6
439	5
440	3
441	1
442	5
443	9
444	5
445	6
446	5
447	3
448	9
449	8
450	1
451	7
452	4
453	9
454	9
455	2
456	7
457	5
458	3
459	4
460	4
461	5
462	6
463	5
464	6
465	4
466	2
467	1
468	7
469	2
470	9
471	6
472	8
473	3
474	3
475	6
476	7
477	4
478	5
479	5
480	2
481	6
482	3
483	7
484	9
485	6
486	2
487	7
488	3
489	7
490	9
491	4
492	6
493	2
494	1
495	3
496	1
497	9
498	4
499	6
500	7
501	8
502	4
503	3
504	6
505	5
506	3
507	4
508	5
509	8
510	7
511	2
512	8
513	6
514	2
515	1
516	2
517	1
518	7
519	7
520	9
521	3
522	8
523	4
524	5
525	1
526	7
527	3
528	1
529	8
530	7
531	3
532	3
533	2
534	4
535	2
536	8
537	2
538	8
539	3
540	3
541	4
542	8
543	4
544	5
545	4
546	8
547	7
548	6
549	7
550	2
551	2
552	9
553	4
554	8
555	1
556	5
557	5
558	5
559	9
560	7
561	3
562	1
563	6
564	1
565	1
566	2
567	5
568	7
569	8
570	2
571	1
572	3
573	3
574	5
575	6
576	6
577	8
578	2
579	6
580	9
581	1
582	6
583	4
584	2
585	1
586	2
587	9
588	2
589	2
590	2
591	3
592	2
593	6
594	7
595	6
596	8
597	7
598	5
599	8
600	1
601	2
602	2
603	6
604	6
605	6
606	4
607	7
608	3
609	6
610	2
611	2
612	8
613	4
614	8
615	3
616	9
617	2
618	6
619	1
620	7
621	3
622	1
623	5
624	9
625	2
626	5
627	8
628	6
629	3
630	1
631	6
632	6
633	5
634	7
635	3
636	4
637	4
638	5
639	7
640	1
641	4
642	6
643	3
644	6
645	7
646	7
647	5
648	8
649	9
650	1
651	8
652	4
653	4
654	9
655	6
656	3
657	3
658	3
659	9
660	8
661	2
662	4
663	3
664	2
665	1
666	5
667	4
668	7
669	7
670	6
671	2
672	8
673	1
674	5
675	5
676	8
677	6
678	8
679	1
680	2
681	8
682	3
683	3
684	4
685	5
686	8
687	1
688	3
689	8
690	2
691	6
692	5
693	3
694	3
695	2
696	3
697	2
698	9
699	1
700	9
701	3
702	1
703	8
704	7
705	8
706	5
707	6
708	2
709	7
710	8
711	5
712	8
713	6
714	2
715	5
716	2
717	5
718	1
719	5
720	1
721	4
722	2
723	3
724	7
725	4
726	5
727	1
728	3
729	9
730	3
731	3
732	9
733	8
734	9
735	2
736	4
737	3
738	2
739	8
740	4
741	5
742	4
743	1
744	6
745	5
746	1
747	7
748	8
749	3
750	2
751	6
752	7
753	7
754	6
755	3
756	8
757	5
758	9
759	1
760	3
761	7
762	8
763	7
764	4
765	1
766	8
767	7
768	9
769	9
770	1
771	3
772	3
773	6
774	9
775	7
776	4
777	4
778	4
779	4
780	7
781	5
782	6
783	7
784	1
785	1
786	8
787	4
788	2
789	8
790	3
791	8
792	1
793	1
794	4
795	8
796	3
797	5
798	9
799	5
800	7
801	2
802	6
803	2
804	1
805	8
806	7
807	5
808	3
809	7
810	8
811	6
812	2
813	6
814	3
815	4
816	5
817	4
818	8
819	2
820	9
821	6
822	8
823	5
824	3
825	4
826	4
827	9
828	1
829	8
830	8
831	8
832	3
833	8
834	5
835	2
836	3
837	6
838	1
839	7
840	2
841	6
842	1
843	3
844	4
845	8
846	6
847	1
848	9
849	6
850	9
851	9
852	3
853	3
854	2
855	8
856	7
857	2
858	4
859	8
860	7
861	4
862	1
863	6
864	4
865	7
866	5
867	8
868	9
869	9
870	7
871	9
872	9
873	5
874	7
875	8
876	8
877	2
878	9
879	9
880	6
881	4
882	9
883	3
884	2
885	7
886	3
887	4
888	3
889	2
890	3
891	3
892	7
893	9
894	4
895	4
896	7
897	8
898	8
899	1
900	9
901	2
902	2
903	5
904	4
905	9
906	6
907	8
908	7
909	1
910	1
911	6
912	2
913	8
914	6
915	8
916	4
917	3
918	7
919	8
920	1
921	8
922	7
923	6
924	6
925	5
926	6
927	8
928	6
929	4
930	1
931	7
932	9
933	8
934	8
935	5
936	3
937	6
938	8
939	2
940	4
941	7
942	2
943	8
944	3
945	7
946	1
947	7
948	3
949	1
950	1
951	7
952	8
953	5
954	1
955	3
956	7
957	2
958	5
959	2
960	3
961	1
962	3
963	2
964	2
965	9
966	1
967	2
968	5
969	4
970	1
971	1
972	5
973	6
974	2
975	8
976	1
977	6
978	9
979	8
980	3
981	1
982	9
983	5
984	6
985	7
986	9
987	9
988	4
989	4
990	3
991	6
992	7
993	5
994	2
995	2
996	2
997	1
998	2
999	9
1000	5
1001	5
TIME_WINDOW_SECTION
1	0	3000
2	308	2189
3	391	1889
4	667	2377
5	0	1755
6	264	1292
7	840	1708
8	1236	3000
9	846	1291
10	1083	2520
11	1560	2254
12	1088	1853
13	608	961
14	569	1756
15	0	1031
16	0	1721
17	769	1010
18	129	1865
19	1432	2562
20	363	1485
21	1877	2490
22	862	2669
23	1649	1878
24	503	1396
25	0	1353
26	1178	2064
27	1028	2053
28	2237	2451
29	1124	2087
30	1306	2512
31	802	2588
32	1006	2788
33	644	1820
34	292	1017
35	691	971
36	1913	2207
37	766	1839
38	550	1759
39	0	871
40	239	1386
41	1758	2100
42	284	1364
43	271	2161
44	793	1923
45	795	2730
46	992	1698
47	1199	2516
48	0	1311
49	0	1166
50	712	2117
51	313	1387
52	1023	2098
53	954	1632
54	534	2429
55	1740	2031
56	814	2053
57	0	1917
58	490	1621
59	97	1390
60	947	1209
61	661	1326
62	801	2731
63	326	2261
64	680	2472
65	615	1453
66	0	1635
67	233	1316
68	996	2269
69	1828	2046
70	793	2122
71	460	1749
72	169	1808
73	44	1248
74	1294	1818
75	0	1028
76	1079	2608
77	567	2371
78	405	2075
79	206	1246
80	345	2057
81	247	1962
82	1125	2103
83	0	1287
84	436	2386
85	1504	1983
86	1702	1978
87	0	1794
88	60	1883
89	0	1542
90	1150	1729
91	1014	2263
92	596	2354
93	403	1536
94	877	1986
95	818	2617
96	1091	2804
97	988	1411
98	958	1483
99	1284	2080
100	951	2463
101	1288	2561
102	97	1751
103	819	1407
104	1091	3000
105	982	1971
106	200	1758
107	79	1732
108	294	2231
109	265	1491
110	554	2085
111	763	981
112	0	1522
113	394	628
114	122	1627
115	827	2729
116	1106	2693
117	1003	2605
118	188	1542
119	0	1109
120	1377	3000
121	0	468
122	276	921
123	379	1336
124	783	1525
125	1067	2090
126	1934	2200
127	1277	1885
128	210	1749
129	1087	1516
130	314	1472
131	28	1668
132	0	1300
133	1201	2357
134	1726	2060
135	849	1148
136	1171	2351
137	485	731
138	136	1368
139	2163	2633
140	1495	2463
141	1510	2361
142	980	2618
143	708	2252
144	1145	2532
145	0	1360
146	1273	2663
147	120	2099
148	1069	2835
149	531	787
150	728	1085
151	817	2206
152	764	2412
153	245	1430
154	1441	3000
155	1022	1373
156	1294	1847
157	1871	2224
158	1478	2642
159	1170	1735
160	1706	2911
161	65	884
162	1729	2224
163	1833	3000
164	0	1650
165	14	1312
166	1004	1654
167	1200	1815
168	0	1501
169	547	1441
170	1205	2406
171	770	1211
172	54	327
173	546	1447
174	527	2337
175	1377	2370
176	1064	1845
177	684	2121
178	802	1954
179	1482	1790
180	1202	1691
181	921	1253
182	625	1631
183	492	1214
184	340	2079
185	1067	1790
186	721	1229
187	1362	2079
188	1321	2640
189	1124	2379
190	962	1891
191	827	1330
192	1364	3000
193	1178	2479
194	1192	2267
195	638	2310
196	901	2283
197	317	1435
198	2064	2346
199	1672	2197
200	683	2423
201	0	543
202	946	2100
203	570	1886
204	527	1422
205	2026	2259
206	0	1060
207	1193	1924
208	351	2302
209	521	2411
210	927	1157
211	1250	1690
212	1455	2001
213	915	1206
214	68	843
215	197	1383
216	599	2517
217	1541	2103
218	1973	2478
219	20	1765
220	281	669
221	669	2098
222	234	1681
223	379	1823
224	982	2263
225	199	1957
226	409	1811
227	430	1772
228	1553	2214
229	1631	3000
230	1407	2091
231	762	1816
232	638	2500
233	1291	2294
234	1094	2957
235	119	831
236	1144	2481
237	1478	1956
238	390	1442
239	488	2121
240	770	1568
241	223	885
242	1084	2062
243	1264	1888
244	926	2315
245	1188	2543
246	1074	2127
247	1748	2308
248	1374	2124
249	1187	2158
250	336	870
251	1202	2266
252	2136	2378
253	773	2676
254	968	1877
255	651	1983
256	1274	2607
257	696	2307
258	986	2740
259	1963	2368
260	1256	2009
261	562	2365
262	940	2717
263	906	2318
264	303	1797
265	960	1807
266	1220	1935
267	0	1532
268	336	1427
269	127	1757
270	1868	2704
271	14	1921
272	1378	2382
273	1366	1795
274	242	1472
275	945	2424
276	829	1730
277	807	1978
278	1267	1518
279	382	2099
280	420	2204
281	1382	1642
282	1541	2875
283	951	1809
284	1019	1860
285	1278	2425
286	1152	2671
287	386	2289
288	1408	2279
289	1231	2210
290	1026	1540
291	454	1375
292	124	845
293	386	1959
294	215	2122
295	1502	2107
296	1517	1927
297	697	2651
298	254	2087
299	1315	2572
300	1426	2349
301	1378	2795
302	0	1514
303	993	1808
304	200	1689
305	1342	2733
306	1539	2148
307	1259	2101
308	839	1468
309	741	1053
310	1390	2966
311	311	1463
312	132	1613
313	1437	1706
314	984	2115
315	1129	3000
316	1002	2142
317	947	2403
318	0	1545
319	1332	1975
320	1281	1892
321	779	2033
322	267	1047
323	0	1263
324	1302	1785
325	0	1553
326	668	2561
327	9	1711
328	870	1506
329	1045	1962
330	210	1859
331	244	1935
332	1450	2023
333	0	1268
334	724	972
335	508	963
336	1288	2630
337	1022	1438
338	1599	2003
339	893	1163
340	597	2559
341	1567	2337
342	732	2510
343	255	1606
344	192	1654
345	1226	2710
346	977	1797
347	2366	2748
348	512	2276
349	525	1419
350	954	1841
351	1404	1660
352	576	1002
353	1237	2413
354	625	1693
355	773	1221
356	0	1942
357	146	1534
358	1262	2329
359	31	1572
360	471	1982
361	937	2029
362	1301	2360
363	440	1144
364	324	1506
365	163	1890
366	837	1904
367	812	2609
368	520	1674
369	191	1081
370	468	2186
371	113	1508
372	333	2313
373	1043	1814
374	634	2001
375	599	1125
376	1021	2310
377	1569	2865
378	188	1462
379	0	528
380	1144	1575
381	1556	1864
382	1240	2935
383	743	2708
384	597	1789
385	58	2006
386	269	1755
387	1944	2484
388	428	2217
389	1719	3000
390	1080	2735
391	716	1633
392	929	1984
393	810	1650
394	1062	1290
395	428	1771
396	291	1155
397	1349	2348
398	631	2549
399	889	1769
400	1207	2148
401	1115	2053
402	575	1796
403	552	1934
404	0	1261
405	1175	1482
406	1244	2679
407	391	921
408	503	2463
409	1042	2310
410	560	879
411	1395	2020
412	1289	2509
413	776	1097
414	0	1201
415	148	1242
416	23	529
417	1728	2733
418	173	1645
419	735	1171
420	604	1299
421	651	1670
422	1246	2055
423	1172	1513
424	687	1079
425	1289	2375
426	689	1282
427	1012	2868
428	1501	2565
429	266	829
430	555	2448
431	1208	2127
432	786	1047
433	1769	2067
434	1528	1987
435	1349	1622
436	363	1978
437	494	2177
438	204	1958
439	363	1742
440	1566	2250
441	999	1212
442	850	2252
443	1577	3000
444	1052	1565
445	1306	1733
446	1244	1728
447	377	2203
448	1673	1997
449	328	2112
450	1239	2345
451	440	1988
452	601	1371
453	364	2326
454	1643	2540
455	633	1357
456	164	1466
457	797	2630
458	604	2580
459	1354	1576
460	493	1966
461	355	2269
462	1397	1692
463	893	1587
464	2082	2377
465	420	2168
466	1398	2566
467	622	899
468	871	2637
469	1383	2621
470	347	1458
471	1658	2196
472	334	2022
473	240	1439
474	203	1256
475	1765	2275
476	1622	2211
477	1114	2752
478	1721	2212
479	766	989
480	0	1071
481	1509	1838
482	276	1570
483	1156	2461
484	1236	1482
485	649	1671
486	1308	2348
487	310	1754
488	1658	2138
489	738	2693
490	626	1509
491	2195	2595
492	769	2537
493	0	1568
494	83	1412
495	1975	2583
496	414	2287
497	671	1887
498	653	1550
499	66	1315
500	0	1452
501	1641	1939
502	1433	2764
503	548	1506
504	1303	2882
505	1553	2568
506	496	1031
507	0	863
508	482	1736
509	265	606
510	517	1526
511	0	585
512	484	1472
513	951	1580
514	861	1394
515	1303	1765
516	354	2289
517	913	1808
518	0	1421
519	321	1676
520	1267	1526
521	1033	1570
522	1136	2933
523	954	2254
524	134	1724
525	1692	2035
526	475	2305
527	2212	3000
528	863	2241
529	395	1706
530	1666	2485
531	399	2386
532	442	1577
533	1541	2428
534	2063	2477
535	1715	2043
536	1225	2716
537	844	2145
538	1068	1495
539	1055	2475
540	100	1971
541	1149	2252
542	1063	2386
543	1245	2267
544	762	2567
545	181	615
546	843	1091
547	182	1625
548	997	1467
549	0	1117
550	167	1201
551	1889	2266
552	0	1637
553	1130	2664
554	1736	2532
555	298	2030
556	500	1202
557	1009	1620
558	1219	2839
559	840	2474
560	828	1317
561	411	2317
562	965	2576
563	358	1347
564	0	1249
565	1470	2369
566	613	1138
567	635	1570
568	1501	2490
569	1628	3000
570	948	1553
571	509	1368
572	0	1648
573	971	1683
574	861	1064
575	1265	1655
576	957	1789
577	1204	2383
578	0	798
579	1054	1732
580	1857	2680
581	779	1424
582	975	2081
583	0	1740
584	1834	2530
585	1381	2355
586	0	1480
587	110	1463
588	523	1243
589	821	2627
590	937	2485
591	426	1361
592	0	1847
593	1675	2236
594	965	2049
595	1568	2256
596	429	1238
597	49	1451
598	1106	2121
599	167	1582
600	1954	3000
601	1125	2847
602	1603	2811
603	673	1509
604	309	1134
605	250	1014
606	117	1701
607	0	622
608	731	1605
609	505	1211
610	0	1512
611	388	1955
612	704	972
613	649	1127
614	456	2334
615	557	1103
616	635	1742
617	1459	2410
618	0	1485
619	635	1991
620	125	388
621	723	2151
622	631	2264
623	415	961
624	0	1623
625	1075	2286
626	0	872
627	1307	3000
628	132	1703
629	843	1923
630	566	2117
631	1425	2206
632	0	1658
633	823	1732
634	1821	2552
635	1172	2997
636	1713	2398
637	330	2069
638	1830	2113
639	1167	2464
640	1748	2207
641	1331	2548
642	1041	1986
643	993	2488
644	704	2451
645	848	2171
646	549	1037
647	300	1564
648	962	2578
649	1710	3000
650	936	1222
651	1979	2517
652	1019	1432
653	253	1870
654	926	1987
655	1319	1686
656	504	2139
657	1426	2656
658	161	1183
659	87	1777
660	0	1768
661	1696	2569
662	1170	1833
663	0	1224
664	1533	1954
665	679	2170
666	2181	2820
667	1332	2213
668	1300	2245
669	523	947
670	1268	2344
671	994	2917
672	1830	3000
673	821	1941
674	0	1093
675	0	1232
676	556	1945
677	1835	2518
678	895	1179
679	411	2201
680	320	1485
681	1296	1883
682	32	680
683	1426	2581
684	1788	2421
685	1265	2467
686	1574	2516
687	785	1919
688	722	1936
689	11	1924
690	0	1546
691	1029	2852
692	1669	2474
693	768	2644
694	994	2330
695	1038	1844
696	967	2537
697	1648	1976
698	804	1974
699	917	2364
700	1490	1701
701	1350	2695
702	1597	2470
703	560	1417
704	0	1240
705	1040	1568
706	427	883
707	1601	2186
708	880	2490
709	1206	2026
710	193	1801
711	0	1041
712	936	1920
713	950	2921
714	1205	2593
715	2072	2391
716	953	2487
717	0	1529
718	1433	2910
719	1422	2785
720	390	1210
721	593	2240
722	947	1713
723	474	2444
724	99	1114
725	76	1984
726	801	1720
727	974	1385
728	0	1035
729	729	1280
730	686	1992
731	645	1393
732	481	1969
733	742	2109
734	947	2303
735	979	1239
736	217	1940
737	863	1596
738	788	1070
739	887	1504
740	1110	2223
741	585	2194
742	97	1366
743	239	704
744	945	1455
745	1424	2324
746	793	2319
747	1515	2069
748	1384	2069
749	1204	2368
750	327	2085
751	373	674
752	676	1474
753	1210	2395
754	915	1279
755	122	1508
756	2252	2726
757	975	1235
758	1389	1839
759	1322	2380
760	2019	2458
761	359	722
762	1053	2821
763	642	1646
764	639	1166
765	444	2224
766	530	2143
767	554	856
768	1634	1836
769	156	628
770	1062	1297
771	993	1379
772	1444	2203
773	1472	1742
774	1251	2517
775	0	1215
776	460	2438
777	1255	1975
778	478	2268
779	1509	2668
780	233	1172
781	1591	2520
782	0	1763
783	1925	2477
784	346	1177
785	2465	2706
786	408	1184
787	1627	1918
788	516	1649
789	0	1846
790	1435	1653
791	672	2283
792	715	2233
793	1578	2379
794	1140	2993
795	1853	2277
796	491	1111
797	409	1481
798	692	1117
799	1432	2561
800	891	2309
801	1094	1901
802	665	1669
803	716	1535
804	1155	1597
805	636	1055
806	2234	2462
807	1473	1900
808	1416	1834
809	693	2490
810	0	1505
811	1469	1933
812	630	1326
813	1419	3000
814	410	996
815	1331	3000
816	1272	2374
817	766	1415
818	0	1532
819	0	1739
820	497	1978
821	1610	2532
822	893	2627
823	0	824
824	934	1588
825	500	1682
826	1590	2360
827	294	1901
828	1730	2411
829	567	1470
830	1410	3000
831	1188	2531
832	890	2376
833	1140	1455
834	1224	3000
835	1180	1680
836	451	2394
837	1402	2183
838	711	2520
839	0	1376
840	817	1594
841	849	1625
842	614	2194
843	492	2005
844	1156	1838
845	568	1748
846	1085	1630
847	0	1592
848	12	472
849	642	2432
850	1276	2244
851	0	1732
852	571	2375
853	1926	2405
854	849	1844
855	496	1403
856	324	1287
857	448	1453
858	1975	2184
859	1354	1997
860	300	1979
861	632	1417
862	830	1811
863	1673	2339
864	459	1613
865	17	1631
866	445	680
867	375	2197
868	417	1230
869	132	1872
870	858	1758
871	2023	2850
872	950	1712
873	655	2464
874	304	2292
875	412	1830
876	499	1978
877	1072	1316
878	900	1960
879	93	1957
880	1054	1472
881	1419	3000
882	0	1396
883	1659	2974
884	367	1429
885	848	1452
886	925	2906
887	1259	2680
888	93	1974
889	412	935
890	404	1803
891	193	1374
892	142	1845
893	0	1438
894	1875	3000
895	40	1928
896	1008	1698
897	680	1387
898	812	2442
899	529	1644
900	1530	3000
901	1132	1841
902	1241	2355
903	389	1430
904	1253	2564
905	891	2660
906	1481	1842
907	179	1194
908	1394	3000
909	0	1555
910	443	2186
911	829	1270
912	1067	3000
913	2042	2280
914	905	1636
915	1454	1918
916	1026	1336
917	412	2325
918	22	1553
919	1526	2207
920	198	2055
921	309	1786
922	1018	1386
923	942	2060
924	341	1528
925	815	1534
926	1097	2558
927	0	1397
928	857	2641
929	499	2307
930	0	963
931	1792	2213
932	181	1841
933	799	1494
934	1590	3000
935	228	2045
936	729	2497
937	800	2491
938	1118	2762
939	888	2243
940	762	1423
941	1685	2031
942	956	1832
943	670	1678
944	1322	2346
945	1204	1924
946	1349	2552
947	478	2156
948	228	2187
949	1956	2415
950	1133	2345
951	354	2238
952	314	2236
953	1161	1391
954	1102	1763
955	268	2020
956	1434	1889
957	1035	2369
958	1320	2424
959	725	1056
960	626	2421
961	997	2561
962	963	2440
963	1474	2705
964	755	1761
965	694	2244
966	960	1458
967	471	1534
968	648	1010
969	460	2340
970	1229	1429
971	565	2279
972	392	2220
973	526	1534
974	1823	2840
975	523	1431
976	340	2066
977	1702	2642
978	801	2482
979	1610	2114
980	366	1581
981	1416	2883
982	503	1899
983	1607	2494
984	1339	1974
985	847	2431
986	277	1622
987	641	1075
988	663	1035
989	632	1263
990	1473	3000
991	951	1492
992	129	1710
993	1100	2302
994	295	1430
995	0	1613
996	0	1675
997	1025	3000
998	775	2426
999	0	1858
1000	392	1547
1001	1079	1674
BACKHAUL_SECTION
5	7	10	16	19	26	30	34	47	68	79	87	97	103	104	106	108	110	111	113	129	137	138	143	145	157	163	170	182	185	192	193	194	198	199	209	215	216	223	233	236	246	248	264	270	281	284	289	292	295	296	297	303	304	305	306	307	309	319	326	328	329	335	338	340	350	356	360	364	366	368	374	379	381	382	392	394	397	418	423	436	438	442	444	460	461	462	464	466	474	479	480	482	487	488	490	496	513	519	521	532	533	546	549	558	571	572	574	577	581	588	589	594	597	599	601	603	604	626	627	643	645	647	651	655	658	659	660	661	664	667	668	670	677	683	689	692	694	697	706	716	718	731	738	752	757	765	769	776	780	785	794	797	798	802	805	807	808	810	823	830	834	835	836	837	839	846	849	851	852	858	869	878	886	894	896	898	906	916	929	931	934	941	943	947	950	955	958	960	963	971	972	973	978	979	981	984	987	988	992	-1
DEPOT_SECTION
1
-1
EOF
