NAME : n1001-0043
COMMENT : "Generated by pyvrp_manuel (OVRPBLTW)"
TYPE : OVRPBLTW
DIMENSION : 1001
EDGE_WEIGHT_TYPE : EUC_2D
CAPACITY : 150
VEHICLES : 1000
OPEN_ROUTE : YES
DISTANCE : 3000
SERVICE_TIME : 200
NODE_COORD_SECTION
1	752	554
2	374	631
3	9	876
4	5	938
5	987	5
6	826	284
7	74	914
8	53	350
9	256	375
10	738	237
11	184	843
12	658	900
13	681	762
14	280	791
15	231	606
16	467	376
17	17	657
18	909	730
19	506	865
20	460	861
21	672	310
22	501	743
23	279	678
24	672	682
25	785	446
26	789	197
27	121	624
28	97	583
29	179	695
30	530	29
31	521	19
32	355	514
33	640	173
34	439	583
35	4	869
36	412	461
37	820	232
38	309	827
39	156	955
40	370	409
41	645	455
42	339	865
43	86	864
44	138	42
45	115	452
46	493	344
47	400	736
48	220	242
49	665	170
50	461	732
51	468	163
52	402	342
53	262	596
54	17	147
55	495	179
56	872	601
57	975	169
58	965	588
59	524	660
60	453	943
61	389	98
62	235	557
63	426	125
64	684	324
65	811	776
66	80	88
67	920	410
68	171	203
69	334	872
70	871	734
71	817	18
72	815	394
73	731	911
74	224	634
75	728	722
76	6	564
77	574	609
78	566	551
79	816	976
80	796	354
81	245	368
82	723	563
83	546	661
84	882	118
85	679	721
86	256	5
87	679	704
88	696	870
89	407	421
90	283	265
91	132	38
92	980	310
93	536	327
94	80	66
95	886	888
96	836	472
97	320	34
98	865	400
99	941	440
100	198	723
101	640	783
102	926	740
103	46	269
104	327	340
105	105	745
106	405	789
107	84	146
108	887	923
109	273	961
110	686	921
111	152	483
112	80	617
113	665	459
114	375	683
115	504	217
116	432	696
117	820	391
118	777	495
119	991	496
120	419	8
121	15	721
122	83	45
123	525	457
124	794	222
125	155	978
126	52	655
127	719	516
128	46	517
129	870	222
130	492	424
131	393	417
132	549	242
133	129	122
134	447	796
135	870	153
136	882	326
137	197	90
138	799	819
139	405	710
140	169	122
141	4	85
142	775	427
143	918	424
144	660	50
145	689	895
146	729	348
147	120	180
148	77	540
149	884	579
150	187	32
151	785	472
152	369	743
153	43	857
154	736	728
155	986	380
156	98	608
157	234	712
158	761	899
159	13	346
160	615	38
161	965	708
162	975	233
163	13	624
164	965	171
165	57	543
166	930	548
167	766	631
168	864	965
169	792	472
170	248	838
171	383	161
172	393	825
173	156	979
174	71	865
175	117	335
176	852	912
177	532	7
178	810	955
179	740	623
180	801	798
181	842	124
182	2	61
183	238	900
184	854	977
185	332	840
186	757	636
187	302	214
188	827	978
189	579	357
190	353	278
191	922	653
192	56	585
193	586	256
194	115	980
195	927	486
196	525	682
197	138	840
198	873	863
199	258	518
200	50	830
201	626	446
202	637	135
203	403	821
204	107	39
205	91	803
206	622	567
207	618	231
208	377	456
209	932	179
210	528	151
211	925	743
212	377	534
213	655	39
214	228	530
215	393	199
216	311	42
217	407	191
218	987	742
219	975	933
220	520	408
221	400	21
222	158	666
223	617	603
224	499	201
225	501	730
226	736	508
227	239	72
228	448	266
229	835	178
230	774	369
231	452	511
232	907	870
233	831	212
234	861	786
235	545	959
236	670	848
237	635	66
238	383	566
239	344	2
240	284	379
241	632	404
242	517	15
243	907	817
244	468	933
245	599	459
246	926	221
247	105	425
248	235	556
249	153	563
250	730	504
251	546	687
252	102	258
253	396	776
254	977	243
255	934	722
256	71	248
257	345	854
258	808	867
259	645	668
260	805	500
261	726	750
262	111	789
263	12	224
264	561	25
265	112	21
266	423	553
267	922	862
268	240	940
269	367	432
270	656	180
271	875	261
272	613	400
273	880	223
274	346	812
275	66	665
276	424	701
277	661	41
278	273	260
279	968	966
280	123	60
281	640	355
282	889	475
283	253	839
284	680	962
285	461	504
286	524	987
287	981	342
288	399	943
289	761	81
290	31	647
291	219	645
292	215	552
293	399	172
294	380	199
295	650	411
296	203	559
297	723	813
298	275	163
299	502	752
300	77	590
301	391	950
302	457	748
303	393	91
304	687	865
305	914	825
306	864	152
307	149	813
308	237	454
309	348	320
310	692	21
311	885	59
312	279	452
313	617	76
314	26	79
315	887	941
316	426	428
317	873	547
318	657	688
319	64	961
320	18	7
321	123	162
322	195	818
323	87	457
324	895	527
325	535	555
326	480	862
327	666	470
328	983	424
329	435	787
330	651	692
331	53	451
332	175	350
333	668	667
334	705	609
335	439	278
336	591	88
337	536	379
338	616	606
339	190	592
340	351	359
341	958	397
342	804	284
343	593	859
344	384	941
345	418	343
346	152	360
347	927	681
348	185	139
349	761	844
350	454	851
351	504	160
352	716	591
353	410	81
354	821	461
355	818	985
356	758	678
357	900	320
358	871	843
359	879	743
360	701	486
361	919	641
362	937	271
363	856	538
364	713	551
365	956	742
366	585	682
367	850	808
368	590	526
369	412	5
370	955	331
371	463	174
372	70	774
373	927	849
374	986	981
375	647	511
376	749	470
377	309	491
378	391	116
379	559	805
380	608	522
381	641	633
382	371	324
383	545	464
384	850	857
385	793	102
386	620	525
387	884	773
388	508	29
389	523	150
390	548	237
391	256	673
392	764	219
393	491	365
394	234	190
395	110	112
396	738	768
397	207	569
398	633	932
399	827	965
400	67	515
401	462	924
402	551	206
403	848	262
404	634	623
405	440	557
406	88	67
407	629	728
408	27	645
409	465	411
410	593	997
411	708	76
412	758	827
413	441	632
414	410	375
415	823	79
416	753	700
417	26	86
418	975	21
419	97	621
420	61	163
421	478	84
422	398	640
423	262	455
424	870	292
425	318	909
426	728	958
427	987	568
428	820	847
429	920	754
430	336	687
431	87	275
432	22	637
433	850	724
434	430	966
435	130	307
436	951	20
437	561	151
438	113	353
439	11	55
440	587	978
441	399	662
442	840	292
443	975	524
444	787	974
445	239	42
446	950	334
447	935	628
448	587	879
449	403	641
450	510	566
451	757	686
452	298	6
453	834	244
454	111	944
455	965	665
456	682	938
457	453	457
458	530	403
459	224	606
460	331	827
461	320	973
462	589	569
463	334	408
464	358	844
465	504	152
466	209	538
467	187	18
468	218	932
469	75	128
470	624	773
471	463	995
472	717	758
473	131	137
474	442	784
475	729	357
476	814	554
477	879	749
478	101	357
479	33	902
480	197	5
481	107	766
482	426	96
483	640	780
484	665	669
485	886	510
486	227	952
487	69	946
488	393	15
489	684	512
490	371	54
491	118	703
492	121	59
493	48	199
494	229	166
495	218	58
496	427	995
497	43	327
498	488	747
499	761	399
500	109	943
501	21	468
502	906	776
503	181	784
504	662	945
505	353	643
506	781	572
507	898	803
508	57	873
509	685	170
510	301	361
511	448	844
512	348	622
513	353	555
514	612	671
515	61	985
516	793	276
517	396	614
518	185	427
519	962	979
520	972	453
521	613	444
522	717	101
523	225	276
524	494	136
525	627	804
526	289	38
527	67	246
528	34	432
529	18	514
530	296	383
531	242	70
532	918	49
533	595	365
534	765	611
535	896	804
536	669	392
537	928	440
538	97	847
539	406	447
540	217	35
541	187	405
542	165	277
543	928	439
544	350	841
545	284	5
546	570	280
547	242	734
548	437	101
549	830	808
550	431	979
551	737	217
552	659	427
553	899	837
554	211	77
555	369	229
556	334	985
557	890	874
558	131	857
559	962	493
560	646	345
561	108	190
562	488	755
563	406	826
564	883	921
565	186	367
566	218	552
567	806	476
568	397	545
569	57	510
570	361	135
571	526	515
572	269	31
573	63	106
574	792	736
575	631	114
576	244	111
577	498	93
578	7	68
579	807	304
580	212	836
581	563	825
582	351	238
583	139	920
584	223	539
585	120	228
586	382	117
587	454	665
588	710	284
589	60	953
590	263	103
591	688	298
592	634	265
593	260	874
594	94	549
595	469	182
596	693	685
597	170	225
598	963	278
599	746	735
600	952	350
601	972	243
602	774	879
603	876	604
604	567	224
605	958	30
606	130	845
607	630	26
608	344	938
609	233	817
610	258	843
611	647	192
612	616	184
613	186	800
614	643	848
615	367	228
616	351	772
617	567	610
618	914	319
619	651	481
620	820	563
621	113	710
622	611	259
623	924	342
624	442	380
625	780	46
626	773	294
627	266	981
628	279	852
629	762	943
630	592	348
631	96	606
632	954	720
633	641	253
634	178	552
635	488	606
636	69	234
637	415	884
638	295	224
639	385	776
640	527	17
641	854	306
642	521	540
643	494	647
644	903	712
645	828	338
646	876	641
647	809	791
648	9	548
649	281	758
650	54	561
651	734	416
652	970	90
653	324	668
654	114	421
655	9	391
656	919	125
657	574	706
658	721	657
659	420	195
660	85	71
661	600	908
662	698	116
663	411	131
664	472	509
665	430	664
666	604	446
667	44	454
668	61	326
669	565	858
670	882	258
671	735	346
672	1	368
673	293	842
674	463	647
675	512	192
676	84	323
677	886	692
678	842	748
679	193	449
680	148	833
681	129	394
682	920	496
683	16	424
684	142	811
685	995	29
686	884	0
687	598	226
688	125	110
689	814	263
690	99	721
691	713	369
692	758	896
693	126	914
694	575	816
695	724	51
696	958	577
697	955	566
698	191	483
699	255	860
700	969	622
701	891	872
702	902	609
703	641	554
704	758	889
705	432	694
706	523	769
707	365	917
708	134	16
709	104	857
710	801	220
711	37	174
712	528	901
713	464	263
714	593	357
715	351	621
716	916	320
717	558	961
718	617	246
719	815	683
720	683	512
721	719	5
722	529	778
723	842	777
724	551	386
725	295	745
726	899	773
727	828	711
728	234	8
729	93	333
730	307	751
731	649	717
732	118	740
733	774	119
734	682	172
735	738	481
736	571	843
737	672	800
738	113	860
739	869	537
740	524	570
741	635	595
742	747	380
743	16	345
744	345	52
745	32	481
746	846	817
747	105	260
748	960	571
749	596	818
750	135	357
751	71	966
752	546	870
753	948	212
754	560	784
755	812	997
756	539	171
757	612	815
758	300	674
759	92	507
760	272	882
761	169	870
762	935	697
763	90	433
764	773	296
765	556	276
766	617	797
767	526	712
768	603	265
769	215	420
770	81	928
771	715	772
772	302	927
773	898	480
774	845	274
775	144	25
776	635	644
777	207	160
778	157	163
779	207	403
780	348	747
781	833	905
782	494	428
783	637	514
784	81	272
785	174	663
786	296	743
787	876	845
788	26	917
789	636	979
790	195	656
791	291	357
792	362	248
793	314	563
794	745	166
795	355	126
796	905	785
797	320	115
798	661	376
799	579	146
800	330	907
801	169	762
802	616	721
803	220	774
804	665	341
805	117	500
806	367	847
807	484	40
808	948	444
809	257	735
810	856	235
811	580	324
812	860	96
813	893	206
814	225	133
815	119	336
816	40	998
817	498	248
818	939	287
819	179	122
820	371	691
821	715	264
822	984	248
823	591	797
824	926	362
825	911	447
826	954	720
827	168	259
828	591	425
829	684	412
830	45	807
831	932	400
832	135	118
833	278	536
834	787	693
835	855	901
836	328	573
837	569	588
838	964	307
839	191	168
840	891	777
841	925	652
842	500	324
843	394	154
844	606	1
845	907	416
846	92	363
847	725	260
848	862	356
849	319	126
850	833	575
851	315	270
852	312	852
853	384	613
854	519	482
855	876	584
856	812	804
857	488	403
858	374	802
859	28	457
860	534	851
861	416	906
862	242	427
863	17	272
864	151	733
865	260	850
866	841	57
867	833	536
868	845	598
869	614	390
870	348	561
871	883	883
872	828	418
873	158	486
874	730	662
875	982	202
876	32	861
877	459	365
878	461	385
879	822	795
880	609	888
881	333	470
882	508	34
883	715	154
884	11	100
885	561	627
886	317	379
887	435	140
888	24	644
889	181	125
890	653	837
891	77	955
892	753	386
893	228	526
894	590	606
895	195	176
896	316	342
897	667	618
898	617	805
899	159	26
900	788	605
901	516	426
902	655	635
903	143	391
904	689	167
905	657	653
906	885	807
907	775	761
908	69	662
909	972	662
910	874	559
911	745	31
912	152	393
913	594	48
914	209	505
915	832	413
916	925	228
917	578	867
918	8	453
919	284	788
920	511	118
921	217	100
922	100	308
923	268	826
924	617	75
925	619	756
926	54	370
927	123	494
928	905	302
929	779	300
930	764	688
931	782	27
932	676	763
933	833	999
934	58	222
935	709	466
936	756	952
937	825	946
938	994	972
939	659	25
940	716	91
941	134	926
942	970	717
943	675	630
944	696	837
945	94	10
946	115	229
947	810	980
948	297	743
949	714	692
950	165	432
951	90	939
952	677	154
953	873	883
954	692	984
955	334	326
956	21	251
957	93	169
958	515	525
959	556	683
960	948	116
961	24	149
962	21	481
963	704	86
964	514	379
965	376	369
966	879	215
967	911	310
968	823	54
969	17	795
970	458	82
971	125	727
972	820	911
973	574	36
974	212	116
975	260	397
976	370	121
977	92	276
978	554	956
979	410	139
980	253	30
981	588	307
982	654	114
983	369	242
984	402	627
985	107	174
986	330	184
987	109	220
988	896	541
989	871	212
990	354	970
991	670	151
992	682	369
993	822	492
994	300	872
995	747	836
996	194	253
997	212	38
998	333	859
999	341	96
1000	942	739
1001	35	941
DEMAND_SECTION
1	0
2	6
3	8
4	4
5	8
6	8
7	9
8	5
9	4
10	1
11	1
12	7
13	8
14	2
15	8
16	7
17	2
18	6
19	9
20	9
21	3
22	2
23	2
24	6
25	2
26	4
27	9
28	6
29	4
30	1
31	7
32	3
33	1
34	7
35	9
36	5
37	3
38	2
39	4
40	6
41	4
42	3
43	2
44	3
45	8
46	4
47	9
48	1
49	2
50	7
51	6
52	8
53	4
54	2
55	8
56	3
57	4
58	8
59	2
60	2
61	5
62	5
63	2
64	3
65	9
66	3
67	4
68	1
69	7
70	7
71	5
72	5
73	8
74	6
75	4
76	1
77	2
78	8
79	7
80	7
81	8
82	1
83	8
84	4
85	4
86	5
87	1
88	5
89	4
90	2
91	2
92	6
93	9
94	2
95	6
96	8
97	5
98	3
99	7
100	2
101	6
102	1
103	1
104	7
105	7
106	2
107	1
108	2
109	4
110	8
111	7
112	9
113	2
114	5
115	6
116	9
117	2
118	8
119	2
120	6
121	8
122	6
123	3
124	6
125	9
126	3
127	5
128	7
129	7
130	8
131	5
132	3
133	1
134	3
135	8
136	2
137	5
138	2
139	4
140	2
141	4
142	6
143	7
144	8
145	5
146	6
147	8
148	6
149	1
150	4
151	3
152	1
153	6
154	6
155	2
156	9
157	1
158	4
159	5
160	8
161	8
162	1
163	8
164	9
165	2
166	9
167	8
168	9
169	4
170	7
171	2
172	1
173	8
174	1
175	4
176	5
177	4
178	2
179	4
180	7
181	6
182	8
183	5
184	7
185	7
186	9
187	9
188	9
189	4
190	4
191	8
192	9
193	4
194	9
195	9
196	8
197	2
198	3
199	9
200	5
201	2
202	3
203	3
204	9
205	9
206	3
207	3
208	8
209	5
210	5
211	1
212	7
213	2
214	4
215	7
216	5
217	7
218	1
219	6
220	1
221	5
222	5
223	3
224	1
225	2
226	6
227	1
228	4
229	8
230	3
231	4
232	1
233	7
234	1
235	2
236	6
237	5
238	1
239	1
240	4
241	1
242	9
243	7
244	8
245	5
246	3
247	8
248	1
249	2
250	7
251	2
252	3
253	8
254	9
255	2
256	2
257	4
258	3
259	6
260	9
261	6
262	3
263	9
264	5
265	7
266	6
267	7
268	6
269	3
270	8
271	6
272	3
273	1
274	6
275	7
276	5
277	4
278	7
279	9
280	4
281	6
282	6
283	5
284	3
285	5
286	1
287	3
288	6
289	2
290	1
291	7
292	2
293	7
294	3
295	6
296	9
297	8
298	3
299	1
300	6
301	4
302	1
303	5
304	2
305	4
306	6
307	5
308	5
309	4
310	1
311	8
312	1
313	7
314	8
315	5
316	6
317	1
318	4
319	2
320	8
321	2
322	2
323	2
324	5
325	7
326	9
327	3
328	3
329	1
330	1
331	8
332	1
333	1
334	5
335	1
336	7
337	7
338	3
339	4
340	1
341	2
342	1
343	5
344	4
345	5
346	7
347	7
348	1
349	2
350	3
351	9
352	5
353	5
354	7
355	3
356	2
357	2
358	6
359	8
360	1
361	3
362	3
363	9
364	1
365	6
366	7
367	9
368	1
369	4
370	8
371	8
372	9
373	9
374	3
375	8
376	1
377	8
378	6
379	3
380	7
381	5
382	3
383	6
384	1
385	1
386	1
387	9
388	7
389	4
390	8
391	7
392	6
393	2
394	9
395	9
396	4
397	5
398	5
399	9
400	4
401	4
402	3
403	3
404	3
405	6
406	5
407	4
408	8
409	1
410	6
411	4
412	6
413	8
414	2
415	8
416	5
417	3
418	5
419	4
420	1
421	3
422	3
423	2
424	9
425	1
426	3
427	4
428	2
429	1
430	8
431	9
432	5
433	5
434	8
435	7
436	1
437	6
438	6
439	4
440	4
441	5
442	3
443	9
444	7
445	4
446	9
447	4
448	8
449	3
450	8
451	5
452	2
453	8
454	5
455	8
456	8
457	9
458	1
459	3
460	4
461	4
462	8
463	9
464	8
465	7
466	4
467	1
468	4
469	2
470	3
471	9
472	3
473	4
474	2
475	2
476	1
477	3
478	1
479	7
480	5
481	5
482	2
483	6
484	7
485	1
486	7
487	9
488	3
489	7
490	6
491	3
492	3
493	7
494	8
495	2
496	7
497	8
498	5
499	6
500	8
501	2
502	3
503	4
504	3
505	9
506	7
507	3
508	5
509	8
510	3
511	3
512	6
513	6
514	7
515	8
516	4
517	1
518	2
519	7
520	8
521	2
522	7
523	4
524	2
525	2
526	1
527	1
528	9
529	8
530	9
531	5
532	6
533	7
534	8
535	6
536	8
537	5
538	9
539	6
540	7
541	7
542	8
543	5
544	1
545	7
546	3
547	5
548	5
549	7
550	4
551	3
552	7
553	1
554	2
555	7
556	9
557	5
558	6
559	8
560	8
561	9
562	3
563	3
564	4
565	8
566	6
567	7
568	8
569	3
570	3
571	1
572	9
573	2
574	1
575	6
576	4
577	1
578	9
579	7
580	6
581	4
582	4
583	6
584	4
585	4
586	3
587	8
588	8
589	4
590	6
591	1
592	6
593	8
594	4
595	3
596	8
597	8
598	6
599	4
600	6
601	6
602	8
603	8
604	9
605	9
606	7
607	5
608	9
609	6
610	8
611	6
612	1
613	4
614	6
615	5
616	1
617	5
618	8
619	8
620	5
621	2
622	6
623	5
624	5
625	6
626	4
627	2
628	9
629	1
630	9
631	9
632	8
633	8
634	1
635	7
636	6
637	3
638	9
639	3
640	8
641	1
642	8
643	1
644	9
645	4
646	6
647	7
648	4
649	7
650	6
651	9
652	8
653	5
654	9
655	5
656	5
657	6
658	1
659	8
660	4
661	6
662	8
663	6
664	9
665	8
666	4
667	6
668	3
669	6
670	3
671	4
672	2
673	3
674	5
675	8
676	3
677	8
678	9
679	9
680	1
681	7
682	6
683	5
684	9
685	6
686	7
687	1
688	9
689	8
690	2
691	7
692	4
693	7
694	1
695	1
696	5
697	7
698	4
699	9
700	5
701	6
702	4
703	8
704	8
705	8
706	9
707	4
708	1
709	4
710	2
711	2
712	5
713	6
714	5
715	5
716	7
717	1
718	7
719	3
720	4
721	6
722	8
723	4
724	9
725	5
726	4
727	7
728	6
729	6
730	1
731	2
732	5
733	2
734	4
735	7
736	9
737	3
738	4
739	9
740	1
741	7
742	6
743	6
744	2
745	6
746	8
747	3
748	8
749	9
750	5
751	2
752	3
753	4
754	2
755	7
756	5
757	1
758	6
759	2
760	3
761	2
762	5
763	4
764	2
765	8
766	5
767	5
768	4
769	6
770	9
771	7
772	5
773	2
774	9
775	8
776	8
777	2
778	1
779	1
780	9
781	6
782	4
783	9
784	4
785	5
786	9
787	4
788	9
789	5
790	8
791	4
792	3
793	7
794	8
795	3
796	2
797	2
798	1
799	2
800	9
801	3
802	9
803	1
804	4
805	9
806	9
807	1
808	1
809	5
810	1
811	3
812	7
813	1
814	2
815	8
816	6
817	8
818	2
819	3
820	5
821	8
822	5
823	2
824	3
825	1
826	4
827	3
828	8
829	9
830	2
831	1
832	1
833	8
834	7
835	8
836	7
837	9
838	4
839	5
840	7
841	5
842	2
843	2
844	7
845	9
846	3
847	1
848	4
849	6
850	1
851	5
852	3
853	3
854	5
855	8
856	3
857	4
858	1
859	5
860	3
861	6
862	8
863	2
864	5
865	7
866	1
867	4
868	8
869	9
870	8
871	9
872	4
873	2
874	3
875	4
876	2
877	7
878	2
879	2
880	2
881	7
882	5
883	7
884	5
885	2
886	6
887	3
888	1
889	1
890	8
891	9
892	2
893	5
894	6
895	2
896	4
897	7
898	2
899	7
900	7
901	1
902	2
903	4
904	4
905	4
906	2
907	7
908	4
909	1
910	5
911	3
912	9
913	2
914	7
915	3
916	8
917	5
918	1
919	7
920	1
921	5
922	8
923	9
924	1
925	8
926	9
927	2
928	5
929	7
930	4
931	6
932	6
933	1
934	7
935	8
936	3
937	7
938	1
939	9
940	9
941	9
942	1
943	7
944	7
945	2
946	6
947	4
948	5
949	5
950	1
951	1
952	5
953	1
954	1
955	1
956	1
957	1
958	2
959	5
960	4
961	6
962	6
963	6
964	6
965	8
966	8
967	4
968	3
969	5
970	7
971	5
972	4
973	1
974	1
975	2
976	2
977	2
978	9
979	7
980	8
981	1
982	3
983	6
984	8
985	7
986	7
987	4
988	8
989	1
990	1
991	5
992	9
993	8
994	8
995	3
996	9
997	8
998	5
999	3
1000	4
1001	9
TIME_WINDOW_SECTION
1	0	3000
2	127	664
3	548	1169
4	1205	1790
5	0	1517
6	430	1212
7	0	1792
8	512	2438
9	2104	2396
10	564	1818
11	915	1336
12	1239	1688
13	1706	3000
14	385	2055
15	1144	2605
16	2152	2470
17	818	1495
18	0	926
19	0	1711
20	328	1259
21	553	2402
22	1042	2078
23	1671	2932
24	197	1156
25	5	1094
26	1886	2826
27	689	925
28	1472	2053
29	1719	2102
30	550	755
31	1250	1896
32	0	1046
33	839	2694
34	0	1887
35	1230	2599
36	1359	2856
37	866	2759
38	809	2450
39	505	2175
40	1392	3000
41	790	2476
42	1970	2550
43	875	1379
44	856	2478
45	0	1553
46	418	1401
47	0	1274
48	1080	2530
49	1146	1466
50	1505	2056
51	0	1520
52	276	1914
53	1294	2967
54	1424	1798
55	0	1708
56	554	1061
57	766	2370
58	1840	2449
59	692	2627
60	342	1303
61	1045	2682
62	1778	2399
63	681	2405
64	1743	2900
65	150	669
66	1211	1870
67	0	1177
68	1215	1743
69	1019	2459
70	501	1714
71	610	2077
72	1034	2840
73	1407	1867
74	1476	2566
75	281	780
76	1169	2328
77	0	633
78	588	1610
79	854	2139
80	1117	1452
81	484	1073
82	0	1028
83	0	1140
84	1879	2314
85	1900	2166
86	665	1584
87	1335	2393
88	451	2355
89	557	2271
90	828	1515
91	136	1666
92	1110	2225
93	1258	3000
94	1366	1906
95	302	1329
96	375	1830
97	289	1729
98	772	1127
99	1512	1873
100	905	1942
101	1816	3000
102	567	1259
103	0	1830
104	1650	2105
105	742	2008
106	336	998
107	1005	1390
108	802	2229
109	0	1519
110	1303	2064
111	720	2339
112	161	1363
113	1906	2433
114	390	1603
115	1074	2365
116	1225	1748
117	371	1355
118	1398	2300
119	1474	2798
120	681	1535
121	424	2125
122	861	1818
123	590	1339
124	1516	1820
125	691	1728
126	1600	2038
127	1211	1718
128	1646	2329
129	1402	2731
130	334	1234
131	591	1449
132	1310	2803
133	798	2675
134	844	2301
135	382	2006
136	1509	2438
137	52	1769
138	1654	3000
139	467	1757
140	1046	1433
141	716	2088
142	1821	3000
143	1469	2330
144	937	1511
145	874	1774
146	56	1844
147	1252	1626
148	795	1079
149	1188	2090
150	982	1812
151	0	1415
152	915	2305
153	1127	2626
154	379	2148
155	1081	1909
156	165	1948
157	1193	2891
158	1520	3000
159	215	1721
160	1471	2589
161	1537	2923
162	1657	2217
163	438	1349
164	1337	2100
165	129	1720
166	0	1226
167	133	1269
168	1464	2414
169	1492	2761
170	0	1865
171	1052	2876
172	1250	3000
173	836	1157
174	1619	2254
175	1547	2569
176	221	2172
177	772	1063
178	1999	2540
179	0	1591
180	673	1616
181	290	1688
182	744	2737
183	1186	2067
184	641	2059
185	169	1151
186	1383	2242
187	1116	2616
188	0	1481
189	1400	2475
190	848	1280
191	1270	1771
192	443	1363
193	1241	3000
194	743	991
195	980	2906
196	0	818
197	404	1784
198	1853	2660
199	366	2195
200	1252	1812
201	397	1039
202	1803	2814
203	863	1271
204	116	2110
205	1456	2662
206	42	1648
207	1444	2069
208	1573	2216
209	1227	3000
210	1055	2994
211	979	2833
212	992	1914
213	942	1204
214	1637	2741
215	365	1833
216	543	2136
217	565	1293
218	0	1405
219	76	1706
220	1892	2395
221	440	1425
222	452	1177
223	2101	2871
224	1547	3000
225	1036	1484
226	874	2314
227	656	2124
228	1579	3000
229	1107	2020
230	1771	2687
231	669	1248
232	1477	3000
233	402	1361
234	1550	2755
235	1838	2675
236	319	1858
237	1479	2286
238	1846	2291
239	0	1577
240	0	1210
241	0	1288
242	0	1605
243	1408	3000
244	1507	2997
245	0	1269
246	2250	2480
247	895	2299
248	0	1382
249	159	1663
250	109	1597
251	1377	2382
252	957	2244
253	250	2022
254	2102	2675
255	1748	1961
256	1735	2235
257	1702	2472
258	487	2259
259	342	798
260	733	2380
261	703	1365
262	1490	1710
263	1080	2095
264	705	1283
265	1705	1931
266	364	2233
267	1121	1959
268	411	1589
269	1211	1995
270	958	2153
271	984	1345
272	509	1973
273	291	1302
274	1299	3000
275	727	1614
276	1119	1858
277	120	1564
278	518	1469
279	1055	1734
280	670	2579
281	1419	2327
282	1488	2392
283	1566	2250
284	2239	2475
285	0	621
286	0	1193
287	883	1577
288	974	1332
289	1327	2752
290	701	1557
291	79	1542
292	402	1333
293	1070	1636
294	717	1379
295	0	1654
296	188	2022
297	1433	3000
298	1941	2221
299	977	2114
300	1012	1521
301	1262	2503
302	1299	2747
303	133	1122
304	183	1465
305	624	2077
306	709	2389
307	1029	1806
308	209	1664
309	0	1838
310	879	2003
311	62	1509
312	614	1909
313	182	1945
314	0	1927
315	1278	2592
316	2046	2635
317	1275	2967
318	455	2431
319	86	1785
320	313	2002
321	854	1437
322	931	1958
323	1223	1831
324	1134	2260
325	42	924
326	1596	2909
327	508	716
328	0	880
329	558	2265
330	966	2353
331	654	1711
332	375	1958
333	1716	2704
334	0	1153
335	1504	2507
336	1250	1936
337	297	1594
338	172	1145
339	1503	2759
340	2053	2610
341	653	1084
342	0	1137
343	682	1881
344	1487	2597
345	216	864
346	1560	2265
347	649	2516
348	1080	2226
349	1510	2040
350	947	2136
351	1082	2217
352	0	1276
353	857	1838
354	949	1908
355	1933	2174
356	804	2357
357	0	991
358	408	1548
359	1420	1920
360	173	787
361	0	786
362	0	1162
363	1145	2890
364	0	1045
365	0	1012
366	1073	1971
367	871	1725
368	1285	2234
369	281	1877
370	989	2512
371	1950	2216
372	973	2266
373	59	684
374	1807	2587
375	1396	2404
376	284	1894
377	1600	2086
378	1550	2446
379	1475	3000
380	843	2161
381	166	1727
382	28	1818
383	1350	2757
384	206	1912
385	119	1418
386	188	870
387	865	1165
388	428	1369
389	1086	1510
390	1720	2901
391	855	2823
392	1788	3000
393	1395	2369
394	897	2564
395	1140	2401
396	1084	1377
397	675	2122
398	183	1212
399	566	1709
400	689	1697
401	0	1892
402	2232	2447
403	0	1150
404	2183	2651
405	35	1235
406	608	2281
407	636	1962
408	1419	2666
409	691	1076
410	1063	2740
411	0	1223
412	396	1153
413	955	2625
414	1002	1907
415	1822	2716
416	1969	3000
417	806	1167
418	1570	2863
419	335	1822
420	742	1981
421	595	1620
422	355	2191
423	544	2375
424	782	1565
425	1303	2917
426	231	2010
427	1027	1579
428	284	941
429	532	1178
430	1091	1410
431	0	1651
432	1228	1618
433	65	1244
434	571	1430
435	903	1779
436	529	1088
437	0	1508
438	1739	2154
439	766	2072
440	1941	2629
441	1330	1878
442	589	922
443	206	1678
444	670	1564
445	1621	2158
446	1807	2192
447	1366	2003
448	0	887
449	1038	2350
450	343	839
451	911	2440
452	221	1635
453	0	1466
454	1281	2518
455	127	1981
456	0	1712
457	409	1268
458	1846	2252
459	670	2506
460	672	1422
461	901	1997
462	261	2017
463	955	2702
464	1242	2834
465	88	1312
466	627	2103
467	727	1801
468	369	1800
469	692	1194
470	111	1038
471	1453	1738
472	1049	2545
473	1632	2088
474	1630	2693
475	1162	1636
476	0	881
477	412	1679
478	1484	1889
479	646	2046
480	717	2709
481	1178	2368
482	1694	2556
483	1965	2264
484	1375	2980
485	1497	1984
486	1429	2696
487	1014	2517
488	1384	2824
489	750	1155
490	43	1900
491	87	1518
492	1588	2104
493	0	1769
494	1226	2831
495	977	1832
496	824	2581
497	829	2380
498	1379	3000
499	1671	2504
500	780	1790
501	813	2220
502	385	1434
503	1377	2676
504	380	1567
505	1210	2405
506	1213	1730
507	1013	2091
508	985	1965
509	267	682
510	1304	3000
511	1	1605
512	1456	2602
513	2215	2471
514	1588	1877
515	699	1663
516	441	1674
517	0	1537
518	392	1856
519	511	1200
520	765	1454
521	687	2030
522	0	1458
523	1284	2620
524	1398	2161
525	295	1063
526	926	1217
527	1608	2088
528	792	1606
529	1411	2445
530	2016	2262
531	1160	2610
532	1366	1688
533	1512	2446
534	0	1426
535	1525	2576
536	1263	1920
537	1865	3000
538	250	2097
539	1123	2822
540	832	2825
541	909	2907
542	1235	1522
543	0	968
544	592	2235
545	626	1741
546	515	2312
547	840	2151
548	1575	2042
549	593	1256
550	485	1691
551	404	1578
552	0	1096
553	1677	2472
554	231	1994
555	1638	2736
556	559	1139
557	1954	2271
558	293	2104
559	1503	3000
560	1056	2438
561	849	2345
562	51	1256
563	503	1985
564	997	2362
565	1525	2401
566	478	1404
567	643	1074
568	2188	2518
569	1421	2651
570	823	1606
571	1349	2782
572	1046	1654
573	191	1659
574	929	2298
575	0	1472
576	1541	2228
577	332	1476
578	267	1716
579	1073	3000
580	1941	2258
581	420	1710
582	1968	2567
583	0	1649
584	422	1096
585	1614	2426
586	745	1845
587	1680	2543
588	305	1414
589	1132	2594
590	230	2169
591	1590	2449
592	0	1777
593	355	2355
594	356	1072
595	1391	2356
596	2263	2672
597	1315	2911
598	0	1491
599	0	838
600	596	1857
601	382	958
602	0	1350
603	0	1384
604	1172	2843
605	1476	2307
606	886	2627
607	314	1683
608	824	2755
609	432	1099
610	1030	2618
611	729	1512
612	464	1945
613	1857	2191
614	749	2548
615	2105	2375
616	51	1797
617	1232	2440
618	0	1023
619	2098	2316
620	0	1323
621	1366	1702
622	1746	2283
623	692	1141
624	1233	1905
625	1137	1752
626	1609	2876
627	438	950
628	1178	2348
629	0	1337
630	653	1682
631	979	1827
632	1744	2244
633	1627	2978
634	1612	2328
635	752	1028
636	728	1122
637	1325	1641
638	1829	2460
639	1183	1755
640	119	1961
641	592	2015
642	383	1724
643	811	1019
644	1517	2680
645	1335	2808
646	751	1923
647	0	1114
648	1665	2218
649	1842	2111
650	302	2185
651	1368	2182
652	208	1810
653	812	2697
654	983	2796
655	1251	1939
656	1806	2258
657	911	2796
658	524	863
659	280	1449
660	862	1809
661	193	1522
662	0	1402
663	187	1673
664	1974	2739
665	0	1201
666	196	848
667	1012	2287
668	653	1985
669	730	2278
670	1578	2361
671	0	1130
672	151	1424
673	1122	2108
674	1857	2200
675	246	926
676	390	1179
677	1966	2667
678	0	836
679	420	2034
680	305	2281
681	865	1520
682	892	2851
683	944	1267
684	1550	2716
685	1835	2555
686	0	1659
687	1262	2312
688	1328	2614
689	0	1261
690	831	1728
691	1125	2488
692	1309	2884
693	868	2040
694	0	1437
695	653	1764
696	333	1884
697	285	616
698	1120	2806
699	1269	1486
700	513	1394
701	0	1164
702	141	1533
703	748	2037
704	1492	3000
705	0	1788
706	0	948
707	621	1431
708	473	1558
709	349	1814
710	0	909
711	838	1699
712	1404	1658
713	1828	2848
714	2060	2398
715	1579	2267
716	1517	2667
717	1689	2901
718	1355	2179
719	1606	2366
720	40	1427
721	1216	1629
722	1725	3000
723	241	1683
724	0	1620
725	1320	2954
726	1520	2512
727	0	925
728	583	2158
729	815	1759
730	1605	1817
731	843	1837
732	1106	2427
733	276	1491
734	1466	2591
735	1246	2873
736	271	1345
737	1269	1812
738	821	1853
739	0	787
740	0	1609
741	0	565
742	1555	2795
743	441	2008
744	246	1769
745	685	2372
746	102	906
747	1128	1379
748	635	1202
749	1689	2881
750	1244	2113
751	934	2168
752	1432	3000
753	613	1798
754	1680	2215
755	454	1368
756	700	1737
757	896	2593
758	744	2583
759	451	1107
760	777	1408
761	834	2785
762	243	1357
763	295	1298
764	1865	2241
765	1184	2326
766	746	1317
767	0	1384
768	1156	1388
769	1356	2917
770	591	1293
771	1144	3000
772	903	2289
773	138	376
774	361	839
775	1477	2313
776	11	1390
777	1288	2809
778	1103	2175
779	75	1346
780	0	1462
781	520	2216
782	1040	1342
783	1295	2305
784	358	1693
785	1524	2060
786	265	960
787	774	1784
788	940	1147
789	1006	1784
790	438	976
791	501	1735
792	998	1877
793	0	1691
794	449	901
795	684	2446
796	176	734
797	1194	2222
798	1780	3000
799	272	1431
800	743	1706
801	865	1855
802	1267	1513
803	1176	2259
804	1814	2816
805	519	2417
806	903	2830
807	862	1215
808	276	1067
809	1120	2053
810	1034	2945
811	0	843
812	931	2836
813	860	2385
814	1262	1847
815	1272	2254
816	526	2040
817	411	2248
818	1439	2536
819	1634	2017
820	606	1672
821	1270	2500
822	1656	2766
823	614	1676
824	798	2251
825	2199	2584
826	0	1482
827	1369	2093
828	1224	2481
829	0	1090
830	1753	2075
831	15	969
832	1099	1397
833	699	918
834	1791	3000
835	1656	2833
836	2115	2601
837	540	2229
838	209	1378
839	1766	2282
840	1031	2938
841	1657	2325
842	443	650
843	626	2494
844	16	1886
845	327	2183
846	988	1520
847	0	1043
848	1402	2584
849	1563	2126
850	357	815
851	313	1205
852	1021	1276
853	0	1185
854	308	2123
855	1701	1914
856	1809	2750
857	488	2451
858	1130	1650
859	915	1990
860	685	1450
861	2016	2600
862	308	1362
863	716	1319
864	1605	2464
865	480	2050
866	1104	2999
867	413	2016
868	0	1495
869	0	943
870	402	1043
871	401	1127
872	143	1272
873	262	1754
874	1071	1424
875	559	2406
876	24	1729
877	66	1089
878	1276	2995
879	1698	3000
880	452	2093
881	1436	1815
882	1820	2580
883	1628	3000
884	721	1812
885	113	539
886	669	1049
887	376	1899
888	629	1350
889	350	1356
890	0	1207
891	1106	1630
892	1132	1579
893	1335	1681
894	0	966
895	642	1028
896	560	1368
897	0	1385
898	1615	2842
899	939	1778
900	2200	2812
901	1215	2909
902	249	646
903	1327	2985
904	1157	2518
905	1809	3000
906	1653	2537
907	1271	1550
908	1568	1997
909	105	1318
910	669	1540
911	0	1793
912	810	1618
913	0	1427
914	1472	1994
915	168	1120
916	792	2200
917	1347	2349
918	1233	2811
919	1022	1295
920	506	2355
921	677	1448
922	335	1504
923	0	1572
924	813	2420
925	0	1046
926	1222	1892
927	456	2001
928	1707	2416
929	1270	2243
930	931	1777
931	1895	2622
932	1040	2384
933	17	1532
934	1385	2071
935	294	1511
936	866	2615
937	831	2132
938	1263	2909
939	973	2684
940	707	2668
941	529	2481
942	0	1854
943	1201	2585
944	1009	1603
945	717	1599
946	937	2856
947	0	1142
948	645	1431
949	1822	2238
950	1761	2586
951	1163	1989
952	1785	2411
953	1745	2066
954	1799	2405
955	1734	1943
956	1416	1690
957	275	1902
958	1913	3000
959	175	1331
960	712	1148
961	1187	2254
962	594	2314
963	1657	2024
964	1371	2141
965	1567	2167
966	1450	2722
967	1522	3000
968	1521	2562
969	1163	2876
970	1555	1941
971	1092	2607
972	684	1602
973	516	2453
974	762	1251
975	470	858
976	812	2424
977	531	2375
978	2072	2397
979	1403	2663
980	974	2634
981	16	997
982	858	1775
983	1102	2482
984	236	591
985	224	1530
986	1106	1831
987	483	1429
988	760	1181
989	1399	2689
990	1802	2382
991	552	1777
992	1525	2941
993	2044	2358
994	0	1429
995	1631	3000
996	1102	2306
997	0	1947
998	1119	2468
999	963	1866
1000	411	1040
1001	577	1419
BACKHAUL_SECTION
5	7	10	16	19	26	30	34	47	68	79	87	97	103	104	106	108	110	111	113	129	137	138	143	145	157	163	170	182	185	192	193	194	198	199	209	215	216	223	233	236	246	248	264	270	281	284	289	292	295	296	297	303	304	305	306	307	309	319	326	328	329	335	338	340	350	356	360	364	366	368	374	379	381	382	392	394	397	418	423	436	438	442	444	460	461	462	464	466	474	479	480	482	487	488	490	496	513	519	521	532	533	546	549	558	571	572	574	577	581	588	589	594	597	599	601	603	604	626	627	643	645	647	651	655	658	659	660	661	664	667	668	670	677	683	689	692	694	697	706	716	718	731	738	752	757	765	769	776	780	785	794	797	798	802	805	807	808	810	823	830	834	835	836	837	839	846	849	851	852	858	869	878	886	894	896	898	906	916	929	931	934	941	943	947	950	955	958	960	963	971	972	973	978	979	981	984	987	988	992	-1
DEPOT_SECTION
1
-1
EOF
