NAME : n1001-0018
COMMENT : "Generated by pyvrp_manuel (OVRPBLTW)"
TYPE : OVRPBLTW
DIMENSION : 1001
EDGE_WEIGHT_TYPE : EUC_2D
CAPACITY : 150
VEHICLES : 1000
OPEN_ROUTE : YES
DISTANCE : 3000
SERVICE_TIME : 200
NODE_COORD_SECTION
1	63	84
2	233	65
3	202	260
4	744	830
5	733	503
6	4	392
7	958	925
8	496	870
9	367	931
10	574	673
11	445	584
12	219	166
13	608	466
14	351	437
15	123	429
16	621	407
17	875	260
18	602	934
19	597	805
20	141	756
21	254	641
22	82	472
23	515	231
24	674	326
25	968	977
26	742	852
27	964	809
28	311	615
29	980	680
30	651	458
31	431	961
32	268	307
33	231	934
34	232	66
35	584	640
36	312	124
37	754	549
38	353	850
39	641	14
40	742	611
41	236	110
42	86	487
43	897	864
44	655	641
45	58	852
46	158	135
47	942	802
48	303	640
49	228	918
50	122	596
51	798	776
52	73	393
53	542	333
54	982	654
55	864	715
56	522	939
57	545	280
58	717	327
59	450	129
60	367	755
61	828	201
62	813	257
63	558	888
64	1	167
65	910	535
66	364	757
67	962	163
68	615	31
69	966	539
70	649	919
71	575	572
72	875	299
73	619	334
74	351	564
75	856	769
76	892	320
77	548	31
78	641	604
79	393	783
80	72	299
81	926	478
82	252	484
83	34	781
84	393	443
85	689	413
86	5	481
87	440	257
88	386	453
89	372	425
90	889	101
91	855	941
92	521	500
93	957	532
94	335	571
95	744	410
96	905	393
97	695	15
98	11	839
99	322	498
100	181	183
101	793	864
102	944	234
103	418	31
104	417	701
105	39	78
106	40	49
107	634	715
108	661	787
109	972	322
110	895	79
111	169	274
112	202	454
113	979	10
114	883	314
115	738	439
116	486	302
117	779	704
118	214	363
119	906	114
120	779	478
121	194	790
122	791	264
123	809	573
124	136	652
125	379	218
126	875	859
127	262	401
128	389	228
129	64	789
130	431	724
131	343	595
132	350	628
133	162	247
134	903	713
135	917	421
136	787	183
137	997	566
138	64	118
139	53	350
140	462	630
141	307	511
142	543	1
143	310	798
144	848	249
145	74	249
146	847	105
147	942	267
148	991	406
149	402	736
150	135	493
151	248	295
152	805	124
153	573	986
154	444	50
155	603	223
156	821	603
157	337	648
158	760	51
159	694	205
160	634	369
161	82	160
162	454	666
163	405	695
164	725	716
165	737	141
166	368	418
167	171	393
168	923	349
169	450	687
170	122	963
171	945	167
172	645	133
173	205	613
174	123	288
175	516	171
176	705	96
177	717	354
178	447	247
179	958	235
180	357	342
181	481	445
182	105	70
183	253	909
184	844	318
185	588	402
186	782	90
187	270	978
188	423	647
189	711	293
190	469	380
191	940	319
192	851	644
193	484	270
194	888	970
195	419	989
196	337	177
197	502	470
198	306	442
199	480	450
200	28	777
201	932	624
202	203	479
203	934	388
204	422	693
205	854	948
206	929	119
207	690	590
208	372	332
209	978	22
210	904	690
211	967	658
212	314	543
213	629	491
214	829	757
215	397	235
216	439	785
217	947	256
218	351	998
219	84	459
220	389	834
221	923	226
222	282	616
223	389	27
224	843	204
225	85	674
226	637	678
227	211	443
228	737	223
229	564	213
230	982	610
231	47	866
232	393	493
233	951	609
234	766	449
235	300	202
236	935	327
237	104	995
238	835	206
239	505	673
240	662	143
241	254	731
242	222	312
243	557	958
244	500	608
245	986	562
246	122	517
247	594	447
248	979	472
249	686	160
250	318	371
251	261	455
252	101	573
253	450	252
254	274	770
255	428	224
256	437	979
257	111	552
258	556	811
259	365	678
260	185	472
261	811	905
262	92	624
263	538	888
264	585	12
265	176	488
266	498	538
267	412	599
268	862	545
269	6	432
270	41	765
271	559	518
272	376	995
273	304	41
274	720	210
275	817	292
276	383	959
277	209	131
278	868	935
279	703	413
280	202	930
281	321	8
282	536	218
283	375	658
284	888	846
285	484	280
286	329	542
287	826	538
288	643	818
289	791	100
290	747	709
291	369	916
292	630	442
293	294	24
294	786	793
295	77	919
296	832	804
297	488	573
298	390	131
299	216	214
300	2	932
301	340	27
302	928	409
303	712	502
304	460	711
305	8	448
306	250	158
307	137	614
308	282	720
309	598	269
310	231	667
311	606	764
312	462	691
313	400	280
314	156	603
315	510	193
316	484	431
317	635	414
318	644	870
319	259	144
320	694	336
321	208	829
322	662	722
323	311	355
324	410	86
325	193	325
326	153	136
327	102	19
328	704	535
329	649	214
330	485	219
331	199	148
332	934	110
333	698	52
334	751	975
335	847	707
336	188	925
337	570	721
338	606	696
339	820	973
340	376	609
341	980	822
342	195	110
343	811	243
344	796	330
345	600	754
346	370	745
347	427	331
348	457	489
349	741	730
350	361	205
351	292	444
352	62	367
353	80	699
354	800	8
355	273	770
356	191	858
357	15	916
358	988	534
359	602	550
360	291	912
361	50	202
362	933	327
363	774	290
364	336	857
365	932	690
366	344	312
367	963	882
368	431	328
369	887	431
370	608	380
371	88	363
372	595	215
373	135	130
374	733	380
375	116	413
376	640	5
377	216	507
378	2	366
379	317	700
380	524	278
381	915	125
382	747	947
383	786	407
384	388	688
385	994	182
386	423	128
387	22	23
388	870	862
389	181	246
390	917	175
391	184	702
392	491	408
393	797	312
394	598	15
395	720	909
396	18	608
397	878	170
398	957	397
399	718	961
400	596	680
401	775	930
402	104	870
403	284	703
404	589	140
405	774	740
406	381	892
407	546	702
408	317	447
409	877	371
410	993	224
411	603	235
412	902	62
413	439	650
414	292	936
415	994	753
416	301	229
417	327	873
418	915	562
419	91	402
420	11	730
421	27	907
422	776	505
423	898	55
424	166	458
425	386	532
426	641	58
427	223	825
428	762	36
429	354	911
430	368	514
431	111	516
432	760	459
433	205	55
434	619	41
435	279	771
436	377	969
437	188	817
438	469	201
439	884	502
440	373	37
441	57	664
442	562	378
443	4	486
444	373	21
445	738	88
446	161	887
447	441	988
448	345	890
449	186	436
450	168	20
451	345	208
452	281	856
453	894	428
454	49	660
455	311	373
456	219	555
457	159	335
458	22	834
459	39	59
460	696	176
461	894	246
462	650	142
463	207	110
464	702	548
465	600	166
466	315	895
467	503	146
468	866	195
469	630	688
470	60	129
471	819	605
472	954	746
473	19	110
474	939	800
475	368	171
476	88	495
477	344	517
478	63	80
479	555	795
480	456	234
481	268	99
482	364	224
483	88	406
484	916	431
485	684	344
486	593	928
487	226	591
488	736	653
489	549	764
490	836	209
491	354	891
492	327	444
493	57	721
494	129	620
495	475	78
496	974	314
497	222	579
498	985	68
499	25	312
500	618	817
501	148	361
502	128	205
503	680	990
504	215	806
505	927	673
506	851	658
507	122	587
508	935	336
509	939	403
510	505	75
511	964	110
512	765	37
513	764	460
514	692	378
515	704	309
516	639	71
517	199	811
518	662	98
519	631	897
520	839	627
521	175	404
522	355	23
523	50	564
524	795	890
525	813	365
526	404	758
527	670	680
528	776	588
529	83	409
530	402	820
531	421	280
532	493	932
533	121	846
534	10	468
535	662	447
536	721	250
537	310	170
538	613	612
539	886	241
540	136	971
541	113	586
542	388	824
543	204	653
544	626	708
545	113	661
546	526	495
547	181	958
548	600	745
549	271	20
550	647	568
551	505	945
552	204	150
553	14	521
554	995	437
555	419	292
556	78	44
557	369	329
558	406	432
559	526	536
560	476	120
561	48	972
562	928	604
563	864	340
564	693	596
565	25	697
566	814	458
567	26	482
568	692	928
569	573	926
570	558	343
571	523	454
572	727	530
573	611	377
574	807	231
575	364	381
576	689	773
577	980	886
578	311	554
579	573	731
580	670	476
581	698	1
582	110	552
583	707	152
584	949	762
585	132	502
586	663	217
587	778	12
588	789	458
589	211	578
590	715	251
591	344	259
592	887	92
593	81	508
594	643	754
595	674	146
596	85	379
597	675	124
598	219	572
599	381	498
600	476	853
601	604	535
602	501	273
603	545	704
604	9	311
605	840	96
606	460	838
607	867	526
608	105	161
609	258	150
610	418	977
611	145	241
612	397	876
613	375	559
614	728	2
615	250	853
616	969	555
617	898	698
618	321	200
619	550	323
620	578	503
621	105	986
622	594	222
623	468	929
624	242	935
625	29	819
626	309	900
627	951	257
628	290	954
629	104	432
630	720	6
631	708	914
632	154	652
633	614	232
634	27	876
635	442	992
636	21	390
637	822	407
638	982	969
639	16	739
640	447	20
641	848	805
642	536	753
643	274	17
644	92	455
645	764	905
646	83	844
647	140	267
648	610	62
649	683	418
650	294	765
651	595	823
652	494	192
653	64	33
654	79	736
655	337	482
656	738	879
657	735	958
658	403	680
659	968	440
660	358	363
661	871	756
662	606	549
663	329	741
664	541	615
665	660	391
666	858	482
667	25	377
668	795	394
669	783	274
670	890	80
671	979	997
672	358	116
673	693	244
674	83	616
675	333	670
676	130	321
677	246	77
678	491	291
679	299	769
680	832	74
681	35	423
682	683	412
683	474	897
684	232	386
685	243	139
686	777	303
687	435	934
688	914	826
689	388	858
690	157	888
691	635	148
692	372	749
693	739	333
694	486	205
695	553	606
696	555	76
697	727	580
698	548	342
699	561	399
700	601	337
701	682	753
702	148	848
703	923	335
704	654	529
705	53	292
706	82	208
707	332	737
708	91	138
709	784	546
710	38	828
711	937	984
712	761	794
713	202	353
714	224	894
715	560	882
716	107	367
717	507	52
718	59	557
719	17	162
720	866	112
721	74	937
722	77	766
723	577	579
724	248	50
725	254	22
726	307	863
727	499	957
728	194	967
729	975	741
730	196	856
731	540	723
732	168	104
733	287	381
734	187	295
735	196	72
736	362	139
737	249	478
738	214	484
739	876	154
740	31	56
741	359	926
742	673	611
743	849	932
744	246	2
745	58	499
746	182	504
747	226	120
748	218	501
749	119	640
750	776	849
751	842	700
752	297	80
753	690	844
754	525	37
755	233	23
756	405	901
757	223	363
758	212	884
759	353	754
760	309	76
761	546	499
762	811	901
763	167	979
764	975	415
765	674	719
766	314	458
767	665	376
768	135	284
769	579	446
770	118	689
771	495	988
772	321	257
773	916	572
774	393	572
775	949	287
776	26	445
777	491	340
778	271	290
779	14	737
780	775	495
781	588	30
782	904	190
783	798	705
784	153	729
785	848	627
786	940	921
787	588	353
788	620	359
789	252	832
790	83	649
791	829	626
792	463	741
793	223	397
794	69	872
795	524	169
796	80	738
797	800	637
798	645	185
799	453	221
800	655	344
801	363	159
802	818	785
803	128	302
804	547	934
805	978	445
806	895	732
807	634	253
808	373	723
809	87	283
810	755	694
811	403	196
812	364	242
813	562	90
814	268	386
815	532	917
816	504	537
817	293	791
818	778	453
819	942	798
820	894	997
821	477	775
822	585	328
823	154	928
824	398	953
825	30	97
826	445	948
827	463	897
828	90	434
829	130	299
830	84	24
831	992	461
832	999	298
833	451	505
834	303	92
835	296	279
836	84	161
837	440	872
838	101	595
839	838	232
840	930	66
841	500	920
842	541	118
843	25	169
844	736	384
845	361	301
846	256	782
847	21	99
848	643	586
849	872	687
850	793	486
851	963	187
852	470	271
853	42	997
854	214	243
855	788	557
856	120	464
857	606	514
858	686	879
859	858	162
860	508	222
861	955	433
862	570	858
863	167	368
864	656	87
865	93	897
866	612	754
867	790	883
868	908	427
869	12	150
870	680	52
871	612	472
872	898	265
873	309	56
874	145	903
875	277	341
876	187	784
877	343	488
878	621	423
879	794	436
880	682	214
881	380	476
882	817	911
883	607	675
884	800	413
885	348	811
886	964	847
887	790	729
888	922	921
889	870	9
890	246	942
891	291	266
892	409	967
893	377	380
894	152	625
895	969	821
896	441	720
897	237	716
898	782	15
899	703	627
900	685	865
901	271	841
902	985	575
903	570	902
904	251	841
905	241	929
906	695	22
907	954	408
908	236	940
909	447	500
910	534	349
911	17	868
912	22	303
913	39	263
914	954	994
915	123	663
916	905	286
917	231	599
918	948	838
919	128	164
920	931	182
921	416	70
922	53	262
923	418	1
924	68	378
925	183	83
926	939	478
927	797	845
928	935	479
929	979	105
930	877	829
931	139	181
932	195	302
933	776	14
934	852	867
935	43	331
936	116	451
937	560	118
938	496	709
939	914	261
940	887	74
941	671	314
942	676	671
943	494	234
944	97	769
945	55	275
946	658	433
947	942	597
948	150	212
949	435	978
950	996	164
951	431	470
952	230	138
953	591	812
954	496	938
955	482	568
956	191	577
957	371	920
958	166	975
959	732	894
960	708	284
961	895	767
962	254	332
963	483	193
964	521	329
965	426	962
966	371	61
967	741	30
968	9	959
969	141	138
970	528	165
971	848	533
972	666	75
973	132	623
974	819	92
975	239	608
976	318	506
977	805	922
978	375	884
979	178	765
980	673	88
981	893	532
982	154	187
983	100	774
984	689	338
985	439	795
986	414	923
987	895	469
988	836	254
989	593	823
990	296	816
991	918	127
992	7	416
993	997	28
994	987	895
995	478	141
996	787	728
997	974	546
998	786	574
999	986	153
1000	684	544
1001	403	730
DEMAND_SECTION
1	0
2	5
3	8
4	8
5	7
6	2
7	4
8	1
9	7
10	6
11	7
12	7
13	2
14	9
15	9
16	3
17	4
18	6
19	7
20	3
21	5
22	3
23	6
24	1
25	1
26	2
27	6
28	7
29	9
30	7
31	6
32	4
33	7
34	2
35	9
36	9
37	3
38	6
39	4
40	9
41	2
42	6
43	4
44	9
45	6
46	9
47	3
48	4
49	6
50	4
51	8
52	9
53	8
54	4
55	7
56	5
57	6
58	6
59	9
60	6
61	6
62	7
63	1
64	7
65	7
66	3
67	3
68	4
69	3
70	5
71	7
72	2
73	2
74	7
75	5
76	3
77	7
78	9
79	7
80	8
81	9
82	9
83	5
84	1
85	6
86	8
87	4
88	3
89	2
90	4
91	2
92	9
93	1
94	9
95	6
96	2
97	7
98	1
99	4
100	8
101	3
102	5
103	3
104	4
105	6
106	2
107	4
108	7
109	1
110	5
111	2
112	4
113	6
114	2
115	3
116	4
117	1
118	6
119	5
120	2
121	4
122	6
123	8
124	5
125	7
126	1
127	4
128	6
129	6
130	2
131	4
132	2
133	2
134	3
135	3
136	9
137	4
138	1
139	2
140	4
141	9
142	4
143	1
144	2
145	6
146	3
147	7
148	5
149	1
150	1
151	4
152	9
153	8
154	9
155	7
156	6
157	3
158	8
159	8
160	1
161	2
162	3
163	4
164	7
165	6
166	8
167	1
168	9
169	6
170	9
171	3
172	9
173	8
174	3
175	6
176	8
177	1
178	5
179	2
180	7
181	7
182	8
183	7
184	6
185	8
186	9
187	7
188	9
189	1
190	3
191	4
192	8
193	6
194	7
195	3
196	3
197	3
198	6
199	9
200	4
201	6
202	7
203	3
204	7
205	7
206	2
207	8
208	7
209	6
210	1
211	2
212	2
213	1
214	6
215	4
216	1
217	3
218	2
219	8
220	3
221	7
222	8
223	1
224	2
225	1
226	8
227	5
228	3
229	2
230	6
231	2
232	6
233	1
234	2
235	1
236	5
237	6
238	1
239	5
240	4
241	7
242	2
243	3
244	4
245	9
246	4
247	9
248	9
249	2
250	3
251	1
252	2
253	6
254	1
255	4
256	5
257	6
258	4
259	5
260	7
261	2
262	2
263	5
264	5
265	8
266	1
267	2
268	1
269	5
270	4
271	7
272	4
273	1
274	6
275	6
276	3
277	4
278	7
279	6
280	5
281	7
282	3
283	5
284	2
285	6
286	1
287	7
288	7
289	6
290	5
291	9
292	3
293	5
294	2
295	6
296	7
297	8
298	6
299	2
300	4
301	7
302	8
303	4
304	8
305	7
306	7
307	8
308	3
309	7
310	8
311	2
312	6
313	2
314	6
315	1
316	4
317	7
318	2
319	5
320	1
321	5
322	5
323	9
324	9
325	7
326	4
327	8
328	1
329	2
330	4
331	2
332	4
333	4
334	7
335	9
336	8
337	9
338	1
339	1
340	7
341	9
342	8
343	4
344	2
345	4
346	4
347	7
348	7
349	1
350	1
351	2
352	1
353	6
354	6
355	6
356	1
357	7
358	3
359	6
360	3
361	9
362	5
363	9
364	7
365	7
366	1
367	3
368	1
369	4
370	2
371	4
372	8
373	1
374	2
375	2
376	2
377	5
378	9
379	3
380	6
381	4
382	9
383	6
384	9
385	6
386	8
387	6
388	2
389	2
390	5
391	4
392	8
393	9
394	8
395	6
396	2
397	2
398	9
399	7
400	2
401	9
402	1
403	6
404	1
405	5
406	5
407	1
408	5
409	3
410	9
411	8
412	6
413	2
414	7
415	6
416	5
417	6
418	2
419	3
420	5
421	4
422	2
423	8
424	8
425	5
426	2
427	7
428	6
429	9
430	7
431	5
432	8
433	8
434	4
435	7
436	8
437	8
438	6
439	2
440	8
441	7
442	8
443	4
444	5
445	9
446	8
447	1
448	8
449	8
450	1
451	6
452	7
453	4
454	9
455	9
456	6
457	6
458	3
459	9
460	1
461	2
462	4
463	2
464	5
465	4
466	8
467	4
468	3
469	9
470	1
471	8
472	3
473	9
474	9
475	1
476	3
477	4
478	8
479	5
480	1
481	5
482	9
483	6
484	5
485	1
486	8
487	5
488	9
489	6
490	4
491	1
492	1
493	9
494	6
495	7
496	8
497	5
498	9
499	9
500	5
501	7
502	9
503	9
504	2
505	8
506	7
507	2
508	8
509	3
510	3
511	5
512	2
513	5
514	2
515	3
516	7
517	1
518	2
519	4
520	9
521	5
522	5
523	8
524	9
525	8
526	9
527	2
528	7
529	5
530	8
531	1
532	4
533	7
534	3
535	5
536	3
537	7
538	4
539	2
540	9
541	6
542	3
543	1
544	4
545	8
546	1
547	8
548	8
549	1
550	8
551	2
552	3
553	5
554	4
555	4
556	1
557	1
558	2
559	9
560	3
561	7
562	6
563	8
564	9
565	1
566	8
567	9
568	9
569	4
570	3
571	5
572	4
573	6
574	6
575	9
576	3
577	5
578	5
579	1
580	2
581	1
582	2
583	3
584	5
585	8
586	9
587	2
588	1
589	2
590	2
591	3
592	8
593	1
594	2
595	5
596	2
597	1
598	6
599	4
600	2
601	3
602	9
603	7
604	8
605	4
606	1
607	9
608	3
609	1
610	1
611	2
612	1
613	8
614	1
615	1
616	3
617	3
618	3
619	3
620	9
621	4
622	5
623	2
624	2
625	2
626	1
627	2
628	7
629	3
630	9
631	4
632	4
633	9
634	7
635	2
636	5
637	7
638	7
639	2
640	3
641	2
642	6
643	8
644	9
645	1
646	7
647	6
648	2
649	9
650	4
651	7
652	5
653	3
654	6
655	9
656	5
657	1
658	9
659	3
660	5
661	7
662	1
663	1
664	9
665	2
666	9
667	3
668	4
669	1
670	9
671	7
672	5
673	4
674	2
675	7
676	7
677	2
678	1
679	2
680	3
681	4
682	4
683	8
684	5
685	6
686	5
687	6
688	9
689	4
690	5
691	5
692	2
693	4
694	2
695	5
696	8
697	3
698	7
699	2
700	4
701	5
702	1
703	1
704	7
705	9
706	5
707	2
708	8
709	8
710	6
711	3
712	6
713	5
714	4
715	4
716	4
717	6
718	8
719	6
720	1
721	3
722	7
723	1
724	7
725	3
726	9
727	2
728	2
729	4
730	2
731	6
732	1
733	8
734	3
735	3
736	3
737	8
738	8
739	5
740	7
741	1
742	7
743	5
744	7
745	7
746	6
747	5
748	5
749	8
750	8
751	4
752	2
753	3
754	8
755	1
756	2
757	5
758	7
759	1
760	4
761	2
762	3
763	7
764	3
765	8
766	5
767	4
768	7
769	4
770	7
771	4
772	3
773	7
774	2
775	9
776	3
777	5
778	3
779	2
780	3
781	2
782	8
783	9
784	9
785	9
786	4
787	8
788	9
789	4
790	5
791	3
792	4
793	1
794	3
795	1
796	8
797	3
798	5
799	6
800	7
801	3
802	1
803	1
804	4
805	7
806	9
807	2
808	3
809	4
810	1
811	3
812	2
813	5
814	1
815	6
816	4
817	9
818	5
819	1
820	3
821	4
822	7
823	6
824	9
825	7
826	7
827	3
828	3
829	5
830	5
831	2
832	1
833	6
834	5
835	1
836	6
837	9
838	4
839	7
840	3
841	6
842	9
843	1
844	1
845	9
846	1
847	7
848	1
849	7
850	3
851	1
852	6
853	3
854	6
855	3
856	4
857	2
858	7
859	5
860	7
861	2
862	2
863	1
864	8
865	2
866	9
867	4
868	7
869	2
870	1
871	7
872	1
873	6
874	4
875	7
876	6
877	1
878	7
879	4
880	5
881	4
882	4
883	3
884	1
885	6
886	3
887	4
888	5
889	5
890	2
891	3
892	5
893	8
894	7
895	3
896	8
897	2
898	1
899	8
900	2
901	3
902	7
903	1
904	5
905	8
906	3
907	9
908	4
909	7
910	5
911	3
912	4
913	7
914	8
915	4
916	5
917	3
918	6
919	5
920	2
921	3
922	7
923	5
924	2
925	4
926	4
927	4
928	9
929	1
930	4
931	1
932	1
933	2
934	7
935	8
936	4
937	5
938	2
939	2
940	1
941	6
942	1
943	3
944	4
945	2
946	5
947	2
948	3
949	7
950	2
951	9
952	2
953	1
954	2
955	1
956	6
957	2
958	4
959	4
960	7
961	9
962	6
963	8
964	7
965	4
966	3
967	8
968	5
969	9
970	2
971	7
972	3
973	1
974	6
975	4
976	4
977	8
978	7
979	3
980	1
981	5
982	9
983	5
984	5
985	4
986	2
987	3
988	2
989	5
990	5
991	2
992	8
993	8
994	3
995	2
996	6
997	9
998	7
999	4
1000	6
1001	1
TIME_WINDOW_SECTION
1	0	3000
2	1781	2060
3	746	1618
4	545	2098
5	0	1922
6	1299	2133
7	945	1977
8	437	2198
9	1091	1650
10	1034	1365
11	1493	1859
12	695	2191
13	378	2239
14	926	2090
15	880	2343
16	949	1163
17	975	2330
18	1493	1814
19	902	2719
20	734	2333
21	0	1711
22	1546	1887
23	1922	2248
24	381	951
25	823	2106
26	406	2325
27	1315	1868
28	47	1598
29	613	2551
30	1187	2075
31	725	1402
32	1612	2323
33	949	2323
34	821	1575
35	939	1493
36	723	1161
37	1011	1504
38	853	2120
39	249	1267
40	1358	2493
41	0	1511
42	0	1686
43	987	1329
44	1560	1944
45	473	1264
46	783	1944
47	837	1790
48	165	1069
49	412	2027
50	888	2543
51	669	1904
52	1179	1728
53	1300	1975
54	812	2575
55	1159	2170
56	888	1602
57	776	2637
58	568	2558
59	2093	2418
60	924	2290
61	985	1816
62	1178	1985
63	1514	1982
64	1044	1724
65	1026	1856
66	836	2055
67	1142	1752
68	1559	1841
69	1125	1712
70	1175	2253
71	380	1858
72	1213	2462
73	830	2627
74	1668	1952
75	967	1453
76	752	1192
77	1656	2803
78	1306	1826
79	805	1318
80	0	863
81	925	1632
82	385	1714
83	1437	2713
84	940	2842
85	1330	2130
86	890	1393
87	619	1336
88	775	1885
89	2044	2264
90	979	1749
91	462	1880
92	931	2056
93	565	1877
94	672	990
95	1114	2733
96	379	1508
97	690	1610
98	96	1503
99	665	1397
100	2142	2853
101	609	2182
102	992	1462
103	789	2241
104	814	2458
105	0	1034
106	141	1946
107	1146	2526
108	307	2099
109	983	1448
110	1555	1805
111	412	2035
112	1029	2404
113	334	1546
114	876	2351
115	0	1762
116	1508	2185
117	1493	2176
118	950	2799
119	1294	2583
120	577	1912
121	1636	1862
122	1579	2245
123	944	2462
124	0	1566
125	917	2349
126	1444	1882
127	0	1382
128	0	1118
129	829	1701
130	630	2332
131	1111	1952
132	547	2425
133	1784	3000
134	466	1911
135	1610	2144
136	1925	2199
137	731	1402
138	110	573
139	0	1299
140	418	2396
141	376	884
142	0	1283
143	961	2854
144	1164	2436
145	845	2431
146	676	1250
147	1014	1980
148	1026	1778
149	1345	2269
150	1221	1961
151	1026	1387
152	387	1753
153	571	2253
154	381	1039
155	1374	1715
156	716	1742
157	1060	2530
158	847	2780
159	713	2530
160	862	2155
161	2316	2526
162	843	1063
163	536	1514
164	1048	2030
165	1314	1600
166	628	2191
167	210	1893
168	902	2283
169	1054	1683
170	1314	2450
171	358	1793
172	1113	1789
173	1726	2442
174	292	622
175	1074	3000
176	748	2229
177	1339	1740
178	592	1556
179	1076	1359
180	1042	2504
181	1373	2275
182	1729	2756
183	596	2333
184	444	2175
185	0	1697
186	0	1717
187	634	2541
188	674	2561
189	435	1187
190	729	2461
191	1058	1473
192	263	2163
193	1561	1832
194	776	1665
195	741	2658
196	2273	2675
197	1381	2478
198	151	1528
199	1836	2054
200	1188	2985
201	664	1876
202	953	2522
203	1084	1868
204	818	2767
205	1050	1890
206	935	1203
207	1001	1230
208	1738	2011
209	977	1634
210	1258	1496
211	1369	1860
212	938	2198
213	1530	2507
214	1426	2131
215	327	1467
216	783	1957
217	1048	2489
218	1430	1785
219	0	1116
220	1512	2086
221	517	2298
222	331	1298
223	851	1251
224	597	2070
225	552	2182
226	1355	1674
227	1879	2902
228	1423	2129
229	517	2341
230	718	2398
231	1171	1836
232	78	1753
233	748	1881
234	1336	1578
235	644	873
236	600	2070
237	371	2347
238	1332	1816
239	1738	1958
240	426	1526
241	491	1571
242	324	821
243	406	2105
244	1522	1808
245	1276	1901
246	1457	3000
247	410	2190
248	1286	1653
249	1409	2726
250	309	645
251	1469	1730
252	0	1615
253	471	941
254	1023	2006
255	1198	2486
256	1116	2023
257	669	1560
258	1500	1797
259	0	1763
260	582	1803
261	863	1877
262	1582	2328
263	1506	2010
264	317	1636
265	1916	2306
266	84	1259
267	0	1743
268	774	1742
269	1130	2003
270	415	974
271	495	1223
272	719	2404
273	711	2328
274	1313	2700
275	1612	2400
276	1140	2268
277	0	806
278	1153	2046
279	582	993
280	409	1439
281	506	809
282	603	1362
283	617	1222
284	766	1837
285	144	1456
286	697	1724
287	1602	2135
288	671	2616
289	909	1688
290	297	2228
291	66	1837
292	637	850
293	0	854
294	565	2176
295	975	2427
296	778	1676
297	1634	1962
298	1635	2972
299	550	1230
300	150	1575
301	668	1247
302	1512	1832
303	1251	2095
304	1170	2598
305	135	1778
306	1767	2514
307	576	1973
308	297	1626
309	785	2493
310	1062	1598
311	1493	2321
312	831	1781
313	1487	2020
314	1767	2267
315	908	1313
316	808	1347
317	389	1198
318	932	1333
319	1066	2319
320	231	1549
321	572	1768
322	1604	2176
323	0	1365
324	1500	1822
325	389	1310
326	1825	3000
327	700	1367
328	1278	2717
329	236	2153
330	1277	1784
331	2118	3000
332	906	2426
333	1104	3000
334	598	2495
335	612	1441
336	691	1065
337	526	1329
338	1599	2315
339	455	2070
340	1052	1555
341	1009	2091
342	0	1424
343	1580	2165
344	36	1936
345	286	2160
346	715	2516
347	1067	1333
348	514	982
349	910	2267
350	208	2180
351	0	1621
352	1415	2680
353	0	1745
354	1052	2329
355	1605	1856
356	1724	1992
357	935	1475
358	367	1808
359	1268	2559
360	317	1584
361	0	1273
362	781	1496
363	0	1742
364	1287	2634
365	635	2554
366	1066	1425
367	753	2232
368	671	1695
369	459	1947
370	333	2314
371	0	957
372	348	1582
373	314	515
374	991	1221
375	0	1210
376	1884	2510
377	631	2627
378	0	1427
379	611	1857
380	34	1943
381	1668	2168
382	345	2236
383	849	1301
384	1633	2000
385	42	1856
386	261	1614
387	1368	3000
388	534	2145
389	1396	1785
390	933	1190
391	1284	2459
392	272	1421
393	622	1908
394	0	1576
395	988	1951
396	871	2258
397	322	2140
398	1516	1960
399	270	2070
400	153	2097
401	883	2069
402	1020	2561
403	1045	1866
404	894	2525
405	1483	1899
406	1003	1291
407	422	1806
408	1414	2124
409	1346	1673
410	538	2148
411	656	1864
412	739	2218
413	1234	2464
414	649	1348
415	812	2485
416	1449	1847
417	932	2094
418	962	2452
419	567	816
420	1572	2592
421	492	2297
422	292	1802
423	123	2111
424	1815	2032
425	1863	2548
426	1304	3000
427	1733	2093
428	688	1860
429	847	1115
430	121	1756
431	571	1424
432	573	2401
433	0	1242
434	761	2315
435	1552	2019
436	772	2576
437	166	2125
438	1664	2815
439	696	1510
440	1212	2775
441	1150	1472
442	1872	2319
443	1207	3000
444	1401	2918
445	796	2001
446	86	1926
447	310	2279
448	727	1917
449	904	1936
450	351	1991
451	549	943
452	449	2027
453	553	2165
454	700	2660
455	779	1671
456	689	1939
457	811	1531
458	1531	1976
459	1346	2081
460	489	860
461	472	1309
462	1526	1848
463	1071	1359
464	1508	2144
465	356	2271
466	1026	1715
467	1368	3000
468	1007	2201
469	1145	2513
470	126	400
471	708	1902
472	859	1863
473	1204	2463
474	625	2283
475	0	1030
476	1843	2908
477	498	2084
478	2287	2900
479	60	1683
480	1393	2014
481	421	894
482	587	2541
483	654	1156
484	1553	1868
485	1403	1812
486	117	1893
487	623	2193
488	1115	2704
489	488	1683
490	1309	2437
491	523	2401
492	0	1453
493	1000	2033
494	1402	1755
495	725	1737
496	1012	2485
497	1203	2242
498	591	2182
499	2093	2413
500	907	2286
501	409	667
502	0	1111
503	1060	1957
504	488	2211
505	1206	1883
506	948	1298
507	789	2401
508	1070	1781
509	357	2308
510	1210	2352
511	638	2152
512	465	1006
513	246	1999
514	933	1347
515	1313	2210
516	728	2006
517	272	1770
518	109	1999
519	1437	2143
520	587	2439
521	2088	2619
522	1885	2295
523	2057	2527
524	827	1989
525	1039	1311
526	340	2245
527	710	1338
528	1738	1946
529	987	2608
530	598	1601
531	1413	2461
532	1281	1954
533	649	1397
534	899	1712
535	984	1501
536	609	1807
537	1463	3000
538	493	2306
539	697	1600
540	1351	2083
541	256	816
542	446	1970
543	949	2812
544	908	2466
545	772	2758
546	1146	2821
547	1260	2563
548	1267	2513
549	954	1526
550	510	1788
551	462	2455
552	1199	1747
553	378	1716
554	373	2286
555	102	1098
556	1185	2408
557	1323	1660
558	1089	1980
559	656	2509
560	249	1673
561	710	1701
562	862	1979
563	918	2419
564	823	2146
565	1175	1481
566	359	1687
567	1613	2568
568	739	1869
569	1153	1400
570	136	1654
571	62	1511
572	699	1239
573	1175	3000
574	353	2163
575	439	1112
576	1299	1548
577	1223	1926
578	1192	3000
579	903	1843
580	766	1441
581	1695	2227
582	0	1452
583	1524	1920
584	348	2315
585	1619	2891
586	207	2132
587	352	1591
588	941	2592
589	1277	2495
590	1382	1953
591	1406	2299
592	377	1741
593	1677	2270
594	961	2220
595	1024	2985
596	999	2778
597	0	1759
598	1520	2613
599	282	2272
600	1151	2117
601	1378	2048
602	888	1323
603	668	2322
604	0	1495
605	888	2627
606	729	1300
607	1289	2101
608	1201	2616
609	814	1031
610	923	2417
611	1221	2593
612	1027	2238
613	463	2020
614	1734	2284
615	284	1393
616	521	1691
617	158	1915
618	909	1889
619	1116	2281
620	587	2016
621	466	1890
622	42	1186
623	1063	1624
624	167	1587
625	1011	2856
626	1746	1974
627	783	1959
628	1132	2177
629	992	2629
630	445	1532
631	1137	1378
632	523	905
633	1791	2171
634	349	2262
635	1261	1777
636	0	912
637	16	1815
638	1092	1773
639	79	1699
640	1946	2598
641	410	1727
642	1071	1641
643	44	1448
644	745	2624
645	424	2102
646	854	2841
647	157	824
648	535	1525
649	859	1260
650	1120	1975
651	1274	2291
652	0	1346
653	109	1322
654	1213	1739
655	1228	2829
656	453	2225
657	799	2357
658	423	1446
659	710	1648
660	59	1568
661	1378	2012
662	696	2077
663	1035	2774
664	391	1038
665	1121	1606
666	402	2098
667	1444	2572
668	0	1939
669	1158	1797
670	1495	1834
671	1179	1507
672	1300	2630
673	1554	2133
674	1083	1615
675	1460	2716
676	873	1843
677	998	2140
678	1242	2834
679	545	1760
680	771	2387
681	567	1781
682	789	1611
683	999	1382
684	525	1125
685	0	1028
686	220	1634
687	954	1660
688	862	1884
689	0	1825
690	856	1426
691	203	1895
692	593	1766
693	974	2369
694	279	617
695	1140	2831
696	535	906
697	961	2798
698	234	1288
699	757	2579
700	1666	2534
701	496	1847
702	1210	2336
703	685	1791
704	1217	2526
705	1497	2989
706	74	1570
707	102	1699
708	1779	2804
709	1318	2123
710	762	1926
711	847	2092
712	721	1430
713	837	1412
714	852	2676
715	1101	1425
716	0	1033
717	340	2251
718	1447	2270
719	1198	2263
720	0	1847
721	1182	2539
722	999	1722
723	790	1328
724	627	1970
725	1015	2229
726	1337	1681
727	331	1807
728	656	2025
729	1021	1890
730	862	1472
731	0	1826
732	649	2590
733	1386	3000
734	2148	2828
735	1596	2416
736	1351	2160
737	194	1304
738	432	717
739	842	2603
740	2106	2432
741	612	1633
742	684	2421
743	976	1491
744	460	2319
745	1415	3000
746	1571	2546
747	0	799
748	929	2731
749	1358	2290
750	680	2032
751	1230	1783
752	526	1672
753	714	1927
754	452	2424
755	124	2083
756	930	1269
757	471	957
758	57	1714
759	534	1451
760	1269	2984
761	866	2626
762	1035	1241
763	246	1970
764	786	2153
765	573	1871
766	852	2219
767	786	1610
768	486	2364
769	732	2607
770	206	1571
771	418	1803
772	1145	2092
773	415	2275
774	583	1204
775	770	2660
776	838	1563
777	1302	2495
778	718	1950
779	1088	1795
780	841	1267
781	438	647
782	638	1689
783	968	2251
784	417	1614
785	820	1803
786	447	2347
787	1064	2317
788	878	1614
789	1884	2107
790	1588	2579
791	911	2221
792	1572	1894
793	524	761
794	887	1529
795	1717	2916
796	1603	2634
797	1468	2053
798	19	1573
799	362	1823
800	1476	2701
801	853	2037
802	877	1609
803	1031	1772
804	1008	2581
805	1416	2181
806	743	1511
807	782	1829
808	64	1863
809	0	1643
810	456	1669
811	513	1335
812	761	2005
813	1240	1950
814	1363	2552
815	67	1987
816	1194	2437
817	566	1360
818	768	2754
819	1219	1480
820	536	2467
821	813	1996
822	930	1970
823	1181	2287
824	1221	2403
825	0	804
826	725	1312
827	1081	2172
828	1364	3000
829	1373	2511
830	0	240
831	1078	2504
832	756	1408
833	895	2539
834	1539	1754
835	209	1723
836	1427	1749
837	923	2060
838	913	1281
839	1295	2602
840	797	2033
841	1129	2109
842	1182	1931
843	0	1279
844	262	2082
845	0	941
846	95	1482
847	838	2740
848	822	1630
849	791	2176
850	999	1907
851	1013	2243
852	0	1820
853	959	2757
854	903	2221
855	1037	1707
856	1349	2089
857	1275	2937
858	422	1620
859	1381	1775
860	830	2154
861	799	1409
862	199	2087
863	367	1544
864	993	2654
865	1152	2473
866	834	1544
867	428	2296
868	557	1552
869	1562	2456
870	705	2343
871	1927	2289
872	441	1787
873	801	1601
874	1420	2134
875	0	1372
876	431	2415
877	346	1355
878	883	2655
879	928	1579
880	324	1202
881	1164	2012
882	1259	1525
883	1399	2335
884	921	2629
885	955	2034
886	1035	1438
887	995	1851
888	631	2361
889	1600	2349
890	1187	1780
891	2157	2537
892	367	2288
893	990	1279
894	486	2135
895	845	2133
896	468	2422
897	1399	2889
898	1310	2229
899	680	1306
900	707	1819
901	657	1229
902	1042	2448
903	910	1553
904	1436	2324
905	949	2752
906	1366	1849
907	394	2181
908	1638	2016
909	473	762
910	1614	2110
911	778	1169
912	704	951
913	1059	3000
914	528	2239
915	447	736
916	1264	2515
917	739	2733
918	535	2507
919	275	2030
920	484	1619
921	1956	2675
922	2055	2586
923	0	1326
924	950	2507
925	0	1376
926	1238	1762
927	684	1792
928	444	1990
929	489	2171
930	1367	1669
931	1006	1560
932	966	1327
933	440	1252
934	566	1957
935	0	1031
936	1709	2645
937	959	1470
938	1417	1754
939	217	2137
940	1043	2163
941	1823	2263
942	882	1905
943	414	1701
944	615	2488
945	0	976
946	1503	2642
947	1025	1873
948	1775	2532
949	992	2527
950	783	2731
951	1244	2449
952	0	1216
953	568	2535
954	880	2308
955	469	2154
956	433	2193
957	750	2109
958	1318	2107
959	520	2134
960	662	1841
961	668	2524
962	547	2511
963	1156	1898
964	1356	3000
965	795	2331
966	0	1826
967	651	1956
968	973	1942
969	946	2378
970	1332	1637
971	265	1679
972	1065	2974
973	800	2736
974	654	2388
975	1426	1995
976	0	1707
977	900	2361
978	782	1181
979	673	2217
980	1099	2225
981	1036	2667
982	450	1371
983	1004	1982
984	1328	1845
985	931	1558
986	1072	1547
987	1339	2063
988	1260	1584
989	949	1337
990	947	1757
991	995	1994
992	723	2509
993	965	1756
994	1142	1604
995	1653	2946
996	501	1578
997	788	1673
998	846	2147
999	784	2706
1000	930	2401
1001	296	1644
BACKHAUL_SECTION
5	7	10	16	19	26	30	34	47	68	79	87	97	103	104	106	108	110	111	113	129	137	138	143	145	157	163	170	182	185	192	193	194	198	199	209	215	216	223	233	236	246	248	264	270	281	284	289	292	295	296	297	303	304	305	306	307	309	319	326	328	329	335	338	340	350	356	360	364	366	368	374	379	381	382	392	394	397	418	423	436	438	442	444	460	461	462	464	466	474	479	480	482	487	488	490	496	513	519	521	532	533	546	549	558	571	572	574	577	581	588	589	594	597	599	601	603	604	626	627	643	645	647	651	655	658	659	660	661	664	667	668	670	677	683	689	692	694	697	706	716	718	731	738	752	757	765	769	776	780	785	794	797	798	802	805	807	808	810	823	830	834	835	836	837	839	846	849	851	852	858	869	878	886	894	896	898	906	916	929	931	934	941	943	947	950	955	958	960	963	971	972	973	978	979	981	984	987	988	992	-1
DEPOT_SECTION
1
-1
EOF
