NAME : n1001-0006
COMMENT : "Generated by pyvrp_manuel (OVRPBLTW)"
TYPE : OVRPBLTW
DIMENSION : 1001
EDGE_WEIGHT_TYPE : EUC_2D
CAPACITY : 150
VEHICLES : 1000
OPEN_ROUTE : YES
DISTANCE : 3000
SERVICE_TIME : 200
NODE_COORD_SECTION
1	276	335
2	986	931
3	24	741
4	958	364
5	512	916
6	895	451
7	991	265
8	521	217
9	454	449
10	796	658
11	471	875
12	429	660
13	310	23
14	344	732
15	336	761
16	33	663
17	320	65
18	75	234
19	452	855
20	847	991
21	742	208
22	444	408
23	124	572
24	723	806
25	725	212
26	879	573
27	748	17
28	885	917
29	497	807
30	999	529
31	413	594
32	522	11
33	193	83
34	610	48
35	679	879
36	769	857
37	484	104
38	212	345
39	477	203
40	777	322
41	266	646
42	675	402
43	344	337
44	584	986
45	779	929
46	364	102
47	151	954
48	750	836
49	481	52
50	870	59
51	230	396
52	936	290
53	476	252
54	511	773
55	874	564
56	842	784
57	758	719
58	654	975
59	218	959
60	900	644
61	869	170
62	369	707
63	807	823
64	13	812
65	276	75
66	35	737
67	336	54
68	819	57
69	869	32
70	815	362
71	909	454
72	28	464
73	118	935
74	840	210
75	172	305
76	953	665
77	540	269
78	756	722
79	62	220
80	919	234
81	932	789
82	864	233
83	276	854
84	393	168
85	777	972
86	187	766
87	839	67
88	383	19
89	415	869
90	942	110
91	18	128
92	934	722
93	700	834
94	158	701
95	879	280
96	966	598
97	541	242
98	543	396
99	177	120
100	47	925
101	192	799
102	24	384
103	401	67
104	113	73
105	443	842
106	365	239
107	899	846
108	436	441
109	213	382
110	647	976
111	12	519
112	971	492
113	929	253
114	374	45
115	18	816
116	913	151
117	664	27
118	962	646
119	450	667
120	954	446
121	266	840
122	514	876
123	474	608
124	611	934
125	287	761
126	892	190
127	531	98
128	635	115
129	705	941
130	284	816
131	47	717
132	619	739
133	738	710
134	765	972
135	489	788
136	816	207
137	886	310
138	250	414
139	604	85
140	86	819
141	924	978
142	197	759
143	532	865
144	453	763
145	992	64
146	104	240
147	869	493
148	134	769
149	680	910
150	791	288
151	569	953
152	706	49
153	252	209
154	207	87
155	225	978
156	536	266
157	48	743
158	331	461
159	427	739
160	574	125
161	921	688
162	338	857
163	407	865
164	177	83
165	197	523
166	390	510
167	998	235
168	717	494
169	782	819
170	481	985
171	425	259
172	289	839
173	623	779
174	217	873
175	156	174
176	900	213
177	162	366
178	226	8
179	48	495
180	669	771
181	574	753
182	694	1
183	259	697
184	802	834
185	824	812
186	19	780
187	635	289
188	368	842
189	968	279
190	904	616
191	923	622
192	413	619
193	121	529
194	420	747
195	648	75
196	469	454
197	204	588
198	40	496
199	78	23
200	843	824
201	784	949
202	206	376
203	655	575
204	48	160
205	318	823
206	880	473
207	901	435
208	58	930
209	214	780
210	745	623
211	615	558
212	533	534
213	219	903
214	901	817
215	420	511
216	932	620
217	715	131
218	805	752
219	33	364
220	51	83
221	239	10
222	595	963
223	387	627
224	66	422
225	754	122
226	806	935
227	839	429
228	474	162
229	482	972
230	564	915
231	152	545
232	24	753
233	114	620
234	49	449
235	775	260
236	769	151
237	978	545
238	242	525
239	949	1000
240	297	693
241	183	884
242	829	860
243	533	901
244	598	517
245	47	321
246	376	708
247	800	678
248	237	519
249	791	292
250	357	633
251	597	761
252	951	114
253	608	204
254	621	30
255	623	769
256	286	164
257	787	882
258	696	17
259	349	613
260	840	623
261	552	9
262	850	310
263	903	425
264	121	426
265	134	951
266	516	28
267	844	624
268	725	622
269	114	730
270	160	967
271	158	840
272	304	992
273	598	512
274	762	605
275	62	844
276	24	535
277	333	204
278	363	811
279	800	699
280	259	732
281	847	895
282	22	414
283	491	47
284	59	103
285	661	367
286	613	16
287	263	639
288	70	942
289	265	298
290	533	188
291	829	953
292	773	569
293	847	415
294	463	152
295	78	30
296	389	846
297	770	959
298	595	769
299	439	860
300	255	184
301	947	633
302	603	287
303	996	395
304	61	161
305	259	622
306	313	295
307	476	807
308	512	677
309	62	396
310	590	539
311	31	42
312	51	10
313	192	675
314	281	515
315	101	887
316	480	419
317	769	401
318	991	609
319	928	484
320	57	3
321	113	464
322	522	333
323	296	941
324	319	214
325	470	768
326	29	128
327	394	858
328	634	189
329	908	184
330	947	629
331	40	567
332	233	962
333	176	39
334	613	402
335	196	109
336	80	311
337	424	573
338	797	273
339	605	730
340	451	675
341	756	273
342	81	244
343	247	594
344	426	349
345	262	286
346	464	810
347	187	998
348	349	183
349	357	901
350	786	791
351	643	24
352	955	986
353	996	577
354	486	492
355	27	548
356	877	506
357	447	805
358	517	747
359	125	824
360	964	30
361	9	324
362	128	286
363	89	146
364	377	196
365	337	537
366	245	969
367	197	817
368	931	347
369	571	456
370	199	747
371	803	728
372	658	725
373	42	307
374	218	997
375	457	515
376	794	92
377	355	883
378	533	310
379	289	506
380	18	118
381	694	876
382	911	280
383	460	431
384	770	242
385	342	401
386	959	433
387	283	934
388	686	569
389	700	881
390	651	740
391	799	175
392	388	558
393	570	405
394	597	833
395	563	195
396	104	363
397	558	980
398	978	310
399	584	921
400	71	553
401	446	552
402	822	702
403	446	668
404	29	383
405	537	202
406	521	879
407	116	93
408	28	34
409	545	436
410	125	99
411	617	319
412	855	703
413	267	248
414	841	490
415	56	285
416	536	749
417	188	302
418	303	891
419	429	998
420	563	143
421	678	114
422	792	689
423	385	930
424	625	495
425	282	129
426	161	780
427	448	323
428	223	28
429	136	549
430	609	570
431	256	895
432	525	319
433	581	4
434	788	206
435	247	365
436	394	858
437	333	975
438	901	251
439	941	622
440	498	454
441	819	901
442	674	663
443	104	256
444	436	905
445	488	926
446	593	904
447	275	677
448	130	765
449	871	231
450	626	413
451	572	378
452	463	569
453	671	276
454	265	644
455	347	993
456	901	60
457	811	641
458	483	206
459	369	722
460	407	981
461	818	731
462	557	25
463	512	627
464	452	147
465	441	907
466	737	955
467	111	847
468	515	595
469	780	662
470	619	938
471	116	563
472	897	606
473	360	29
474	293	684
475	336	629
476	833	337
477	95	68
478	451	619
479	535	547
480	874	345
481	913	352
482	269	576
483	166	443
484	489	940
485	233	691
486	404	434
487	978	990
488	402	475
489	522	781
490	913	528
491	245	739
492	730	372
493	556	577
494	143	395
495	183	715
496	184	336
497	137	751
498	575	289
499	593	694
500	956	68
501	31	217
502	865	9
503	384	123
504	489	284
505	971	821
506	33	277
507	134	407
508	45	753
509	992	47
510	684	335
511	205	546
512	385	557
513	624	751
514	88	560
515	327	384
516	463	213
517	180	453
518	783	184
519	710	837
520	690	419
521	747	848
522	944	523
523	285	156
524	179	118
525	221	903
526	688	576
527	707	144
528	312	526
529	17	866
530	312	70
531	552	824
532	221	444
533	140	225
534	889	857
535	795	381
536	587	966
537	931	467
538	67	435
539	892	416
540	876	614
541	475	488
542	633	800
543	424	922
544	667	458
545	967	677
546	855	373
547	456	241
548	407	509
549	679	579
550	208	151
551	564	975
552	349	193
553	753	120
554	399	834
555	415	992
556	538	683
557	566	556
558	870	305
559	36	968
560	578	755
561	82	608
562	859	465
563	524	312
564	806	238
565	721	124
566	869	380
567	93	240
568	456	483
569	289	217
570	610	887
571	247	543
572	342	450
573	342	366
574	140	539
575	877	433
576	303	43
577	931	951
578	138	946
579	418	440
580	782	665
581	571	417
582	165	389
583	476	172
584	946	234
585	881	760
586	329	43
587	213	437
588	996	20
589	720	511
590	239	436
591	544	860
592	547	643
593	493	9
594	533	413
595	35	129
596	58	706
597	8	484
598	419	497
599	603	218
600	205	11
601	70	931
602	398	871
603	846	252
604	350	30
605	324	497
606	12	672
607	491	999
608	729	650
609	852	963
610	914	493
611	248	10
612	751	320
613	127	958
614	888	686
615	364	463
616	55	281
617	495	281
618	788	455
619	624	754
620	458	586
621	408	194
622	288	329
623	665	246
624	818	822
625	183	703
626	28	13
627	627	573
628	125	352
629	767	541
630	990	447
631	310	409
632	447	312
633	605	764
634	602	285
635	467	365
636	436	180
637	928	295
638	611	427
639	3	223
640	244	875
641	221	83
642	71	693
643	897	792
644	66	198
645	252	207
646	440	188
647	551	573
648	653	113
649	218	696
650	927	57
651	215	860
652	962	619
653	271	639
654	90	200
655	945	994
656	852	95
657	965	815
658	474	317
659	942	936
660	416	804
661	234	342
662	536	989
663	671	549
664	511	910
665	209	153
666	706	828
667	524	9
668	553	141
669	116	877
670	898	345
671	874	547
672	413	578
673	500	217
674	759	301
675	528	39
676	230	542
677	620	574
678	703	381
679	813	828
680	278	666
681	950	157
682	327	562
683	647	145
684	512	841
685	319	734
686	24	666
687	376	207
688	179	17
689	815	671
690	196	997
691	396	488
692	921	921
693	605	425
694	952	300
695	889	136
696	548	491
697	989	581
698	489	525
699	754	118
700	996	402
701	409	501
702	514	150
703	381	410
704	766	203
705	103	6
706	470	574
707	886	869
708	241	887
709	646	822
710	106	207
711	912	402
712	202	529
713	127	616
714	542	946
715	730	91
716	289	420
717	528	365
718	757	138
719	339	644
720	679	633
721	8	652
722	675	912
723	852	884
724	564	593
725	627	932
726	430	527
727	430	14
728	716	348
729	318	187
730	788	225
731	238	628
732	357	226
733	13	544
734	834	790
735	470	741
736	461	776
737	198	927
738	77	331
739	290	854
740	95	955
741	116	449
742	48	595
743	77	379
744	887	739
745	312	667
746	433	865
747	194	863
748	174	756
749	716	844
750	781	419
751	101	666
752	303	325
753	944	664
754	115	215
755	687	491
756	841	848
757	927	115
758	232	510
759	714	714
760	199	67
761	949	900
762	867	267
763	766	983
764	544	296
765	489	528
766	702	872
767	379	869
768	624	877
769	305	339
770	95	244
771	683	839
772	161	673
773	354	493
774	855	535
775	795	225
776	161	735
777	955	119
778	24	878
779	512	943
780	276	489
781	119	668
782	895	997
783	420	496
784	231	621
785	756	589
786	646	394
787	96	919
788	648	696
789	985	273
790	669	193
791	441	830
792	508	237
793	210	881
794	992	429
795	27	817
796	106	346
797	145	937
798	140	615
799	146	772
800	379	697
801	586	622
802	41	686
803	14	511
804	360	244
805	290	613
806	196	502
807	500	642
808	252	183
809	775	959
810	828	368
811	519	311
812	505	863
813	64	627
814	680	164
815	211	52
816	48	954
817	532	975
818	895	892
819	192	11
820	47	554
821	71	349
822	598	552
823	653	705
824	316	19
825	29	953
826	141	552
827	458	930
828	971	7
829	456	252
830	418	96
831	323	353
832	428	401
833	99	535
834	136	430
835	87	399
836	538	162
837	37	600
838	340	965
839	365	349
840	384	753
841	804	418
842	994	983
843	761	289
844	233	485
845	674	150
846	577	828
847	426	552
848	362	505
849	960	258
850	99	453
851	671	172
852	765	802
853	67	896
854	603	313
855	311	23
856	744	582
857	571	169
858	354	525
859	127	262
860	426	771
861	255	194
862	81	306
863	661	12
864	351	53
865	887	350
866	713	323
867	12	772
868	365	525
869	966	575
870	535	294
871	528	944
872	538	9
873	994	496
874	974	926
875	980	683
876	629	515
877	764	247
878	12	686
879	339	528
880	980	527
881	485	565
882	325	408
883	156	295
884	739	654
885	733	254
886	748	72
887	683	98
888	67	646
889	560	632
890	222	533
891	221	271
892	56	63
893	519	158
894	965	193
895	51	311
896	332	568
897	288	679
898	171	987
899	866	607
900	788	906
901	247	602
902	232	661
903	371	781
904	741	33
905	545	555
906	359	660
907	921	707
908	955	505
909	5	858
910	416	291
911	631	553
912	452	183
913	670	59
914	128	982
915	328	493
916	526	1
917	682	532
918	277	246
919	495	627
920	843	260
921	982	233
922	654	131
923	871	169
924	483	342
925	668	311
926	302	176
927	125	670
928	579	809
929	927	157
930	891	21
931	539	255
932	424	147
933	473	368
934	55	847
935	472	413
936	933	853
937	931	662
938	525	346
939	897	12
940	245	660
941	336	144
942	7	853
943	541	701
944	453	830
945	471	918
946	668	792
947	352	603
948	898	729
949	217	407
950	869	550
951	475	612
952	809	946
953	996	29
954	690	339
955	213	928
956	673	19
957	244	318
958	293	236
959	101	729
960	143	757
961	830	553
962	204	108
963	987	829
964	762	591
965	6	751
966	608	909
967	703	455
968	909	774
969	912	557
970	89	809
971	480	35
972	937	303
973	561	408
974	812	92
975	289	506
976	667	815
977	963	453
978	734	619
979	971	713
980	28	222
981	865	487
982	602	529
983	823	251
984	55	4
985	14	185
986	926	5
987	869	915
988	854	237
989	358	330
990	897	252
991	770	364
992	159	307
993	475	759
994	312	998
995	79	98
996	771	80
997	898	481
998	419	788
999	482	960
1000	959	383
1001	518	869
DEMAND_SECTION
1	0
2	5
3	4
4	7
5	1
6	6
7	9
8	9
9	1
10	3
11	4
12	9
13	1
14	4
15	8
16	9
17	1
18	9
19	3
20	7
21	9
22	4
23	2
24	4
25	3
26	1
27	7
28	5
29	4
30	5
31	4
32	2
33	1
34	9
35	5
36	9
37	2
38	7
39	1
40	2
41	3
42	9
43	5
44	3
45	6
46	6
47	4
48	5
49	9
50	9
51	7
52	3
53	3
54	7
55	3
56	7
57	8
58	2
59	7
60	7
61	5
62	3
63	6
64	6
65	3
66	7
67	9
68	7
69	4
70	7
71	5
72	4
73	3
74	5
75	1
76	9
77	1
78	7
79	2
80	1
81	7
82	3
83	9
84	2
85	2
86	2
87	8
88	1
89	3
90	4
91	2
92	1
93	9
94	5
95	4
96	2
97	3
98	7
99	4
100	2
101	1
102	4
103	1
104	6
105	2
106	4
107	1
108	1
109	5
110	4
111	9
112	1
113	8
114	9
115	8
116	7
117	8
118	5
119	4
120	5
121	8
122	8
123	3
124	9
125	7
126	9
127	8
128	6
129	7
130	8
131	6
132	8
133	8
134	8
135	5
136	7
137	9
138	7
139	5
140	6
141	5
142	4
143	5
144	5
145	4
146	1
147	5
148	4
149	8
150	7
151	2
152	4
153	9
154	4
155	4
156	8
157	9
158	6
159	3
160	2
161	2
162	5
163	2
164	1
165	3
166	1
167	2
168	9
169	1
170	4
171	5
172	6
173	8
174	7
175	5
176	7
177	9
178	4
179	1
180	1
181	6
182	4
183	2
184	9
185	3
186	3
187	1
188	4
189	8
190	3
191	5
192	9
193	8
194	2
195	7
196	7
197	5
198	3
199	4
200	4
201	4
202	3
203	2
204	8
205	3
206	9
207	8
208	2
209	9
210	2
211	7
212	4
213	8
214	3
215	6
216	6
217	2
218	6
219	2
220	9
221	2
222	4
223	8
224	5
225	9
226	5
227	4
228	2
229	8
230	4
231	1
232	4
233	9
234	3
235	4
236	6
237	3
238	1
239	9
240	9
241	1
242	1
243	4
244	3
245	8
246	3
247	2
248	6
249	8
250	1
251	7
252	8
253	7
254	3
255	1
256	3
257	3
258	3
259	5
260	7
261	9
262	8
263	2
264	2
265	5
266	3
267	5
268	6
269	9
270	5
271	9
272	3
273	2
274	6
275	3
276	9
277	2
278	5
279	4
280	9
281	9
282	3
283	1
284	6
285	1
286	2
287	9
288	4
289	3
290	4
291	2
292	6
293	7
294	7
295	9
296	3
297	7
298	3
299	6
300	9
301	9
302	9
303	9
304	6
305	8
306	5
307	6
308	6
309	5
310	8
311	5
312	7
313	1
314	3
315	6
316	6
317	4
318	4
319	8
320	5
321	5
322	6
323	6
324	3
325	4
326	8
327	6
328	8
329	8
330	5
331	6
332	5
333	2
334	1
335	6
336	9
337	5
338	6
339	4
340	1
341	8
342	1
343	4
344	2
345	7
346	7
347	7
348	1
349	9
350	1
351	7
352	4
353	8
354	3
355	1
356	8
357	7
358	5
359	9
360	7
361	8
362	7
363	1
364	4
365	2
366	6
367	4
368	4
369	5
370	1
371	6
372	8
373	5
374	2
375	2
376	1
377	1
378	9
379	8
380	4
381	5
382	6
383	6
384	8
385	7
386	1
387	7
388	9
389	1
390	5
391	5
392	4
393	3
394	7
395	7
396	3
397	1
398	1
399	8
400	8
401	3
402	8
403	6
404	1
405	2
406	8
407	9
408	4
409	3
410	8
411	1
412	2
413	1
414	3
415	8
416	5
417	5
418	1
419	4
420	3
421	9
422	9
423	6
424	4
425	9
426	4
427	2
428	4
429	3
430	6
431	2
432	6
433	8
434	9
435	2
436	7
437	3
438	5
439	2
440	8
441	6
442	9
443	6
444	9
445	6
446	1
447	4
448	5
449	1
450	6
451	9
452	3
453	1
454	7
455	1
456	1
457	1
458	7
459	5
460	3
461	8
462	6
463	7
464	2
465	9
466	8
467	4
468	3
469	5
470	6
471	8
472	4
473	6
474	9
475	1
476	9
477	6
478	6
479	9
480	9
481	8
482	4
483	5
484	3
485	9
486	6
487	9
488	1
489	9
490	5
491	6
492	5
493	2
494	3
495	7
496	4
497	1
498	6
499	6
500	2
501	6
502	6
503	6
504	8
505	7
506	4
507	9
508	6
509	4
510	1
511	3
512	7
513	1
514	7
515	2
516	6
517	2
518	1
519	3
520	8
521	7
522	6
523	4
524	9
525	7
526	6
527	8
528	6
529	3
530	7
531	2
532	9
533	7
534	1
535	6
536	7
537	3
538	3
539	6
540	3
541	5
542	1
543	3
544	6
545	1
546	7
547	4
548	5
549	4
550	5
551	1
552	2
553	5
554	8
555	2
556	9
557	5
558	4
559	8
560	3
561	9
562	1
563	8
564	6
565	7
566	3
567	2
568	8
569	2
570	7
571	4
572	2
573	9
574	3
575	5
576	9
577	9
578	9
579	2
580	1
581	7
582	4
583	1
584	4
585	9
586	8
587	5
588	8
589	7
590	3
591	3
592	3
593	1
594	4
595	2
596	5
597	1
598	1
599	9
600	6
601	2
602	7
603	7
604	7
605	6
606	2
607	5
608	1
609	2
610	8
611	1
612	5
613	5
614	7
615	2
616	2
617	6
618	9
619	5
620	2
621	5
622	3
623	8
624	3
625	5
626	1
627	7
628	5
629	9
630	8
631	9
632	3
633	9
634	6
635	6
636	4
637	8
638	8
639	3
640	4
641	8
642	9
643	7
644	6
645	9
646	6
647	9
648	6
649	7
650	5
651	2
652	8
653	4
654	4
655	9
656	3
657	1
658	3
659	5
660	7
661	5
662	8
663	4
664	8
665	4
666	4
667	4
668	9
669	8
670	6
671	5
672	4
673	9
674	3
675	9
676	7
677	9
678	1
679	5
680	3
681	9
682	2
683	1
684	1
685	2
686	1
687	8
688	3
689	6
690	1
691	8
692	9
693	6
694	5
695	2
696	4
697	1
698	2
699	6
700	5
701	6
702	6
703	2
704	2
705	2
706	6
707	2
708	2
709	9
710	6
711	8
712	1
713	5
714	6
715	2
716	2
717	3
718	1
719	7
720	9
721	3
722	2
723	8
724	5
725	2
726	1
727	2
728	6
729	3
730	2
731	8
732	4
733	2
734	2
735	6
736	4
737	3
738	2
739	8
740	4
741	1
742	2
743	9
744	3
745	7
746	3
747	5
748	8
749	1
750	3
751	3
752	5
753	2
754	6
755	2
756	3
757	1
758	2
759	5
760	4
761	6
762	6
763	4
764	9
765	6
766	1
767	4
768	5
769	4
770	4
771	8
772	2
773	8
774	5
775	3
776	5
777	2
778	5
779	8
780	6
781	6
782	2
783	3
784	2
785	3
786	6
787	4
788	1
789	3
790	8
791	6
792	7
793	9
794	8
795	2
796	2
797	5
798	5
799	1
800	4
801	9
802	6
803	5
804	4
805	7
806	9
807	5
808	6
809	6
810	6
811	7
812	2
813	6
814	3
815	5
816	7
817	3
818	2
819	8
820	3
821	2
822	6
823	6
824	5
825	5
826	3
827	4
828	5
829	9
830	6
831	4
832	5
833	5
834	9
835	6
836	2
837	1
838	4
839	8
840	4
841	2
842	2
843	8
844	4
845	4
846	3
847	8
848	5
849	3
850	1
851	9
852	9
853	3
854	7
855	4
856	7
857	7
858	4
859	4
860	4
861	2
862	7
863	2
864	6
865	7
866	3
867	3
868	9
869	4
870	3
871	4
872	7
873	9
874	7
875	4
876	7
877	7
878	8
879	2
880	6
881	7
882	7
883	9
884	5
885	4
886	5
887	5
888	2
889	4
890	1
891	1
892	2
893	1
894	1
895	6
896	3
897	9
898	9
899	5
900	8
901	2
902	2
903	6
904	3
905	8
906	9
907	9
908	7
909	9
910	6
911	2
912	2
913	4
914	9
915	8
916	2
917	3
918	3
919	3
920	7
921	2
922	7
923	1
924	3
925	7
926	1
927	2
928	2
929	8
930	5
931	7
932	1
933	6
934	9
935	6
936	9
937	7
938	9
939	4
940	3
941	3
942	6
943	5
944	4
945	4
946	5
947	5
948	8
949	1
950	7
951	9
952	5
953	1
954	6
955	6
956	6
957	9
958	8
959	1
960	2
961	4
962	9
963	8
964	4
965	6
966	8
967	8
968	5
969	8
970	4
971	1
972	5
973	2
974	3
975	4
976	1
977	7
978	5
979	3
980	4
981	4
982	5
983	6
984	6
985	2
986	3
987	1
988	8
989	2
990	9
991	1
992	2
993	1
994	5
995	6
996	3
997	4
998	1
999	5
1000	5
1001	2
TIME_WINDOW_SECTION
1	0	3000
2	576	2267
3	2056	2376
4	1016	2275
5	1492	2853
6	1473	2400
7	121	1573
8	698	2118
9	1036	1398
10	1444	2395
11	586	1284
12	1778	2821
13	302	1404
14	1174	1502
15	1288	2567
16	334	1081
17	948	1784
18	346	1947
19	102	1262
20	1457	1984
21	1207	3000
22	1446	3000
23	1495	2733
24	786	2361
25	945	1486
26	855	2492
27	736	1220
28	130	1767
29	443	841
30	988	2830
31	1675	2661
32	785	2239
33	1366	2814
34	962	1445
35	255	2002
36	784	1484
37	1556	2932
38	2049	2516
39	0	1672
40	1998	2249
41	2110	2679
42	1626	2872
43	0	1252
44	0	1723
45	874	2668
46	261	754
47	1793	2339
48	1223	2024
49	1610	2615
50	881	1156
51	1166	2460
52	0	1383
53	0	1630
54	736	2067
55	1059	1716
56	871	1934
57	619	2161
58	310	1839
59	729	2691
60	1841	2151
61	312	1250
62	56	2014
63	1326	1689
64	1351	1566
65	1790	2390
66	476	1933
67	731	2728
68	109	1425
69	31	1743
70	286	1492
71	549	1485
72	153	858
73	278	1003
74	917	1707
75	1075	2452
76	0	1779
77	439	774
78	161	2102
79	832	1958
80	477	1456
81	1050	1292
82	1862	2441
83	1179	2470
84	759	2502
85	39	1796
86	538	2096
87	1307	1963
88	733	2615
89	563	847
90	112	1953
91	995	1951
92	404	1546
93	361	1638
94	1147	2113
95	1553	2806
96	1442	1879
97	1017	2236
98	759	2667
99	1335	3000
100	284	1655
101	865	2188
102	1319	1836
103	0	1286
104	1344	2202
105	881	1386
106	1157	2118
107	437	1653
108	1212	1816
109	564	1510
110	864	2420
111	212	1706
112	291	1719
113	1559	2673
114	61	2033
115	177	1310
116	0	1749
117	328	684
118	262	1684
119	2030	2809
120	642	2489
121	0	1842
122	459	1856
123	1049	2945
124	1027	2026
125	1429	2419
126	241	1244
127	1352	3000
128	34	1746
129	807	2022
130	1242	2854
131	71	1896
132	1979	2480
133	34	1636
134	625	2136
135	496	2200
136	301	1391
137	566	808
138	696	1507
139	1827	2253
140	784	2414
141	544	2521
142	2023	2624
143	1097	1428
144	837	1846
145	756	1962
146	996	1833
147	1389	2714
148	201	1039
149	1139	2039
150	490	1829
151	269	1459
152	1008	1734
153	0	1018
154	1835	2262
155	695	1411
156	245	1799
157	1222	1750
158	18	283
159	1058	2616
160	850	1426
161	1272	2476
162	1828	2588
163	485	2470
164	20	1704
165	1659	3000
166	1090	1314
167	963	1207
168	50	1243
169	1857	2256
170	774	1538
171	988	1941
172	688	1161
173	1488	2183
174	1685	2356
175	2	1446
176	1373	2480
177	1672	2537
178	1525	3000
179	763	1851
180	728	2476
181	1421	2392
182	702	986
183	0	1614
184	1221	2881
185	1834	2209
186	1520	3000
187	1388	1884
188	0	1607
189	663	1678
190	442	1924
191	774	1920
192	0	1803
193	847	1842
194	485	1040
195	0	1476
196	0	1485
197	144	1053
198	1953	2159
199	0	1411
200	845	1825
201	1046	2518
202	259	514
203	152	1147
204	1265	2231
205	1065	2604
206	1510	2254
207	787	1864
208	1133	1616
209	1097	2898
210	967	1581
211	15	1286
212	1532	1846
213	39	1785
214	729	1752
215	205	755
216	942	1779
217	921	2109
218	449	1090
219	222	1495
220	462	2401
221	1205	1459
222	853	2284
223	93	1334
224	224	1760
225	25	1610
226	57	1575
227	341	1479
228	0	1632
229	1220	1738
230	1270	2757
231	1948	2864
232	42	1001
233	169	1076
234	1140	2145
235	0	1508
236	672	1429
237	979	1941
238	1061	2206
239	471	2202
240	0	1608
241	604	1815
242	1066	1519
243	1434	2632
244	872	1235
245	2387	2726
246	770	1308
247	567	2181
248	853	2634
249	1761	1984
250	941	2215
251	1810	2704
252	1367	1784
253	0	948
254	1080	2688
255	468	1786
256	23	1680
257	452	1112
258	1082	3000
259	343	944
260	3	1263
261	544	1808
262	0	1648
263	407	1586
264	0	1288
265	817	2385
266	1046	2344
267	1384	2660
268	1227	3000
269	872	1107
270	1799	2393
271	868	1801
272	857	1723
273	446	1947
274	2084	2382
275	153	1502
276	1570	2904
277	1307	2665
278	1248	1559
279	652	1079
280	0	1031
281	1771	2023
282	1112	1731
283	1890	2662
284	427	869
285	290	2239
286	478	1199
287	1805	2994
288	1449	1855
289	1628	2688
290	1540	3000
291	1404	2302
292	733	1201
293	1879	2136
294	624	2554
295	0	1328
296	284	1875
297	951	2473
298	1404	2767
299	0	1389
300	1822	2583
301	407	1811
302	0	1406
303	804	2425
304	568	2211
305	2094	2479
306	0	1327
307	1379	3000
308	180	1305
309	1453	3000
310	821	1905
311	155	745
312	1421	1648
313	0	912
314	291	1657
315	1191	2565
316	0	1357
317	280	2036
318	217	1963
319	1894	2097
320	125	1468
321	1920	2947
322	0	1689
323	0	1815
324	1178	3000
325	377	1461
326	1867	2707
327	1144	2764
328	1463	2297
329	234	1610
330	553	2545
331	644	1239
332	261	1661
333	0	1010
334	409	1377
335	1056	2297
336	0	1705
337	560	2274
338	175	1479
339	995	2615
340	0	1366
341	1013	1243
342	2258	2866
343	100	1010
344	1779	3000
345	397	2373
346	17	1416
347	128	1594
348	556	1387
349	38	1601
350	678	2585
351	1038	1709
352	709	2492
353	75	1846
354	892	2580
355	185	1055
356	1439	2310
357	1259	3000
358	508	1367
359	874	2787
360	356	1229
361	188	1127
362	1542	3000
363	0	1398
364	334	1528
365	0	747
366	1702	2113
367	1169	2656
368	733	1746
369	1628	3000
370	707	2065
371	1824	2178
372	0	1520
373	411	1415
374	625	2421
375	1575	2303
376	909	2091
377	461	1385
378	1151	1937
379	2234	3000
380	0	1092
381	1329	1859
382	1230	2953
383	53	1870
384	513	1211
385	1295	2401
386	982	2242
387	4	1460
388	1667	2225
389	1408	2579
390	322	1654
391	474	1882
392	1487	2095
393	1308	3000
394	1605	2725
395	454	1209
396	1997	2524
397	1847	2137
398	583	1064
399	385	1940
400	177	1171
401	1930	2983
402	622	1243
403	303	1323
404	678	1974
405	846	2815
406	1842	2144
407	670	2588
408	246	1467
409	1338	2510
410	113	551
411	687	1996
412	367	1332
413	1444	1732
414	1328	2351
415	0	1339
416	1570	2599
417	0	579
418	314	2286
419	794	1483
420	0	1099
421	1179	1483
422	1075	2300
423	1407	2056
424	1297	1731
425	2024	2595
426	1431	1977
427	1610	3000
428	1793	2261
429	1372	2833
430	1141	2871
431	355	1834
432	437	1166
433	999	1646
434	525	1772
435	446	1840
436	57	1923
437	838	1884
438	1063	1337
439	1505	1925
440	624	1077
441	671	1672
442	1269	1558
443	1639	2623
444	905	1414
445	1641	2126
446	1778	2425
447	1500	2290
448	1192	2946
449	524	2492
450	975	2090
451	646	2373
452	969	2527
453	1062	2171
454	1698	1993
455	1584	2321
456	1801	2119
457	1517	1882
458	0	955
459	1402	1841
460	646	1865
461	1362	1887
462	545	1686
463	1487	2558
464	114	992
465	181	1473
466	1024	1250
467	0	1443
468	1852	2866
469	622	1258
470	1262	2698
471	1719	2687
472	1448	2545
473	1781	2349
474	371	1244
475	0	893
476	771	1971
477	1577	2271
478	21	1292
479	331	1484
480	838	1127
481	1746	2466
482	619	2270
483	1923	2535
484	1400	2202
485	1029	1648
486	606	1348
487	1384	1746
488	878	2285
489	688	1960
490	1361	1822
491	1139	2675
492	1227	2510
493	1330	1705
494	0	718
495	1243	2284
496	388	1092
497	755	2264
498	806	2449
499	394	1348
500	1768	2318
501	530	1660
502	437	1758
503	126	434
504	222	1915
505	1010	1719
506	549	1694
507	2307	2939
508	1338	3000
509	237	1309
510	208	652
511	1821	3000
512	1145	1809
513	753	1376
514	831	2381
515	97	1331
516	146	460
517	0	1667
518	346	1793
519	256	1178
520	1955	2544
521	1310	1802
522	1427	2743
523	0	736
524	0	1576
525	568	2554
526	1070	2974
527	389	1163
528	1167	2286
529	0	1693
530	0	1547
531	488	2218
532	0	1770
533	0	1091
534	443	1685
535	125	1435
536	72	1894
537	51	1875
538	496	2241
539	978	2737
540	539	960
541	469	1575
542	1269	2828
543	929	2306
544	1466	2699
545	651	1489
546	267	1018
547	1916	2237
548	1065	1402
549	655	2337
550	1157	2381
551	1440	2330
552	180	1049
553	2120	2380
554	1015	2652
555	260	2046
556	820	2597
557	1783	2539
558	359	1049
559	531	1770
560	434	750
561	0	1213
562	1222	2514
563	303	1680
564	0	1603
565	1481	2104
566	1374	1603
567	1452	2784
568	0	1862
569	89	383
570	232	1738
571	0	1389
572	1676	2671
573	1960	2241
574	1775	3000
575	0	1496
576	1605	2111
577	453	1554
578	1545	2380
579	681	1313
580	577	1523
581	741	1767
582	396	2149
583	1231	3000
584	1166	2539
585	445	1760
586	1191	2060
587	1320	1972
588	1465	1677
589	410	1069
590	615	1510
591	149	1863
592	587	1642
593	626	1304
594	0	777
595	968	2256
596	250	1576
597	1694	2371
598	893	1557
599	921	1295
600	1325	2518
601	330	1895
602	149	1862
603	893	1185
604	1470	3000
605	2107	3000
606	558	814
607	1012	1342
608	750	1652
609	361	1884
610	1018	2061
611	1797	2640
612	929	2511
613	848	1359
614	1534	2624
615	17	358
616	1445	2062
617	333	1464
618	938	2531
619	926	1270
620	1470	2995
621	735	1346
622	504	1636
623	772	1585
624	1185	2884
625	2139	2477
626	802	2629
627	148	1830
628	665	2080
629	0	1620
630	306	1561
631	473	1124
632	206	1210
633	798	1753
634	1725	2731
635	2274	2697
636	268	1819
637	495	1225
638	830	1071
639	1767	2346
640	994	2667
641	815	2089
642	1008	1337
643	531	2079
644	1086	1983
645	0	1156
646	550	1169
647	421	1094
648	63	1177
649	727	1712
650	229	2213
651	145	1276
652	1876	2169
653	1232	2520
654	610	2308
655	0	1946
656	842	2331
657	550	1304
658	379	1827
659	1383	2304
660	1817	2606
661	1383	2193
662	97	1409
663	501	2168
664	911	2242
665	869	2781
666	426	2281
667	1112	1451
668	1327	2282
669	631	2276
670	371	1775
671	864	2779
672	382	1857
673	1475	2443
674	836	2283
675	1377	2307
676	1736	2090
677	1748	1996
678	468	1996
679	1381	1777
680	1540	2758
681	868	2589
682	0	1186
683	597	1228
684	623	1911
685	531	2419
686	1378	2146
687	1496	3000
688	282	1368
689	1339	2336
690	966	2278
691	49	1828
692	502	1309
693	0	1446
694	1032	2828
695	665	2165
696	0	1669
697	855	2079
698	538	1757
699	665	1531
700	1579	2435
701	170	2039
702	1332	2229
703	0	1578
704	1471	2806
705	578	1088
706	1349	2056
707	568	1620
708	338	1874
709	879	1801
710	22	1954
711	1168	2857
712	1017	2863
713	1060	1578
714	1108	1483
715	868	1971
716	2335	2595
717	1707	2848
718	2005	2452
719	1137	1902
720	1595	1952
721	0	1316
722	620	2083
723	562	1177
724	745	1487
725	581	2219
726	2114	2868
727	136	1534
728	1180	2955
729	472	1782
730	383	2252
731	329	1159
732	824	1164
733	552	985
734	752	1470
735	834	2130
736	1072	2599
737	0	1351
738	354	1366
739	805	2187
740	567	1711
741	1536	2249
742	1595	2384
743	1442	2376
744	1094	1326
745	246	1271
746	240	1299
747	792	1829
748	1412	2737
749	0	1476
750	1463	2178
751	588	2453
752	958	1332
753	638	1234
754	385	1133
755	0	1582
756	387	1294
757	436	2411
758	198	1035
759	1209	2563
760	1408	2849
761	318	1714
762	835	1802
763	994	2446
764	1387	2611
765	1201	3000
766	665	1531
767	629	2137
768	310	1366
769	356	2243
770	1315	2488
771	1021	2697
772	513	2141
773	1698	3000
774	795	1440
775	1613	2450
776	246	1814
777	391	2221
778	1091	2000
779	360	1741
780	27	1927
781	816	1367
782	906	2720
783	2034	2576
784	1553	2493
785	1220	2745
786	0	1481
787	1746	2326
788	1161	2092
789	1067	2568
790	342	1140
791	0	1501
792	1586	3000
793	885	2157
794	484	1761
795	355	1447
796	280	1148
797	932	2049
798	1516	2554
799	1360	2882
800	1454	3000
801	1077	1776
802	703	1520
803	0	1320
804	452	1566
805	191	987
806	2301	2600
807	1991	2234
808	1204	2851
809	156	1643
810	2074	2310
811	668	1878
812	1830	2049
813	363	2312
814	816	2457
815	504	1500
816	857	1113
817	1440	2195
818	1181	2740
819	497	1903
820	226	844
821	1211	3000
822	2031	2261
823	0	1717
824	1162	2165
825	1002	2517
826	1780	2385
827	1290	2946
828	584	2134
829	157	508
830	1212	3000
831	804	2427
832	1449	3000
833	941	1662
834	682	2235
835	2137	2517
836	106	863
837	1294	2342
838	4	1853
839	1933	2410
840	2152	2450
841	640	1488
842	421	1899
843	1489	2114
844	919	1933
845	965	1930
846	686	2243
847	1429	2370
848	99	1534
849	679	1499
850	367	1318
851	778	2723
852	1243	2418
853	858	1473
854	1351	1871
855	1167	2409
856	1584	1941
857	1204	2858
858	1749	2633
859	1843	2521
860	1482	2180
861	1685	2864
862	0	1118
863	109	1990
864	1084	2849
865	1331	2465
866	313	1252
867	1352	1650
868	2173	2613
869	1704	2371
870	0	945
871	967	2758
872	1120	1924
873	201	1923
874	1408	2241
875	807	1090
876	1574	1973
877	1914	2679
878	1437	3000
879	2102	2608
880	330	1796
881	632	2472
882	1496	2631
883	0	1334
884	589	1902
885	87	1225
886	1422	1870
887	0	1300
888	218	1036
889	1706	2091
890	1021	1952
891	0	1593
892	750	1637
893	715	1888
894	459	996
895	520	1102
896	1509	2874
897	1420	2426
898	1325	1536
899	1014	1804
900	55	1991
901	0	1059
902	1216	3000
903	908	2843
904	0	1822
905	539	784
906	438	1906
907	419	1517
908	428	1495
909	862	2359
910	459	1349
911	1303	2639
912	1751	3000
913	403	1069
914	1480	2479
915	1216	3000
916	337	1012
917	844	1684
918	1852	2967
919	1456	3000
920	1141	2469
921	273	2117
922	272	1748
923	1834	2343
924	889	2299
925	0	1771
926	0	900
927	1026	1608
928	0	1543
929	1315	2704
930	312	2022
931	1021	1974
932	236	1596
933	1228	2396
934	1184	1882
935	743	1981
936	617	2298
937	873	2844
938	1333	2314
939	51	1393
940	578	1758
941	636	1099
942	85	2063
943	2006	2492
944	425	2105
945	1106	3000
946	346	1769
947	984	1703
948	376	1505
949	1731	3000
950	1701	2567
951	23	682
952	754	2134
953	1043	2783
954	1207	2602
955	931	2655
956	1438	2108
957	400	1657
958	998	1361
959	1063	2572
960	1133	2898
961	1163	2615
962	0	1463
963	1544	2148
964	438	2201
965	1334	2879
966	98	1835
967	414	2401
968	562	2157
969	752	1754
970	1398	2667
971	1141	1699
972	1700	2269
973	159	1534
974	1345	2821
975	1055	2167
976	481	1175
977	1137	1886
978	1343	2913
979	1245	2413
980	179	886
981	438	2319
982	757	968
983	890	1824
984	840	1679
985	1202	1402
986	1382	1848
987	0	1786
988	759	1723
989	438	1573
990	825	2227
991	1548	2500
992	269	1203
993	1150	2627
994	791	2630
995	396	1853
996	910	2710
997	60	1848
998	813	2441
999	738	1752
1000	1635	2170
1001	511	1090
BACKHAUL_SECTION
5	7	10	16	19	26	30	34	47	68	79	87	97	103	104	106	108	110	111	113	129	137	138	143	145	157	163	170	182	185	192	193	194	198	199	209	215	216	223	233	236	246	248	264	270	281	284	289	292	295	296	297	303	304	305	306	307	309	319	326	328	329	335	338	340	350	356	360	364	366	368	374	379	381	382	392	394	397	418	423	436	438	442	444	460	461	462	464	466	474	479	480	482	487	488	490	496	513	519	521	532	533	546	549	558	571	572	574	577	581	588	589	594	597	599	601	603	604	626	627	643	645	647	651	655	658	659	660	661	664	667	668	670	677	683	689	692	694	697	706	716	718	731	738	752	757	765	769	776	780	785	794	797	798	802	805	807	808	810	823	830	834	835	836	837	839	846	849	851	852	858	869	878	886	894	896	898	906	916	929	931	934	941	943	947	950	955	958	960	963	971	972	973	978	979	981	984	987	988	992	-1
DEPOT_SECTION
1
-1
EOF
