NAME : n1001-0024
COMMENT : "Generated by pyvrp_manuel (OVRPBLTW)"
TYPE : OVRPBLTW
DIMENSION : 1001
EDGE_WEIGHT_TYPE : EUC_2D
CAPACITY : 150
VEHICLES : 1000
OPEN_ROUTE : YES
DISTANCE : 3000
SERVICE_TIME : 200
NODE_COORD_SECTION
1	106	121
2	479	403
3	114	648
4	995	933
5	483	748
6	173	429
7	542	424
8	825	770
9	116	42
10	202	193
11	171	976
12	572	537
13	834	775
14	664	693
15	89	740
16	583	378
17	871	209
18	736	936
19	425	466
20	676	746
21	935	924
22	28	439
23	379	512
24	480	215
25	37	258
26	158	947
27	886	833
28	286	172
29	186	582
30	382	511
31	800	246
32	976	85
33	207	766
34	132	496
35	34	248
36	660	622
37	222	440
38	146	784
39	140	332
40	653	269
41	484	980
42	417	404
43	995	566
44	303	178
45	996	718
46	79	23
47	27	742
48	726	428
49	276	512
50	107	235
51	705	198
52	20	444
53	743	672
54	886	447
55	345	665
56	505	576
57	30	631
58	227	12
59	670	331
60	71	390
61	268	130
62	443	781
63	117	652
64	818	769
65	840	687
66	965	37
67	23	428
68	658	981
69	789	988
70	985	309
71	519	415
72	929	569
73	444	63
74	207	58
75	306	613
76	281	660
77	828	629
78	119	565
79	70	413
80	343	811
81	962	526
82	916	991
83	780	481
84	364	272
85	269	530
86	804	848
87	787	879
88	162	871
89	59	481
90	525	189
91	214	46
92	804	272
93	853	172
94	282	303
95	275	266
96	381	866
97	95	40
98	187	706
99	757	882
100	820	630
101	488	821
102	909	389
103	651	55
104	933	792
105	730	4
106	599	810
107	279	935
108	138	421
109	178	763
110	25	217
111	945	682
112	61	301
113	328	244
114	139	245
115	312	568
116	458	369
117	671	404
118	159	230
119	363	531
120	259	835
121	349	475
122	571	764
123	169	345
124	52	416
125	3	55
126	331	953
127	951	870
128	626	675
129	462	229
130	753	448
131	564	736
132	942	856
133	290	62
134	1	761
135	750	106
136	356	397
137	808	557
138	549	358
139	625	545
140	628	692
141	548	624
142	668	520
143	826	904
144	820	522
145	968	238
146	859	162
147	113	55
148	980	510
149	958	473
150	245	372
151	619	773
152	115	537
153	107	973
154	255	9
155	333	594
156	33	407
157	31	5
158	364	224
159	519	608
160	339	848
161	736	713
162	560	977
163	724	650
164	432	152
165	441	173
166	447	562
167	854	89
168	808	620
169	928	160
170	406	819
171	364	786
172	335	437
173	600	880
174	691	43
175	419	345
176	67	521
177	98	701
178	183	386
179	49	853
180	323	947
181	877	108
182	476	125
183	651	99
184	273	149
185	382	510
186	849	223
187	644	560
188	427	374
189	696	993
190	168	572
191	736	300
192	575	874
193	657	986
194	54	942
195	383	884
196	39	623
197	565	19
198	300	873
199	282	679
200	385	911
201	678	788
202	276	408
203	257	311
204	247	127
205	833	466
206	304	536
207	473	712
208	887	811
209	145	845
210	28	770
211	743	462
212	446	723
213	568	795
214	544	352
215	1	378
216	956	925
217	249	85
218	478	454
219	862	842
220	165	586
221	209	385
222	206	681
223	345	709
224	254	836
225	42	183
226	513	613
227	277	397
228	452	136
229	350	569
230	634	721
231	59	762
232	158	586
233	610	429
234	421	742
235	422	121
236	952	403
237	855	48
238	271	563
239	654	943
240	785	332
241	363	288
242	17	317
243	101	98
244	625	752
245	28	594
246	554	917
247	517	494
248	89	727
249	562	446
250	738	295
251	101	733
252	822	86
253	339	418
254	919	687
255	752	833
256	401	421
257	992	457
258	683	751
259	115	60
260	222	407
261	171	685
262	718	78
263	736	691
264	935	620
265	707	534
266	195	123
267	386	3
268	953	785
269	926	300
270	444	263
271	573	241
272	927	828
273	813	760
274	594	154
275	913	48
276	830	322
277	228	371
278	511	795
279	253	477
280	368	802
281	739	276
282	747	179
283	395	193
284	584	717
285	487	647
286	380	93
287	302	149
288	513	398
289	369	890
290	469	419
291	201	52
292	201	524
293	774	418
294	935	238
295	375	693
296	348	6
297	177	752
298	134	495
299	368	800
300	375	182
301	249	329
302	88	96
303	274	974
304	103	219
305	836	508
306	33	322
307	856	504
308	676	490
309	111	480
310	17	679
311	118	215
312	876	816
313	665	618
314	824	185
315	608	235
316	956	636
317	286	833
318	170	550
319	405	983
320	842	609
321	415	739
322	105	144
323	128	500
324	903	408
325	378	317
326	990	611
327	747	359
328	807	983
329	288	454
330	6	77
331	818	598
332	15	289
333	332	283
334	758	229
335	329	313
336	791	365
337	98	603
338	323	624
339	375	24
340	343	708
341	883	730
342	844	873
343	839	133
344	589	786
345	718	677
346	97	413
347	547	822
348	199	319
349	678	168
350	30	950
351	123	304
352	301	263
353	513	778
354	766	407
355	267	29
356	829	195
357	358	781
358	212	448
359	989	715
360	305	330
361	438	15
362	245	728
363	625	80
364	141	661
365	572	135
366	478	708
367	132	489
368	474	153
369	768	418
370	512	8
371	937	711
372	710	1000
373	276	677
374	886	881
375	11	960
376	92	242
377	107	861
378	332	374
379	663	870
380	249	739
381	413	886
382	258	47
383	877	709
384	690	760
385	391	305
386	829	96
387	96	879
388	268	637
389	569	345
390	68	950
391	415	209
392	835	666
393	605	617
394	207	31
395	705	223
396	174	357
397	664	793
398	388	919
399	70	108
400	31	26
401	505	55
402	239	151
403	944	955
404	660	335
405	617	654
406	945	260
407	240	207
408	519	915
409	131	35
410	9	479
411	886	777
412	50	142
413	353	767
414	44	980
415	155	578
416	319	593
417	410	628
418	878	604
419	433	411
420	412	213
421	572	96
422	360	975
423	94	241
424	782	363
425	551	541
426	770	604
427	756	643
428	586	117
429	822	153
430	226	794
431	145	372
432	722	410
433	488	61
434	869	634
435	404	528
436	259	386
437	709	283
438	810	358
439	187	232
440	671	607
441	516	50
442	685	215
443	228	936
444	310	840
445	879	972
446	794	935
447	475	935
448	679	863
449	425	772
450	818	780
451	287	323
452	218	948
453	601	498
454	365	768
455	593	580
456	765	834
457	232	749
458	360	25
459	984	714
460	384	703
461	284	738
462	454	710
463	615	810
464	576	217
465	587	285
466	415	763
467	945	596
468	978	628
469	985	196
470	559	370
471	705	559
472	983	584
473	639	613
474	755	42
475	971	543
476	235	604
477	514	780
478	193	25
479	550	686
480	630	509
481	968	450
482	107	649
483	897	809
484	738	590
485	766	907
486	266	353
487	881	923
488	238	44
489	516	682
490	999	587
491	559	638
492	2	966
493	12	896
494	992	224
495	607	98
496	477	346
497	163	554
498	281	149
499	76	931
500	304	55
501	129	574
502	392	174
503	597	336
504	250	27
505	560	323
506	911	574
507	264	31
508	762	529
509	628	563
510	514	665
511	273	578
512	763	753
513	90	433
514	885	113
515	26	67
516	966	401
517	816	298
518	478	134
519	132	634
520	646	147
521	592	598
522	210	176
523	246	757
524	358	481
525	478	741
526	288	139
527	241	391
528	374	243
529	282	198
530	378	622
531	514	309
532	381	806
533	457	493
534	606	778
535	332	495
536	48	896
537	137	933
538	79	290
539	522	374
540	40	750
541	337	671
542	375	601
543	522	821
544	674	299
545	348	746
546	38	926
547	951	846
548	378	628
549	357	938
550	390	174
551	442	568
552	748	453
553	950	353
554	283	912
555	982	966
556	369	846
557	452	187
558	798	4
559	510	117
560	357	449
561	263	334
562	659	274
563	564	670
564	663	672
565	466	921
566	307	219
567	133	256
568	377	411
569	336	620
570	322	772
571	142	39
572	934	524
573	758	888
574	648	102
575	674	30
576	44	515
577	658	234
578	334	225
579	555	670
580	662	372
581	698	249
582	638	189
583	464	582
584	333	646
585	944	698
586	781	915
587	711	537
588	229	699
589	523	438
590	385	8
591	472	909
592	2	425
593	638	256
594	871	689
595	669	637
596	319	765
597	842	38
598	24	319
599	841	687
600	522	441
601	895	85
602	189	650
603	60	295
604	762	306
605	478	301
606	989	119
607	455	731
608	612	548
609	741	252
610	676	289
611	185	16
612	148	284
613	64	707
614	444	355
615	577	480
616	262	737
617	42	273
618	943	418
619	940	685
620	181	448
621	952	290
622	783	487
623	478	306
624	813	879
625	35	855
626	762	946
627	87	944
628	213	866
629	255	357
630	126	14
631	829	979
632	311	115
633	996	23
634	37	862
635	200	16
636	736	23
637	501	388
638	260	869
639	413	99
640	381	322
641	229	421
642	628	175
643	936	540
644	965	598
645	130	509
646	526	668
647	327	133
648	108	322
649	988	588
650	978	109
651	99	480
652	933	54
653	749	875
654	930	883
655	582	452
656	949	426
657	910	35
658	807	657
659	962	904
660	785	104
661	206	453
662	764	946
663	556	772
664	999	914
665	596	418
666	750	615
667	204	293
668	327	440
669	656	882
670	240	777
671	263	618
672	637	319
673	142	406
674	924	792
675	997	924
676	685	270
677	860	562
678	60	265
679	593	860
680	812	466
681	560	345
682	367	535
683	806	985
684	46	921
685	963	30
686	932	717
687	545	991
688	876	281
689	174	562
690	904	932
691	214	422
692	638	535
693	581	846
694	948	189
695	213	65
696	210	661
697	220	543
698	387	16
699	707	742
700	861	164
701	326	235
702	30	235
703	809	977
704	358	679
705	530	639
706	668	136
707	577	286
708	277	862
709	974	832
710	387	901
711	562	885
712	901	380
713	99	581
714	48	300
715	215	147
716	220	747
717	707	404
718	599	753
719	96	448
720	901	604
721	365	156
722	277	752
723	140	76
724	114	349
725	631	232
726	497	177
727	560	879
728	628	596
729	103	241
730	375	386
731	569	802
732	554	93
733	999	696
734	726	629
735	303	204
736	474	152
737	126	426
738	621	947
739	549	547
740	269	673
741	92	980
742	274	877
743	866	174
744	785	745
745	772	280
746	986	294
747	147	58
748	248	735
749	135	12
750	448	872
751	781	416
752	541	142
753	138	116
754	402	770
755	337	829
756	602	749
757	477	978
758	446	203
759	677	662
760	110	449
761	776	590
762	786	913
763	547	796
764	674	132
765	97	901
766	161	748
767	154	14
768	59	161
769	65	962
770	175	326
771	540	239
772	600	48
773	725	812
774	142	293
775	736	270
776	384	888
777	714	104
778	526	971
779	256	1
780	882	119
781	956	223
782	50	762
783	675	47
784	156	181
785	445	553
786	638	144
787	364	486
788	741	693
789	117	62
790	32	175
791	998	495
792	983	15
793	965	926
794	487	105
795	635	969
796	435	994
797	303	862
798	779	51
799	979	457
800	670	853
801	177	667
802	696	513
803	605	752
804	850	825
805	504	973
806	223	946
807	60	24
808	173	833
809	737	880
810	390	952
811	694	798
812	759	716
813	300	659
814	599	161
815	467	651
816	854	65
817	6	151
818	187	481
819	78	265
820	943	506
821	586	507
822	744	838
823	23	45
824	2	591
825	732	344
826	811	471
827	684	651
828	231	386
829	448	408
830	209	205
831	772	485
832	562	192
833	375	241
834	308	906
835	529	52
836	576	879
837	555	140
838	90	825
839	383	453
840	102	655
841	320	842
842	319	37
843	887	146
844	289	542
845	82	816
846	107	770
847	62	395
848	231	253
849	207	540
850	171	527
851	424	163
852	957	699
853	122	980
854	190	394
855	812	460
856	965	721
857	142	184
858	83	750
859	998	39
860	292	482
861	562	131
862	782	247
863	633	827
864	461	363
865	611	260
866	850	132
867	317	311
868	885	205
869	550	699
870	517	402
871	652	150
872	944	583
873	182	93
874	979	730
875	241	556
876	601	272
877	614	165
878	350	33
879	124	753
880	867	605
881	391	656
882	358	143
883	497	845
884	830	755
885	766	82
886	743	648
887	369	471
888	761	723
889	615	830
890	554	361
891	534	265
892	460	818
893	626	172
894	569	890
895	609	481
896	757	901
897	343	994
898	749	410
899	981	96
900	681	815
901	246	551
902	19	670
903	660	492
904	264	404
905	23	846
906	726	478
907	895	21
908	133	66
909	675	690
910	474	334
911	421	887
912	366	378
913	727	868
914	34	464
915	547	299
916	471	314
917	684	15
918	417	719
919	561	67
920	98	252
921	889	512
922	797	625
923	68	912
924	163	369
925	513	585
926	482	521
927	265	164
928	586	65
929	155	808
930	679	205
931	706	990
932	460	615
933	101	551
934	678	827
935	613	467
936	641	671
937	512	779
938	62	225
939	760	404
940	400	988
941	500	589
942	82	941
943	207	660
944	140	773
945	445	516
946	539	77
947	768	205
948	703	964
949	296	379
950	78	816
951	20	625
952	202	434
953	567	590
954	174	575
955	159	472
956	896	27
957	29	487
958	351	471
959	762	449
960	978	59
961	488	803
962	668	61
963	585	391
964	233	342
965	871	274
966	611	91
967	554	34
968	610	499
969	999	948
970	964	177
971	196	952
972	275	536
973	83	96
974	531	462
975	697	392
976	70	740
977	515	107
978	437	928
979	712	816
980	775	283
981	188	227
982	34	504
983	478	937
984	987	368
985	887	729
986	966	692
987	228	738
988	52	423
989	46	714
990	592	502
991	234	774
992	824	91
993	688	1
994	639	230
995	519	414
996	233	80
997	909	962
998	546	386
999	65	61
1000	306	182
1001	563	634
DEMAND_SECTION
1	0
2	4
3	2
4	5
5	7
6	2
7	5
8	4
9	7
10	3
11	1
12	4
13	4
14	1
15	3
16	1
17	8
18	2
19	1
20	5
21	1
22	3
23	1
24	3
25	7
26	9
27	2
28	1
29	3
30	5
31	3
32	7
33	9
34	9
35	4
36	9
37	8
38	4
39	8
40	3
41	6
42	5
43	3
44	9
45	9
46	6
47	3
48	3
49	3
50	1
51	6
52	2
53	7
54	9
55	6
56	8
57	7
58	4
59	8
60	2
61	9
62	1
63	8
64	5
65	4
66	7
67	3
68	3
69	5
70	5
71	7
72	1
73	6
74	3
75	2
76	2
77	5
78	1
79	4
80	7
81	2
82	8
83	1
84	6
85	8
86	3
87	3
88	1
89	1
90	9
91	6
92	4
93	8
94	8
95	7
96	9
97	6
98	2
99	1
100	3
101	3
102	1
103	6
104	9
105	2
106	7
107	2
108	7
109	3
110	6
111	9
112	6
113	8
114	8
115	8
116	7
117	9
118	9
119	3
120	6
121	4
122	7
123	2
124	7
125	7
126	2
127	4
128	6
129	2
130	1
131	3
132	6
133	5
134	3
135	9
136	8
137	1
138	7
139	4
140	1
141	6
142	5
143	7
144	4
145	1
146	8
147	9
148	7
149	9
150	6
151	4
152	1
153	5
154	9
155	4
156	1
157	3
158	1
159	9
160	4
161	5
162	7
163	9
164	3
165	7
166	7
167	1
168	3
169	5
170	7
171	7
172	2
173	3
174	6
175	3
176	8
177	4
178	7
179	5
180	2
181	8
182	3
183	4
184	6
185	5
186	1
187	7
188	1
189	4
190	6
191	9
192	1
193	6
194	8
195	1
196	1
197	1
198	7
199	6
200	3
201	7
202	2
203	6
204	5
205	4
206	2
207	8
208	8
209	6
210	2
211	5
212	4
213	1
214	9
215	4
216	9
217	8
218	5
219	2
220	3
221	8
222	8
223	3
224	2
225	9
226	2
227	6
228	8
229	8
230	8
231	6
232	8
233	7
234	5
235	9
236	2
237	7
238	9
239	4
240	3
241	2
242	6
243	2
244	4
245	7
246	9
247	3
248	6
249	1
250	1
251	1
252	5
253	3
254	9
255	4
256	2
257	8
258	9
259	1
260	1
261	6
262	2
263	2
264	2
265	9
266	3
267	4
268	5
269	5
270	1
271	5
272	2
273	8
274	7
275	6
276	1
277	4
278	7
279	2
280	4
281	7
282	6
283	2
284	7
285	7
286	2
287	4
288	7
289	1
290	6
291	1
292	3
293	8
294	4
295	5
296	8
297	5
298	8
299	3
300	1
301	3
302	8
303	4
304	2
305	7
306	7
307	7
308	9
309	6
310	4
311	6
312	9
313	9
314	3
315	4
316	6
317	1
318	5
319	4
320	1
321	2
322	5
323	8
324	7
325	1
326	1
327	5
328	3
329	5
330	4
331	1
332	9
333	9
334	4
335	1
336	6
337	6
338	6
339	1
340	8
341	3
342	6
343	7
344	7
345	1
346	3
347	3
348	5
349	1
350	2
351	3
352	7
353	3
354	1
355	8
356	9
357	4
358	6
359	4
360	2
361	3
362	6
363	3
364	8
365	8
366	2
367	4
368	8
369	1
370	9
371	3
372	9
373	6
374	2
375	3
376	9
377	5
378	3
379	4
380	8
381	6
382	2
383	3
384	2
385	7
386	5
387	4
388	1
389	7
390	2
391	4
392	5
393	6
394	9
395	4
396	1
397	4
398	5
399	1
400	9
401	9
402	9
403	9
404	1
405	6
406	4
407	3
408	8
409	4
410	3
411	6
412	9
413	3
414	4
415	4
416	9
417	7
418	6
419	8
420	9
421	8
422	2
423	4
424	4
425	2
426	7
427	6
428	9
429	4
430	9
431	9
432	4
433	4
434	1
435	9
436	6
437	6
438	4
439	2
440	3
441	6
442	6
443	6
444	6
445	4
446	4
447	3
448	5
449	6
450	1
451	6
452	7
453	7
454	5
455	9
456	9
457	2
458	6
459	5
460	5
461	9
462	5
463	8
464	1
465	7
466	1
467	9
468	7
469	4
470	9
471	4
472	1
473	8
474	6
475	9
476	9
477	3
478	5
479	1
480	4
481	2
482	8
483	6
484	4
485	7
486	9
487	2
488	3
489	8
490	7
491	7
492	7
493	7
494	9
495	9
496	9
497	4
498	3
499	9
500	6
501	5
502	5
503	8
504	9
505	5
506	2
507	5
508	1
509	8
510	8
511	7
512	8
513	6
514	5
515	7
516	5
517	9
518	5
519	5
520	6
521	2
522	4
523	7
524	5
525	4
526	5
527	9
528	1
529	2
530	8
531	1
532	6
533	6
534	2
535	3
536	4
537	6
538	1
539	5
540	8
541	8
542	3
543	8
544	3
545	8
546	5
547	4
548	8
549	7
550	1
551	5
552	3
553	3
554	6
555	3
556	9
557	6
558	1
559	7
560	2
561	8
562	7
563	6
564	5
565	8
566	4
567	9
568	4
569	7
570	7
571	3
572	4
573	3
574	4
575	3
576	5
577	5
578	6
579	7
580	2
581	6
582	1
583	1
584	3
585	7
586	3
587	7
588	5
589	6
590	6
591	9
592	2
593	1
594	4
595	8
596	9
597	4
598	6
599	6
600	1
601	9
602	9
603	9
604	6
605	9
606	3
607	4
608	9
609	7
610	1
611	5
612	8
613	9
614	2
615	8
616	3
617	6
618	9
619	6
620	4
621	9
622	1
623	3
624	5
625	2
626	3
627	5
628	3
629	9
630	2
631	6
632	7
633	7
634	3
635	7
636	9
637	1
638	3
639	3
640	2
641	8
642	3
643	1
644	3
645	1
646	2
647	1
648	5
649	5
650	3
651	9
652	5
653	2
654	7
655	4
656	4
657	9
658	9
659	8
660	3
661	6
662	9
663	8
664	5
665	3
666	7
667	4
668	1
669	1
670	5
671	5
672	7
673	3
674	9
675	7
676	4
677	1
678	9
679	4
680	8
681	1
682	8
683	6
684	5
685	5
686	1
687	5
688	1
689	4
690	4
691	5
692	1
693	2
694	9
695	1
696	3
697	2
698	2
699	1
700	3
701	8
702	8
703	6
704	5
705	4
706	7
707	1
708	1
709	1
710	7
711	5
712	8
713	2
714	2
715	6
716	3
717	7
718	9
719	5
720	4
721	1
722	1
723	2
724	9
725	8
726	1
727	2
728	4
729	6
730	6
731	2
732	1
733	5
734	6
735	9
736	5
737	7
738	8
739	7
740	8
741	3
742	5
743	5
744	1
745	2
746	3
747	1
748	7
749	4
750	9
751	4
752	1
753	1
754	8
755	1
756	7
757	3
758	5
759	3
760	2
761	2
762	7
763	8
764	5
765	8
766	4
767	5
768	4
769	9
770	5
771	3
772	3
773	8
774	5
775	1
776	2
777	6
778	4
779	8
780	2
781	9
782	4
783	9
784	5
785	8
786	8
787	4
788	6
789	5
790	8
791	7
792	6
793	5
794	9
795	4
796	9
797	6
798	6
799	8
800	1
801	5
802	9
803	5
804	8
805	1
806	3
807	1
808	4
809	7
810	8
811	3
812	9
813	3
814	2
815	1
816	5
817	4
818	7
819	2
820	6
821	5
822	4
823	5
824	4
825	6
826	3
827	3
828	6
829	3
830	4
831	4
832	8
833	1
834	1
835	4
836	9
837	5
838	5
839	2
840	7
841	8
842	3
843	7
844	8
845	3
846	8
847	3
848	7
849	7
850	7
851	8
852	7
853	4
854	9
855	5
856	8
857	9
858	5
859	5
860	4
861	6
862	9
863	5
864	7
865	2
866	5
867	1
868	5
869	3
870	9
871	5
872	9
873	4
874	9
875	8
876	4
877	2
878	7
879	3
880	6
881	1
882	4
883	6
884	7
885	2
886	4
887	8
888	4
889	7
890	5
891	2
892	5
893	4
894	9
895	5
896	7
897	3
898	1
899	2
900	6
901	9
902	5
903	1
904	9
905	9
906	4
907	2
908	4
909	7
910	5
911	9
912	5
913	1
914	3
915	4
916	2
917	8
918	3
919	4
920	3
921	9
922	1
923	1
924	2
925	8
926	5
927	5
928	7
929	5
930	8
931	1
932	5
933	8
934	9
935	9
936	2
937	8
938	6
939	3
940	8
941	3
942	1
943	6
944	7
945	4
946	7
947	5
948	6
949	5
950	6
951	5
952	5
953	6
954	2
955	9
956	4
957	1
958	9
959	4
960	6
961	4
962	8
963	1
964	9
965	1
966	6
967	1
968	9
969	7
970	6
971	4
972	2
973	2
974	5
975	6
976	7
977	9
978	8
979	7
980	1
981	1
982	9
983	6
984	4
985	6
986	1
987	8
988	7
989	7
990	9
991	5
992	5
993	2
994	8
995	5
996	2
997	9
998	3
999	9
1000	2
1001	2
TIME_WINDOW_SECTION
1	0	3000
2	904	2065
3	813	1562
4	683	2182
5	1460	2627
6	884	2540
7	995	2344
8	475	1843
9	128	1673
10	1467	1694
11	1091	1487
12	1004	1579
13	706	1629
14	792	1021
15	800	1223
16	1265	1841
17	955	1327
18	110	2045
19	1913	2607
20	1226	2537
21	475	1978
22	801	1772
23	1213	2101
24	1281	1689
25	0	1154
26	617	2468
27	1044	1915
28	1513	3000
29	778	2652
30	519	2080
31	343	1912
32	314	2056
33	1328	2538
34	0	1056
35	100	1103
36	98	1586
37	0	1189
38	804	2116
39	54	478
40	1037	2538
41	830	2664
42	966	2833
43	508	1860
44	996	2213
45	605	2347
46	1263	1554
47	862	1137
48	631	1225
49	1626	2423
50	712	2622
51	744	2518
52	1591	2654
53	1222	2237
54	543	2255
55	18	1636
56	1915	2116
57	1197	1779
58	1545	2545
59	884	2569
60	610	2420
61	0	1691
62	1079	2418
63	710	2531
64	720	2376
65	1628	1989
66	1094	1488
67	1312	2917
68	940	2200
69	625	2372
70	300	1586
71	0	1730
72	616	1519
73	716	1537
74	2049	2641
75	1701	2196
76	321	1567
77	784	2671
78	1935	2221
79	1016	2874
80	818	1808
81	784	2583
82	467	2109
83	712	2099
84	823	2550
85	1339	2782
86	926	1812
87	784	1694
88	474	2391
89	1442	1686
90	1513	1850
91	221	2206
92	178	1942
93	423	1297
94	1617	2940
95	1241	2475
96	1125	2379
97	0	663
98	1954	2354
99	1352	1587
100	1147	2472
101	858	1273
102	1514	2004
103	505	2271
104	590	2142
105	287	1981
106	670	2177
107	1113	1324
108	1728	2280
109	695	1174
110	2430	2904
111	920	2098
112	1143	2791
113	0	1837
114	0	950
115	515	834
116	208	964
117	856	1364
118	1447	1690
119	83	1610
120	1443	1990
121	285	740
122	787	2326
123	1302	2270
124	1887	2284
125	1767	2669
126	1200	2353
127	448	1954
128	1551	2255
129	496	1792
130	999	2686
131	1145	1792
132	774	1990
133	405	2027
134	948	2419
135	917	2554
136	925	2319
137	762	1707
138	867	2752
139	747	1895
140	1565	2049
141	854	1629
142	1063	1582
143	767	2459
144	764	2233
145	612	2105
146	548	1409
147	946	2794
148	1215	1657
149	464	1583
150	0	1218
151	1052	2708
152	882	2062
153	0	1808
154	1847	2834
155	1119	1788
156	1532	2367
157	986	1674
158	1091	2775
159	37	1478
160	1022	1827
161	94	1860
162	830	1356
163	585	1457
164	1142	3000
165	1019	2249
166	0	1364
167	448	1438
168	1108	2331
169	825	1316
170	1012	2277
171	1275	2347
172	1283	2289
173	1455	1936
174	206	1422
175	1190	2840
176	1841	2587
177	1783	2415
178	650	1533
179	680	1769
180	497	2476
181	1354	1736
182	632	1742
183	658	2098
184	642	1945
185	134	1048
186	118	1887
187	0	1657
188	1273	1781
189	602	1868
190	860	1668
191	647	1422
192	1142	2410
193	816	1333
194	241	1547
195	669	1717
196	1004	2334
197	1088	2768
198	0	1784
199	1531	1890
200	1543	2215
201	999	1960
202	958	1929
203	1052	2670
204	0	902
205	864	1454
206	465	1215
207	844	1189
208	606	2170
209	939	1500
210	1601	1930
211	1393	2177
212	1341	2203
213	943	1872
214	545	917
215	1533	2966
216	1067	1780
217	1043	1371
218	469	695
219	702	1561
220	511	1087
221	1240	1844
222	585	908
223	1161	2186
224	1660	2132
225	1051	2806
226	825	2293
227	717	2292
228	1469	2287
229	1186	2902
230	340	2225
231	1857	2103
232	944	2214
233	1269	2017
234	47	1477
235	992	1477
236	1226	1979
237	1279	2365
238	1751	2123
239	762	1394
240	221	1254
241	0	864
242	1033	2773
243	1889	3000
244	566	2007
245	1204	2792
246	709	2144
247	926	2677
248	1396	2667
249	509	1003
250	791	1836
251	961	1174
252	851	1105
253	7	1346
254	310	2101
255	1228	1958
256	849	2537
257	1242	1959
258	1026	1645
259	2012	3000
260	1404	2176
261	1562	2320
262	2023	2260
263	805	2498
264	796	1989
265	525	2008
266	1164	1365
267	246	1353
268	1125	1914
269	1492	1964
270	1434	3000
271	1652	2251
272	628	2342
273	474	2061
274	836	2155
275	403	1492
276	1194	2484
277	1620	3000
278	15	1633
279	1688	1907
280	596	2571
281	530	1146
282	0	1550
283	0	1496
284	614	1239
285	1096	2778
286	983	2361
287	0	615
288	826	2375
289	388	1808
290	767	2482
291	1199	1485
292	0	1863
293	1092	1407
294	1800	2075
295	448	2182
296	493	1731
297	0	1772
298	473	1895
299	900	2879
300	1920	2181
301	2276	2771
302	675	2609
303	1264	2123
304	82	649
305	745	1754
306	0	955
307	1199	1519
308	1240	2155
309	1853	2319
310	1090	1729
311	678	1895
312	999	2034
313	1014	2408
314	1024	2124
315	183	1023
316	618	1848
317	589	883
318	516	769
319	472	2002
320	622	2395
321	1539	2299
322	1889	3000
323	1548	2114
324	255	1705
325	0	1811
326	558	1975
327	0	1555
328	1349	1975
329	750	2506
330	13	1198
331	756	1259
332	244	2150
333	224	1331
334	1780	2359
335	619	2096
336	837	1692
337	227	1383
338	1289	3000
339	1196	1708
340	1124	3000
341	662	2640
342	641	1824
343	1323	2068
344	677	1600
345	444	2327
346	1901	2700
347	485	2148
348	1296	1819
349	1441	1799
350	1028	2535
351	1289	2629
352	922	2622
353	148	2142
354	641	1455
355	635	1952
356	843	2531
357	769	1306
358	1683	2285
359	245	2224
360	706	1018
361	459	767
362	1217	1983
363	1383	2049
364	766	1912
365	1825	2337
366	695	2356
367	843	1559
368	1136	2032
369	909	1741
370	1297	3000
371	929	1412
372	1101	2027
373	576	2248
374	641	2105
375	652	1356
376	0	1207
377	1500	1968
378	1024	1558
379	641	1765
380	468	1283
381	773	1855
382	0	879
383	1533	1764
384	800	2336
385	565	2256
386	1837	2068
387	25	1699
388	1690	1894
389	868	1654
390	923	1195
391	363	1255
392	1132	2455
393	650	2220
394	130	1027
395	1148	2328
396	1072	1988
397	975	2061
398	676	2672
399	1754	3000
400	951	2801
401	2012	2709
402	0	1247
403	1038	1397
404	1291	1979
405	592	1793
406	856	2355
407	1201	1960
408	784	1714
409	670	1874
410	316	1075
411	713	1935
412	108	671
413	579	917
414	791	2591
415	1447	2152
416	992	2983
417	568	2027
418	881	2194
419	1858	2862
420	0	1246
421	0	1784
422	557	1316
423	1452	2456
424	1562	2239
425	1319	2276
426	945	1997
427	1165	2650
428	1679	1919
429	747	2102
430	193	1293
431	1317	2305
432	259	2003
433	1312	2879
434	864	1602
435	518	1975
436	1616	3000
437	1489	2524
438	580	1358
439	0	1822
440	149	2130
441	1360	1925
442	462	1247
443	1401	2226
444	860	1441
445	816	1538
446	564	1767
447	406	1965
448	1324	2306
449	264	1549
450	224	1898
451	0	1107
452	778	2593
453	1470	2632
454	688	2072
455	963	2642
456	924	2556
457	702	1453
458	997	2690
459	1099	1324
460	1429	2234
461	800	2420
462	1716	2376
463	619	2290
464	246	1666
465	217	1871
466	727	2214
467	1118	2051
468	473	2240
469	1063	2312
470	722	1504
471	199	1500
472	1200	2300
473	728	1490
474	493	1750
475	835	2434
476	800	1838
477	1021	1289
478	647	2401
479	1099	1495
480	1441	2806
481	1099	2420
482	1735	2642
483	480	2008
484	396	2367
485	1268	1977
486	1685	3000
487	488	2043
488	0	774
489	371	1710
490	560	2412
491	1071	2580
492	695	1915
493	599	1237
494	553	1315
495	850	1602
496	928	1783
497	1337	2360
498	0	965
499	865	2783
500	0	867
501	80	1144
502	941	2738
503	1426	1804
504	1924	2654
505	487	843
506	1153	2015
507	761	1791
508	34	1803
509	1630	2120
510	257	1322
511	533	2224
512	1043	1733
513	1660	2676
514	783	2304
515	611	1817
516	202	1941
517	762	1483
518	1312	2868
519	485	1573
520	691	1233
521	615	815
522	0	1047
523	1687	2023
524	260	717
525	397	2272
526	1507	3000
527	0	1848
528	1610	2462
529	523	1323
530	1488	2959
531	375	672
532	227	2079
533	310	1901
534	925	2189
535	1318	3000
536	1596	2017
537	192	2009
538	814	1880
539	510	1030
540	1674	2652
541	935	1247
542	1511	1748
543	679	1435
544	1341	1833
545	1777	2208
546	999	2941
547	620	2219
548	736	1886
549	512	2374
550	1296	2412
551	1059	1461
552	401	2365
553	1088	1547
554	1462	2246
555	1012	2150
556	405	1301
557	693	1486
558	630	1556
559	0	1594
560	1432	2319
561	1918	2368
562	1403	2554
563	1410	1971
564	785	2493
565	636	1498
566	1127	2239
567	1346	1857
568	800	2006
569	61	1966
570	545	2327
571	731	1097
572	399	1728
573	522	2284
574	676	1024
575	986	2329
576	315	2210
577	512	2257
578	1671	3000
579	1198	2270
580	811	1488
581	1444	2385
582	457	879
583	1674	2038
584	1903	2528
585	479	2437
586	1067	2295
587	0	1918
588	0	1777
589	1248	2618
590	1198	1544
591	1118	2601
592	0	1070
593	410	1071
594	359	1694
595	760	2621
596	908	1335
597	1310	2714
598	842	2051
599	223	1731
600	250	1625
601	1365	2375
602	0	1793
603	1490	2704
604	345	1141
605	1762	2644
606	1537	2234
607	998	2037
608	1532	1868
609	562	997
610	455	788
611	1840	2916
612	289	510
613	1234	2141
614	506	1985
615	722	1217
616	574	2406
617	10	999
618	911	2761
619	780	1417
620	1091	3000
621	1086	2010
622	1145	2862
623	231	2006
624	792	1565
625	1717	2346
626	351	1899
627	463	1807
628	961	1794
629	484	1084
630	0	1081
631	651	2119
632	0	1582
633	407	2118
634	718	2262
635	486	1110
636	1016	2091
637	1700	2517
638	747	2561
639	1779	2203
640	1042	2964
641	847	1195
642	952	1420
643	608	2534
644	294	1704
645	1583	2293
646	1214	1447
647	0	1773
648	1286	2230
649	1247	2242
650	998	2444
651	377	1569
652	1312	2114
653	1352	2214
654	424	2079
655	244	1476
656	447	1996
657	668	2174
658	1475	2112
659	1221	1939
660	878	1170
661	753	2470
662	745	1445
663	332	2185
664	432	1974
665	960	2256
666	1232	1533
667	364	1041
668	541	2179
669	681	2051
670	574	1816
671	1371	1936
672	1773	2475
673	1671	3000
674	894	1993
675	1212	1856
676	0	1693
677	752	2109
678	1637	3000
679	591	1777
680	1478	1982
681	379	1436
682	0	1483
683	660	2475
684	1016	2330
685	571	2056
686	1259	1670
687	1221	1792
688	1795	2107
689	525	752
690	1220	1686
691	1781	2346
692	406	1466
693	799	1527
694	1400	2014
695	1603	2708
696	1602	2858
697	260	869
698	1257	2256
699	207	1688
700	484	2438
701	1596	2549
702	1258	2240
703	341	2147
704	316	2244
705	1296	2260
706	332	2326
707	264	1573
708	1334	2651
709	929	2041
710	401	1964
711	673	1356
712	0	1792
713	758	2508
714	1778	2364
715	0	690
716	1716	1953
717	1435	1991
718	454	1287
719	230	1792
720	620	2605
721	1267	2507
722	473	1675
723	872	1603
724	1035	2077
725	1467	2497
726	1942	2349
727	760	2187
728	1373	2493
729	0	1826
730	814	2697
731	759	1425
732	1484	2749
733	307	2004
734	769	1115
735	1696	2938
736	538	2385
737	1524	3000
738	728	2429
739	604	1629
740	0	1852
741	1631	2048
742	976	2549
743	492	1539
744	1302	1793
745	1782	2153
746	1127	1365
747	0	523
748	295	1644
749	1252	1718
750	279	2030
751	401	1674
752	248	1764
753	965	1381
754	510	2477
755	291	2197
756	98	1831
757	193	1972
758	1035	1351
759	781	984
760	0	1382
761	1379	1865
762	1321	1818
763	1492	2391
764	1358	2589
765	600	1329
766	1299	1650
767	0	1277
768	1461	3000
769	791	2178
770	50	993
771	1940	2203
772	973	1330
773	653	1573
774	513	1829
775	797	2124
776	626	2585
777	598	2379
778	1360	1676
779	717	1622
780	748	2652
781	734	1025
782	698	999
783	0	1252
784	0	1653
785	335	2241
786	1177	1563
787	1071	1645
788	1341	2165
789	1043	1316
790	2329	2917
791	720	2589
792	797	1251
793	1086	1359
794	698	1881
795	754	2659
796	348	1976
797	952	2641
798	1599	2220
799	868	2068
800	1063	1844
801	496	1706
802	1643	2084
803	736	1375
804	1263	1772
805	1400	1758
806	239	1756
807	1498	2707
808	717	2201
809	583	1724
810	827	2241
811	412	1979
812	511	2100
813	1459	2669
814	1283	1486
815	241	1433
816	1410	2608
817	1016	2819
818	1450	2790
819	1691	1913
820	946	1340
821	879	1296
822	1142	2109
823	635	1780
824	1177	2629
825	882	1750
826	484	2264
827	456	2245
828	0	1421
829	374	795
830	1748	1988
831	677	2653
832	916	2180
833	827	2037
834	1588	1851
835	621	1824
836	371	1943
837	1510	2360
838	59	1678
839	1881	2124
840	573	1557
841	720	1875
842	1757	3000
843	1010	2191
844	0	1213
845	944	2133
846	645	1451
847	1088	2516
848	1969	2226
849	474	1137
850	438	1762
851	771	2702
852	1101	2316
853	732	2046
854	648	2262
855	644	1531
856	834	2265
857	839	1238
858	539	1752
859	767	2074
860	1340	2612
861	0	1174
862	570	1041
863	1246	1726
864	1184	1804
865	1126	2378
866	940	1781
867	993	1790
868	478	1890
869	522	1008
870	811	2291
871	1189	1389
872	1567	1800
873	365	918
874	731	1669
875	1078	2329
876	1573	2314
877	1011	1817
878	0	1426
879	1292	2119
880	913	1388
881	249	2159
882	1589	2082
883	848	2667
884	559	1549
885	1055	2878
886	1434	1645
887	1035	2299
888	566	1459
889	1525	2203
890	1123	2144
891	1416	3000
892	633	2363
893	688	2036
894	1063	2269
895	337	1232
896	882	2359
897	868	2285
898	1255	2247
899	501	1358
900	1361	1711
901	249	2188
902	1040	1944
903	1490	2681
904	102	600
905	245	1597
906	1070	1839
907	473	2156
908	1780	3000
909	387	1696
910	213	1951
911	1261	2619
912	2085	2458
913	438	2410
914	102	1176
915	618	1808
916	445	1494
917	1522	2254
918	1276	1634
919	808	2710
920	2154	2863
921	961	1490
922	781	2642
923	514	1472
924	788	2013
925	593	2190
926	0	1739
927	1281	2615
928	0	1559
929	913	2664
930	545	1244
931	647	2341
932	1509	2502
933	177	1932
934	1261	2016
935	576	1790
936	1466	2229
937	469	2382
938	0	1227
939	1463	2675
940	775	1507
941	421	1877
942	294	2249
943	1438	2054
944	450	1072
945	424	1094
946	676	1540
947	550	2461
948	1018	2500
949	289	1807
950	71	2058
951	732	2634
952	1520	3000
953	0	1577
954	1231	2568
955	1185	2278
956	742	1373
957	0	1369
958	1870	2745
959	1226	1429
960	1077	2103
961	1088	2172
962	515	1138
963	789	1768
964	2085	2694
965	530	1158
966	1196	1689
967	1395	2113
968	31	1730
969	979	1749
970	447	1940
971	400	1940
972	1262	2022
973	400	2007
974	1051	1792
975	1142	3000
976	1625	2448
977	1207	3000
978	1422	1682
979	474	1444
980	551	1042
981	1810	2206
982	1393	2704
983	616	1279
984	1406	1641
985	919	2511
986	1571	1878
987	1118	1526
988	1195	2347
989	1810	2085
990	991	1905
991	740	2720
992	369	1531
993	608	2105
994	475	1021
995	402	1437
996	736	2286
997	730	1952
998	1120	2663
999	1347	2998
1000	177	1302
1001	1422	1793
BACKHAUL_SECTION
5	7	10	16	19	26	30	34	47	68	79	87	97	103	104	106	108	110	111	113	129	137	138	143	145	157	163	170	182	185	192	193	194	198	199	209	215	216	223	233	236	246	248	264	270	281	284	289	292	295	296	297	303	304	305	306	307	309	319	326	328	329	335	338	340	350	356	360	364	366	368	374	379	381	382	392	394	397	418	423	436	438	442	444	460	461	462	464	466	474	479	480	482	487	488	490	496	513	519	521	532	533	546	549	558	571	572	574	577	581	588	589	594	597	599	601	603	604	626	627	643	645	647	651	655	658	659	660	661	664	667	668	670	677	683	689	692	694	697	706	716	718	731	738	752	757	765	769	776	780	785	794	797	798	802	805	807	808	810	823	830	834	835	836	837	839	846	849	851	852	858	869	878	886	894	896	898	906	916	929	931	934	941	943	947	950	955	958	960	963	971	972	973	978	979	981	984	987	988	992	-1
DEPOT_SECTION
1
-1
EOF
