NAME : n1001-0001
COMMENT : "Generated by pyvrp_manuel (OVRPBLTW)"
TYPE : OVRPBLTW
DIMENSION : 1001
EDGE_WEIGHT_TYPE : EUC_2D
CAPACITY : 150
VEHICLES : 1000
OPEN_ROUTE : YES
DISTANCE : 3000
SERVICE_TIME : 200
NODE_COORD_SECTION
1	530	341
2	919	926
3	983	435
4	283	669
5	198	817
6	648	219
7	189	703
8	228	951
9	37	624
10	400	218
11	23	527
12	969	453
13	427	403
14	775	255
15	219	432
16	872	461
17	158	60
18	906	830
19	690	411
20	152	58
21	937	471
22	290	347
23	697	423
24	946	716
25	795	3
26	283	719
27	540	142
28	942	773
29	234	707
30	73	851
31	890	123
32	4	472
33	325	862
34	683	478
35	13	84
36	493	406
37	852	663
38	161	645
39	709	832
40	110	12
41	951	747
42	226	461
43	3	597
44	564	589
45	375	134
46	19	188
47	227	688
48	830	152
49	621	490
50	198	734
51	462	725
52	583	730
53	624	96
54	258	225
55	960	490
56	838	268
57	743	763
58	903	673
59	717	945
60	990	500
61	355	604
62	908	347
63	951	548
64	29	523
65	501	195
66	838	403
67	152	506
68	325	608
69	638	808
70	828	482
71	152	126
72	725	372
73	470	104
74	394	121
75	220	992
76	771	30
77	852	695
78	58	681
79	244	451
80	321	134
81	375	74
82	320	144
83	659	42
84	578	570
85	581	619
86	770	498
87	347	585
88	165	765
89	54	39
90	954	60
91	410	327
92	334	968
93	888	43
94	375	988
95	809	88
96	904	701
97	930	226
98	854	829
99	378	232
100	82	281
101	230	345
102	763	945
103	273	368
104	137	632
105	593	688
106	15	307
107	851	284
108	820	983
109	280	910
110	232	674
111	898	218
112	521	504
113	1000	838
114	649	945
115	308	84
116	675	0
117	60	998
118	390	202
119	548	537
120	356	693
121	463	741
122	762	254
123	438	250
124	10	755
125	48	810
126	92	44
127	427	399
128	727	797
129	16	784
130	232	627
131	135	11
132	574	940
133	824	57
134	880	723
135	702	447
136	866	260
137	675	906
138	466	311
139	522	317
140	335	20
141	721	296
142	364	363
143	636	573
144	35	810
145	380	659
146	108	461
147	754	622
148	676	287
149	307	590
150	15	599
151	194	587
152	440	774
153	625	818
154	765	866
155	966	440
156	716	830
157	229	631
158	651	780
159	461	751
160	170	769
161	293	977
162	64	357
163	967	350
164	41	98
165	607	427
166	247	921
167	894	687
168	492	175
169	735	52
170	637	914
171	378	606
172	88	890
173	30	924
174	514	556
175	377	768
176	540	837
177	213	186
178	844	279
179	731	403
180	251	515
181	433	616
182	605	148
183	21	245
184	117	274
185	74	694
186	355	237
187	803	197
188	99	365
189	339	792
190	651	512
191	287	623
192	247	999
193	263	714
194	208	977
195	204	307
196	94	321
197	525	171
198	660	372
199	46	785
200	551	742
201	653	786
202	598	21
203	36	622
204	985	653
205	970	485
206	67	441
207	576	94
208	839	83
209	771	46
210	840	304
211	795	521
212	548	835
213	286	267
214	473	616
215	198	961
216	61	459
217	939	799
218	92	80
219	419	3
220	907	976
221	278	148
222	235	579
223	61	823
224	932	123
225	835	302
226	607	904
227	337	397
228	848	738
229	39	59
230	885	858
231	452	614
232	605	52
233	147	256
234	315	280
235	310	81
236	896	132
237	855	819
238	77	479
239	254	329
240	882	852
241	136	660
242	814	850
243	920	450
244	48	773
245	444	660
246	839	729
247	917	300
248	281	654
249	683	214
250	304	608
251	473	114
252	596	789
253	666	14
254	618	32
255	45	765
256	194	411
257	276	638
258	751	416
259	389	596
260	642	547
261	21	311
262	932	400
263	92	133
264	526	788
265	918	339
266	546	174
267	594	54
268	36	841
269	427	675
270	386	194
271	45	416
272	947	298
273	224	470
274	403	887
275	494	411
276	890	10
277	711	350
278	542	164
279	55	209
280	135	207
281	630	171
282	919	37
283	417	984
284	970	12
285	481	874
286	701	760
287	345	847
288	579	444
289	267	494
290	63	834
291	628	591
292	420	981
293	842	865
294	635	595
295	619	981
296	351	618
297	188	216
298	472	720
299	46	920
300	96	110
301	347	700
302	81	608
303	97	636
304	490	797
305	402	935
306	200	573
307	613	125
308	59	285
309	397	651
310	816	580
311	84	90
312	695	764
313	191	41
314	737	461
315	442	809
316	954	662
317	767	708
318	482	573
319	716	574
320	494	776
321	531	939
322	489	884
323	52	940
324	708	391
325	792	192
326	470	149
327	201	846
328	605	317
329	650	236
330	181	43
331	990	767
332	973	146
333	883	126
334	978	555
335	328	602
336	628	257
337	933	176
338	209	5
339	327	459
340	479	663
341	546	114
342	854	233
343	233	190
344	145	709
345	366	656
346	595	214
347	820	213
348	189	642
349	446	309
350	135	125
351	119	706
352	617	139
353	65	764
354	220	966
355	450	190
356	75	802
357	649	570
358	141	262
359	411	405
360	932	921
361	892	330
362	782	193
363	800	720
364	454	917
365	434	166
366	837	475
367	989	488
368	1	695
369	490	832
370	702	790
371	829	134
372	382	325
373	945	523
374	912	405
375	763	174
376	911	442
377	267	312
378	305	229
379	993	263
380	27	494
381	651	52
382	640	723
383	887	467
384	296	120
385	128	304
386	767	470
387	173	784
388	397	746
389	844	926
390	899	599
391	437	522
392	506	166
393	949	560
394	926	599
395	68	121
396	387	311
397	266	167
398	697	819
399	325	448
400	982	672
401	992	628
402	788	628
403	532	299
404	5	993
405	619	738
406	330	771
407	301	574
408	448	568
409	413	845
410	571	317
411	59	988
412	143	319
413	690	60
414	59	796
415	558	167
416	83	573
417	934	111
418	161	67
419	325	224
420	363	327
421	945	48
422	331	178
423	51	115
424	129	298
425	215	151
426	616	809
427	301	25
428	187	993
429	854	734
430	724	396
431	26	972
432	823	10
433	225	752
434	587	890
435	528	192
436	972	443
437	629	846
438	11	98
439	43	242
440	748	871
441	45	767
442	678	64
443	98	770
444	802	252
445	77	157
446	711	90
447	853	181
448	582	586
449	402	831
450	905	390
451	297	278
452	618	710
453	402	311
454	475	627
455	24	825
456	89	817
457	979	175
458	449	996
459	931	831
460	183	66
461	705	310
462	658	212
463	998	831
464	206	395
465	329	415
466	754	342
467	57	620
468	399	556
469	889	377
470	120	743
471	192	175
472	920	581
473	379	778
474	534	554
475	855	746
476	135	550
477	863	892
478	891	974
479	592	28
480	317	34
481	833	961
482	780	933
483	249	222
484	149	483
485	362	292
486	374	920
487	693	748
488	5	205
489	279	869
490	169	618
491	406	744
492	535	975
493	215	543
494	668	479
495	812	326
496	762	961
497	653	62
498	898	653
499	419	325
500	672	991
501	831	42
502	369	478
503	747	658
504	635	930
505	676	743
506	665	834
507	419	308
508	162	162
509	740	104
510	208	548
511	122	420
512	613	940
513	541	980
514	952	595
515	443	521
516	372	710
517	174	678
518	763	532
519	600	354
520	540	389
521	417	768
522	918	842
523	270	881
524	554	498
525	543	737
526	619	324
527	481	519
528	329	389
529	591	669
530	382	861
531	920	21
532	411	79
533	609	48
534	985	891
535	73	583
536	688	785
537	579	31
538	249	74
539	390	455
540	207	215
541	883	899
542	441	322
543	548	732
544	749	574
545	88	741
546	842	632
547	279	669
548	788	220
549	154	159
550	723	707
551	461	237
552	244	47
553	998	564
554	792	53
555	651	89
556	859	851
557	302	999
558	539	687
559	377	962
560	176	599
561	135	838
562	650	890
563	376	443
564	89	376
565	167	157
566	522	860
567	879	26
568	407	636
569	884	425
570	747	106
571	790	590
572	128	901
573	884	724
574	255	627
575	737	72
576	186	611
577	638	517
578	376	490
579	151	909
580	899	204
581	102	938
582	850	494
583	713	984
584	681	551
585	656	672
586	284	313
587	691	414
588	621	943
589	115	332
590	14	134
591	158	245
592	102	216
593	886	723
594	798	764
595	385	483
596	800	209
597	725	130
598	39	875
599	652	210
600	946	857
601	924	851
602	854	917
603	505	609
604	544	644
605	646	815
606	832	94
607	264	874
608	166	844
609	850	592
610	177	324
611	647	179
612	819	638
613	924	416
614	934	129
615	227	71
616	187	532
617	155	435
618	326	125
619	519	313
620	501	454
621	47	58
622	316	167
623	665	565
624	801	558
625	147	603
626	383	59
627	405	189
628	412	81
629	469	761
630	264	427
631	201	174
632	535	274
633	322	903
634	272	57
635	270	567
636	131	472
637	826	965
638	876	192
639	42	382
640	180	577
641	558	720
642	526	46
643	27	812
644	390	224
645	730	195
646	126	206
647	946	232
648	959	12
649	530	37
650	858	914
651	643	824
652	311	929
653	730	92
654	786	310
655	740	789
656	315	54
657	174	98
658	335	902
659	515	187
660	372	415
661	747	801
662	270	711
663	930	946
664	404	640
665	432	553
666	959	954
667	186	528
668	459	732
669	998	959
670	97	155
671	324	686
672	653	385
673	860	780
674	866	545
675	51	234
676	553	893
677	569	196
678	354	727
679	357	163
680	853	468
681	763	571
682	82	412
683	18	475
684	832	588
685	796	202
686	91	770
687	1	391
688	230	217
689	391	798
690	443	69
691	145	381
692	703	132
693	271	731
694	13	708
695	894	70
696	525	318
697	98	307
698	388	890
699	470	518
700	781	208
701	205	875
702	922	687
703	105	150
704	878	149
705	798	51
706	97	323
707	589	675
708	1	267
709	243	942
710	81	334
711	541	80
712	773	911
713	622	629
714	204	945
715	969	193
716	623	544
717	265	870
718	855	201
719	199	798
720	38	754
721	235	755
722	649	436
723	472	812
724	490	366
725	770	542
726	660	549
727	234	686
728	652	117
729	954	36
730	983	437
731	778	580
732	566	984
733	381	965
734	489	81
735	675	847
736	936	320
737	391	334
738	509	396
739	721	983
740	219	309
741	408	573
742	349	640
743	597	481
744	1000	588
745	778	53
746	635	211
747	397	467
748	286	822
749	605	549
750	865	621
751	488	77
752	527	262
753	496	734
754	440	13
755	582	721
756	226	149
757	703	727
758	360	88
759	296	596
760	994	167
761	850	60
762	479	182
763	908	63
764	398	6
765	600	483
766	487	771
767	817	841
768	18	172
769	320	986
770	860	56
771	0	964
772	492	55
773	85	993
774	84	460
775	567	41
776	68	271
777	374	755
778	223	39
779	693	103
780	634	984
781	488	989
782	927	231
783	223	359
784	625	316
785	593	754
786	768	198
787	40	263
788	75	399
789	927	577
790	542	747
791	426	514
792	372	201
793	865	169
794	59	186
795	695	800
796	596	197
797	903	189
798	372	326
799	227	375
800	320	927
801	287	656
802	919	217
803	775	798
804	323	299
805	839	664
806	627	52
807	286	483
808	596	70
809	53	765
810	204	457
811	256	69
812	586	398
813	327	590
814	156	951
815	964	238
816	774	372
817	760	608
818	406	505
819	409	233
820	876	805
821	845	57
822	650	641
823	682	656
824	893	314
825	796	206
826	987	391
827	163	61
828	277	174
829	71	694
830	955	359
831	797	649
832	687	581
833	470	282
834	967	666
835	962	708
836	549	736
837	36	858
838	686	949
839	190	187
840	579	6
841	698	47
842	11	823
843	184	763
844	310	55
845	95	806
846	682	404
847	138	927
848	190	403
849	678	689
850	371	578
851	461	441
852	988	816
853	463	65
854	794	834
855	171	469
856	274	230
857	593	999
858	606	534
859	88	138
860	738	707
861	612	602
862	23	262
863	906	955
864	787	143
865	440	784
866	649	145
867	414	603
868	427	320
869	655	661
870	239	680
871	787	742
872	249	39
873	219	126
874	713	363
875	72	20
876	859	125
877	308	355
878	64	468
879	751	562
880	874	259
881	253	572
882	943	490
883	73	324
884	4	285
885	851	204
886	719	42
887	317	113
888	201	228
889	980	990
890	124	840
891	587	905
892	824	65
893	816	99
894	183	896
895	137	615
896	962	275
897	708	977
898	883	458
899	658	804
900	213	316
901	558	306
902	257	176
903	811	710
904	886	859
905	583	275
906	20	86
907	191	439
908	387	470
909	911	508
910	662	696
911	303	431
912	798	240
913	216	984
914	447	796
915	27	974
916	366	813
917	524	331
918	704	384
919	644	356
920	347	836
921	514	160
922	531	311
923	481	697
924	441	716
925	880	521
926	44	15
927	961	1
928	502	981
929	355	267
930	60	940
931	631	485
932	834	608
933	98	427
934	239	47
935	623	145
936	865	159
937	303	572
938	458	195
939	585	96
940	583	343
941	459	320
942	835	259
943	221	516
944	128	85
945	302	814
946	898	472
947	764	920
948	843	703
949	957	160
950	154	626
951	480	337
952	232	43
953	587	664
954	486	861
955	691	846
956	255	794
957	921	684
958	276	120
959	656	687
960	686	323
961	754	129
962	680	509
963	746	920
964	563	356
965	670	232
966	41	809
967	304	992
968	862	244
969	319	328
970	809	545
971	893	567
972	969	307
973	161	257
974	207	295
975	456	897
976	325	238
977	231	180
978	683	769
979	730	965
980	699	439
981	93	692
982	64	15
983	470	386
984	541	233
985	992	52
986	732	34
987	208	223
988	37	95
989	804	102
990	30	290
991	637	844
992	267	40
993	229	934
994	310	113
995	805	471
996	417	425
997	302	970
998	441	335
999	822	416
1000	579	812
1001	562	939
DEMAND_SECTION
1	0
2	8
3	4
4	3
5	9
6	9
7	6
8	2
9	9
10	8
11	1
12	1
13	4
14	3
15	5
16	5
17	5
18	2
19	8
20	1
21	8
22	4
23	6
24	1
25	9
26	2
27	5
28	9
29	7
30	7
31	2
32	7
33	7
34	2
35	2
36	4
37	3
38	7
39	1
40	5
41	5
42	5
43	1
44	9
45	1
46	4
47	6
48	2
49	8
50	5
51	1
52	3
53	5
54	1
55	8
56	8
57	6
58	5
59	4
60	3
61	6
62	4
63	5
64	5
65	1
66	1
67	3
68	5
69	1
70	3
71	3
72	3
73	3
74	3
75	5
76	7
77	7
78	2
79	6
80	3
81	8
82	3
83	1
84	3
85	3
86	7
87	1
88	7
89	4
90	3
91	1
92	5
93	6
94	2
95	2
96	5
97	8
98	9
99	1
100	3
101	1
102	6
103	4
104	1
105	8
106	6
107	5
108	3
109	2
110	1
111	6
112	6
113	4
114	5
115	4
116	6
117	2
118	3
119	7
120	9
121	9
122	1
123	5
124	4
125	4
126	2
127	9
128	3
129	7
130	9
131	6
132	4
133	7
134	7
135	5
136	6
137	8
138	1
139	7
140	1
141	2
142	1
143	4
144	4
145	4
146	6
147	5
148	2
149	8
150	7
151	4
152	1
153	7
154	4
155	4
156	3
157	6
158	8
159	3
160	1
161	6
162	2
163	5
164	8
165	4
166	3
167	9
168	6
169	5
170	8
171	7
172	1
173	6
174	9
175	2
176	3
177	7
178	6
179	1
180	1
181	3
182	7
183	8
184	6
185	4
186	5
187	6
188	4
189	3
190	2
191	2
192	1
193	8
194	6
195	5
196	6
197	9
198	9
199	9
200	9
201	5
202	7
203	4
204	3
205	8
206	2
207	4
208	4
209	4
210	3
211	9
212	7
213	3
214	8
215	2
216	1
217	6
218	2
219	3
220	7
221	5
222	8
223	7
224	8
225	2
226	1
227	8
228	2
229	2
230	8
231	9
232	2
233	5
234	9
235	4
236	7
237	3
238	7
239	7
240	5
241	5
242	5
243	2
244	9
245	8
246	7
247	2
248	5
249	1
250	5
251	1
252	5
253	6
254	1
255	7
256	5
257	7
258	4
259	8
260	2
261	4
262	1
263	7
264	2
265	9
266	8
267	5
268	9
269	5
270	1
271	1
272	5
273	7
274	4
275	8
276	5
277	6
278	7
279	3
280	9
281	7
282	3
283	4
284	5
285	1
286	8
287	5
288	3
289	2
290	8
291	4
292	3
293	9
294	7
295	3
296	8
297	1
298	2
299	9
300	3
301	1
302	6
303	1
304	8
305	3
306	7
307	8
308	3
309	3
310	7
311	6
312	8
313	1
314	6
315	9
316	3
317	2
318	3
319	6
320	7
321	4
322	1
323	6
324	3
325	6
326	5
327	1
328	4
329	9
330	8
331	1
332	3
333	9
334	2
335	6
336	2
337	6
338	2
339	5
340	4
341	1
342	3
343	2
344	5
345	2
346	8
347	5
348	8
349	1
350	6
351	7
352	5
353	5
354	7
355	8
356	3
357	6
358	5
359	6
360	2
361	9
362	3
363	3
364	1
365	8
366	3
367	2
368	9
369	1
370	9
371	9
372	1
373	5
374	7
375	5
376	1
377	1
378	8
379	6
380	3
381	3
382	8
383	9
384	5
385	8
386	1
387	3
388	2
389	4
390	7
391	1
392	7
393	8
394	6
395	7
396	3
397	1
398	2
399	3
400	7
401	4
402	6
403	4
404	3
405	9
406	5
407	8
408	3
409	2
410	9
411	8
412	4
413	8
414	4
415	5
416	2
417	4
418	4
419	6
420	7
421	1
422	8
423	3
424	2
425	5
426	1
427	7
428	9
429	7
430	8
431	1
432	8
433	1
434	6
435	4
436	8
437	7
438	9
439	6
440	7
441	1
442	7
443	5
444	8
445	8
446	1
447	7
448	7
449	3
450	8
451	8
452	1
453	1
454	4
455	3
456	1
457	3
458	7
459	9
460	6
461	6
462	9
463	4
464	8
465	5
466	3
467	8
468	4
469	2
470	8
471	3
472	2
473	3
474	9
475	6
476	5
477	3
478	3
479	5
480	5
481	5
482	9
483	9
484	9
485	7
486	8
487	8
488	9
489	1
490	1
491	3
492	2
493	9
494	4
495	1
496	4
497	5
498	4
499	4
500	3
501	2
502	6
503	6
504	4
505	3
506	3
507	7
508	6
509	1
510	1
511	5
512	8
513	6
514	5
515	2
516	2
517	4
518	8
519	6
520	6
521	6
522	7
523	4
524	2
525	9
526	4
527	6
528	8
529	3
530	8
531	5
532	3
533	6
534	1
535	9
536	3
537	8
538	4
539	8
540	3
541	9
542	8
543	2
544	8
545	8
546	9
547	6
548	6
549	8
550	9
551	6
552	4
553	2
554	3
555	2
556	1
557	9
558	8
559	8
560	4
561	6
562	2
563	2
564	9
565	6
566	5
567	5
568	8
569	4
570	5
571	2
572	7
573	9
574	6
575	1
576	3
577	9
578	7
579	8
580	8
581	7
582	4
583	8
584	8
585	6
586	1
587	2
588	7
589	1
590	8
591	4
592	9
593	4
594	5
595	4
596	6
597	5
598	4
599	6
600	9
601	4
602	9
603	5
604	7
605	5
606	6
607	9
608	4
609	2
610	4
611	6
612	3
613	4
614	8
615	6
616	8
617	4
618	4
619	9
620	9
621	4
622	2
623	6
624	3
625	7
626	6
627	2
628	8
629	3
630	2
631	9
632	8
633	8
634	7
635	3
636	6
637	7
638	9
639	3
640	3
641	6
642	2
643	6
644	6
645	6
646	9
647	9
648	2
649	1
650	6
651	1
652	8
653	4
654	7
655	2
656	4
657	3
658	8
659	9
660	3
661	7
662	2
663	7
664	5
665	8
666	3
667	8
668	6
669	2
670	4
671	9
672	8
673	1
674	8
675	4
676	3
677	6
678	7
679	3
680	2
681	1
682	6
683	5
684	2
685	6
686	6
687	9
688	9
689	3
690	3
691	8
692	6
693	4
694	2
695	9
696	5
697	8
698	6
699	3
700	9
701	8
702	1
703	4
704	3
705	1
706	3
707	3
708	2
709	5
710	3
711	2
712	8
713	4
714	7
715	7
716	8
717	4
718	6
719	6
720	6
721	3
722	1
723	8
724	1
725	3
726	7
727	6
728	9
729	8
730	4
731	3
732	6
733	8
734	8
735	2
736	4
737	5
738	8
739	1
740	5
741	7
742	1
743	1
744	4
745	9
746	3
747	7
748	7
749	9
750	3
751	3
752	2
753	7
754	9
755	8
756	7
757	8
758	5
759	4
760	5
761	1
762	2
763	8
764	7
765	1
766	8
767	3
768	5
769	1
770	7
771	8
772	1
773	5
774	2
775	5
776	9
777	8
778	5
779	2
780	2
781	8
782	4
783	4
784	2
785	1
786	8
787	8
788	8
789	7
790	6
791	9
792	8
793	5
794	6
795	2
796	3
797	6
798	2
799	5
800	2
801	1
802	9
803	9
804	2
805	7
806	6
807	3
808	7
809	8
810	9
811	6
812	5
813	1
814	4
815	5
816	5
817	9
818	1
819	1
820	2
821	2
822	9
823	3
824	8
825	4
826	4
827	9
828	9
829	5
830	8
831	7
832	9
833	4
834	7
835	4
836	1
837	5
838	3
839	6
840	7
841	1
842	4
843	9
844	7
845	8
846	5
847	2
848	1
849	2
850	1
851	1
852	9
853	9
854	7
855	1
856	4
857	8
858	9
859	9
860	5
861	3
862	4
863	1
864	2
865	9
866	1
867	3
868	4
869	3
870	7
871	1
872	9
873	8
874	3
875	4
876	5
877	5
878	6
879	1
880	9
881	7
882	8
883	4
884	2
885	3
886	5
887	4
888	2
889	8
890	6
891	5
892	7
893	3
894	4
895	9
896	8
897	5
898	9
899	2
900	9
901	6
902	3
903	8
904	8
905	5
906	6
907	5
908	7
909	8
910	5
911	7
912	1
913	5
914	5
915	2
916	2
917	9
918	5
919	9
920	8
921	5
922	3
923	2
924	2
925	7
926	6
927	7
928	9
929	8
930	4
931	7
932	3
933	1
934	7
935	9
936	9
937	4
938	5
939	8
940	9
941	4
942	7
943	7
944	3
945	2
946	4
947	5
948	1
949	8
950	5
951	5
952	6
953	1
954	3
955	1
956	7
957	1
958	7
959	8
960	2
961	5
962	6
963	2
964	8
965	6
966	5
967	3
968	7
969	8
970	8
971	7
972	8
973	1
974	2
975	1
976	4
977	4
978	7
979	1
980	3
981	2
982	2
983	5
984	2
985	2
986	9
987	3
988	5
989	8
990	5
991	6
992	9
993	2
994	5
995	6
996	1
997	4
998	8
999	9
1000	3
1001	4
TIME_WINDOW_SECTION
1	0	3000
2	1400	2677
3	210	884
4	182	1846
5	714	1710
6	830	1232
7	292	1243
8	1034	2191
9	509	2383
10	542	1863
11	470	1913
12	321	970
13	1731	2734
14	1494	1748
15	283	1605
16	451	955
17	880	1554
18	1412	2333
19	1140	1844
20	1953	2295
21	1114	1839
22	1162	1442
23	46	1624
24	1080	2675
25	1478	2266
26	625	2203
27	1812	2318
28	1171	3000
29	1483	3000
30	400	1783
31	776	2167
32	276	1079
33	1001	2880
34	2018	2947
35	637	2366
36	1368	2592
37	381	2160
38	885	1196
39	1193	2207
40	269	1375
41	481	2103
42	55	1913
43	1394	1779
44	2078	2590
45	1315	2387
46	1487	2017
47	492	1035
48	1702	2470
49	2020	3000
50	545	867
51	794	1875
52	810	1956
53	463	1658
54	340	873
55	1095	2942
56	173	1712
57	1214	2046
58	527	1181
59	771	988
60	1295	2767
61	1804	2917
62	1300	2041
63	621	1484
64	1658	2072
65	0	1216
66	1931	2343
67	715	1409
68	483	764
69	1612	2709
70	542	1665
71	1447	1938
72	0	984
73	571	2021
74	816	1511
75	1013	1357
76	1113	2991
77	1834	2794
78	912	1625
79	1636	2495
80	1225	3000
81	371	1507
82	436	2131
83	2060	2657
84	1582	3000
85	0	1770
86	1259	2801
87	1400	2118
88	1444	2944
89	378	1240
90	1295	2026
91	556	2540
92	1144	2525
93	0	1187
94	898	2324
95	1411	3000
96	697	1501
97	490	2349
98	1415	1933
99	297	507
100	1389	2394
101	1343	1666
102	793	1690
103	0	1447
104	1820	2389
105	838	1049
106	508	1265
107	2275	2621
108	1141	1401
109	1364	2745
110	561	1899
111	309	1925
112	1536	2231
113	1129	3000
114	260	1512
115	614	2151
116	837	1910
117	1079	2872
118	868	2185
119	1811	2485
120	614	1850
121	0	1577
122	1540	2144
123	1257	2363
124	1264	2037
125	983	1938
126	1467	2797
127	1757	2556
128	0	1873
129	1593	2044
130	1448	2179
131	296	1232
132	1323	1829
133	0	1177
134	1177	1432
135	668	897
136	2127	2601
137	750	1743
138	2054	2736
139	1872	2905
140	394	880
141	1963	2717
142	2076	2754
143	970	2769
144	0	1733
145	177	1996
146	159	1041
147	995	2527
148	1160	3000
149	0	1300
150	632	906
151	1818	2092
152	1369	3000
153	914	2090
154	456	756
155	243	1381
156	854	2209
157	624	2024
158	427	1036
159	0	1679
160	1520	1922
161	1574	2529
162	1329	3000
163	647	1238
164	901	1953
165	1235	3000
166	1039	1701
167	887	1883
168	1208	3000
169	2192	2582
170	401	1930
171	1447	2390
172	315	1168
173	906	1470
174	1526	2766
175	168	1910
176	654	2617
177	323	652
178	1616	2444
179	0	480
180	931	2065
181	655	1454
182	418	2336
183	1013	1981
184	1073	1551
185	1514	1976
186	1129	3000
187	1203	2113
188	660	2073
189	1515	2646
190	945	1931
191	1395	2809
192	849	1742
193	1453	1994
194	312	1960
195	696	2570
196	0	1370
197	1469	2983
198	1014	1996
199	1399	2423
200	846	2009
201	863	2284
202	99	2095
203	0	1628
204	640	1817
205	0	1194
206	1252	2564
207	223	1894
208	389	1786
209	1322	3000
210	1976	2999
211	766	1509
212	376	1573
213	282	1039
214	585	2374
215	818	1233
216	1714	2327
217	1238	2111
218	1190	1577
219	0	1148
220	875	1867
221	194	1917
222	1263	2198
223	889	2851
224	1023	2151
225	1664	2716
226	1038	2740
227	2020	2635
228	477	2169
229	508	2175
230	340	1697
231	0	1244
232	2172	2411
233	964	2407
234	0	857
235	396	1089
236	0	1800
237	1935	2360
238	423	2295
239	1696	3000
240	597	2355
241	669	2612
242	167	1880
243	1738	2504
244	1319	1765
245	23	1934
246	466	1973
247	421	636
248	0	1501
249	574	1917
250	817	2475
251	1829	2200
252	390	1782
253	0	809
254	1320	3000
255	1250	2300
256	1991	2594
257	800	2146
258	1274	2776
259	1	820
260	1735	2800
261	1661	2180
262	667	2242
263	0	1115
264	0	1380
265	847	2172
266	314	1047
267	1454	1744
268	574	2387
269	1730	2422
270	1726	1998
271	1006	1550
272	153	1131
273	0	1156
274	648	1041
275	0	1183
276	841	2327
277	0	1377
278	329	1321
279	1380	1754
280	0	1644
281	1939	2964
282	1753	2423
283	274	1362
284	1443	2499
285	793	1368
286	198	1300
287	403	727
288	101	1686
289	0	1182
290	1017	2573
291	351	1681
292	899	2073
293	176	1112
294	2059	2769
295	900	1450
296	333	2185
297	379	794
298	460	686
299	444	1694
300	779	1276
301	2097	2303
302	676	2419
303	481	1764
304	473	775
305	1239	2560
306	218	948
307	1747	2162
308	281	1050
309	0	935
310	1713	2055
311	1265	2581
312	1191	2027
313	868	1397
314	402	712
315	883	2447
316	124	1800
317	408	1855
318	223	1941
319	735	1344
320	1053	1669
321	30	1305
322	1171	1893
323	1222	2534
324	692	2588
325	1349	1752
326	1694	2684
327	548	2460
328	963	2290
329	1531	2129
330	992	2504
331	1318	2686
332	164	831
333	298	1235
334	123	1546
335	879	2192
336	0	1250
337	1399	2698
338	683	1186
339	528	2302
340	901	2526
341	277	1630
342	0	1034
343	1420	1643
344	368	947
345	1637	2335
346	0	1061
347	574	1776
348	0	1701
349	561	1865
350	1310	1701
351	763	1974
352	2011	2247
353	1241	2650
354	1107	2174
355	661	903
356	952	2810
357	0	1362
358	2063	2372
359	625	1830
360	1299	2032
361	848	2510
362	1541	2848
363	1756	2408
364	1054	1460
365	636	1084
366	1157	1773
367	272	1642
368	0	1586
369	660	1988
370	683	1701
371	366	1886
372	615	2309
373	681	2293
374	270	2167
375	285	2053
376	1069	1637
377	718	1981
378	1030	2639
379	377	1734
380	1104	1473
381	1140	2506
382	643	2233
383	499	2178
384	2153	2754
385	1069	3000
386	360	1645
387	1102	1712
388	0	1870
389	695	1847
390	225	2173
391	165	1017
392	1305	1715
393	311	2290
394	551	1121
395	600	1957
396	2150	3000
397	497	957
398	1799	2695
399	306	2113
400	1244	2025
401	330	1351
402	1106	1589
403	0	1324
404	602	1466
405	196	909
406	1046	2465
407	2034	2790
408	1678	3000
409	832	2629
410	143	1175
411	917	2340
412	1364	2846
413	134	517
414	476	2163
415	1965	3000
416	1272	3000
417	205	2015
418	1428	2762
419	1653	3000
420	1516	2194
421	859	2054
422	1123	1908
423	170	1658
424	375	809
425	1079	1713
426	2010	2466
427	1458	3000
428	571	2453
429	883	2775
430	0	1043
431	767	2747
432	860	1332
433	1264	2553
434	168	1970
435	274	1283
436	779	1520
437	1317	2471
438	812	2730
439	651	941
440	275	927
441	341	1894
442	819	1532
443	970	1919
444	2200	2452
445	1378	2790
446	852	2726
447	137	1562
448	1175	2305
449	753	1723
450	0	1583
451	828	1082
452	723	1717
453	1763	2229
454	535	1562
455	1512	2594
456	46	1950
457	554	1322
458	1544	2629
459	1012	2836
460	1976	2652
461	2176	3000
462	1438	3000
463	523	856
464	1697	3000
465	665	1743
466	393	2112
467	779	1914
468	216	1493
469	1846	2803
470	1817	2044
471	152	1412
472	557	2413
473	254	983
474	510	1470
475	0	1352
476	1390	2012
477	102	1393
478	951	2488
479	240	1961
480	639	2130
481	1834	2293
482	961	1715
483	1845	2681
484	43	1645
485	354	1349
486	0	1352
487	295	1515
488	788	1766
489	782	2459
490	1252	2238
491	1825	2813
492	739	1998
493	755	2084
494	611	1653
495	614	1952
496	1403	2071
497	904	1201
498	1623	2087
499	1801	2688
500	1884	2159
501	1681	2907
502	337	1309
503	1411	2488
504	247	2212
505	183	2094
506	950	1958
507	675	1749
508	1178	1583
509	1505	3000
510	896	1108
511	1461	2312
512	769	1121
513	1542	1744
514	1305	2726
515	1659	2926
516	616	1050
517	1397	2912
518	556	2162
519	2149	2836
520	1396	2055
521	1299	2147
522	1184	2758
523	560	2455
524	0	1011
525	0	1312
526	0	1048
527	1778	2948
528	1252	2614
529	0	718
530	1383	2265
531	124	1412
532	0	1045
533	1180	3000
534	661	958
535	1900	2594
536	618	923
537	311	528
538	955	2245
539	0	1009
540	1112	2156
541	589	1447
542	476	2227
543	1072	2467
544	830	2315
545	889	2838
546	1944	2354
547	2039	2442
548	0	998
549	23	1001
550	707	2643
551	1915	2841
552	1277	2217
553	1741	2322
554	863	2601
555	460	1337
556	1432	2452
557	126	1353
558	0	1132
559	1321	1814
560	105	865
561	522	944
562	1274	1953
563	503	1307
564	1760	2275
565	1058	1322
566	1341	2891
567	1358	2834
568	1971	2246
569	112	953
570	932	2120
571	503	862
572	421	1140
573	548	1984
574	1214	2910
575	739	1630
576	921	1653
577	1138	1819
578	1784	2042
579	1191	3000
580	739	1796
581	707	2121
582	20	1836
583	1693	2231
584	768	2205
585	1010	1921
586	0	906
587	1104	2212
588	816	1434
589	0	1233
590	1213	2389
591	1747	2426
592	132	1776
593	1490	1942
594	0	1360
595	163	1691
596	2140	2516
597	194	1603
598	337	1539
599	417	1156
600	550	825
601	1092	2049
602	314	1196
603	0	1368
604	0	1127
605	717	1932
606	0	1042
607	819	2634
608	746	1838
609	822	1281
610	720	1257
611	1447	3000
612	0	1786
613	1724	2357
614	509	911
615	890	1186
616	1096	2402
617	492	1533
618	1170	1674
619	0	609
620	0	1534
621	464	1565
622	1255	1933
623	249	532
624	0	1488
625	570	1510
626	172	1954
627	332	1899
628	1524	2276
629	1453	3000
630	304	1214
631	367	1349
632	777	2596
633	885	1215
634	1294	1575
635	1640	2780
636	556	2035
637	659	1595
638	0	1775
639	1457	2830
640	1500	1874
641	1507	2500
642	1439	2905
643	832	2577
644	156	465
645	368	707
646	1216	2752
647	684	2046
648	1917	2215
649	244	2238
650	989	2263
651	1018	1883
652	1320	2718
653	1934	2459
654	1046	1473
655	1201	2909
656	1853	2219
657	970	1891
658	345	1510
659	593	1644
660	549	2416
661	519	1929
662	627	860
663	814	1893
664	529	788
665	1783	2271
666	732	971
667	846	1498
668	451	805
669	732	2352
670	606	2124
671	1784	2668
672	1173	2459
673	314	1577
674	1946	2735
675	1063	1770
676	71	1076
677	0	1074
678	1191	2864
679	1700	2551
680	515	2290
681	0	818
682	153	1022
683	177	1380
684	772	2655
685	0	1832
686	634	1180
687	1399	2300
688	231	1064
689	1674	2357
690	0	1176
691	493	917
692	1897	2324
693	0	1516
694	888	1736
695	800	2322
696	341	993
697	1830	2123
698	1099	2903
699	1050	1381
700	1577	2190
701	30	1427
702	1365	1901
703	1510	2653
704	926	1978
705	1294	2651
706	985	2005
707	0	1393
708	0	1415
709	969	1913
710	638	2177
711	0	1392
712	1751	2023
713	1029	2098
714	1248	2501
715	797	1955
716	1429	2741
717	1939	2296
718	1260	2488
719	524	2352
720	474	1512
721	613	2092
722	340	1879
723	1677	2296
724	592	1911
725	1410	2103
726	387	2001
727	651	1192
728	883	2599
729	1337	2404
730	933	2832
731	849	1301
732	550	1420
733	965	1333
734	1262	3000
735	544	2109
736	0	1425
737	2350	2769
738	642	1570
739	502	902
740	855	1315
741	0	1460
742	804	2398
743	502	2194
744	967	2323
745	1174	2026
746	443	1814
747	837	1967
748	974	1300
749	0	1093
750	0	1119
751	0	1069
752	800	2157
753	159	1976
754	1358	3000
755	1206	2924
756	1292	1856
757	1384	3000
758	0	1586
759	344	545
760	950	2140
761	1041	2397
762	392	633
763	391	1797
764	0	1330
765	1771	2831
766	1425	3000
767	1218	3000
768	1655	2796
769	580	1854
770	414	750
771	1255	1801
772	725	1145
773	206	1779
774	1757	2709
775	1684	2236
776	1505	1810
777	175	849
778	990	2689
779	1372	1677
780	685	941
781	506	1340
782	1479	2529
783	2118	2429
784	1294	1535
785	1153	2920
786	760	2694
787	218	1699
788	968	2344
789	1055	2983
790	611	1874
791	0	1711
792	1435	2994
793	278	798
794	44	1658
795	439	1649
796	159	962
797	968	1912
798	1813	2947
799	1736	2874
800	448	1704
801	629	1339
802	1522	3000
803	1404	2213
804	634	844
805	1552	2830
806	1701	2246
807	1085	2520
808	1799	2995
809	51	1285
810	747	1524
811	471	945
812	442	818
813	368	1344
814	587	1970
815	1835	2866
816	1596	2932
817	1554	2381
818	543	1141
819	1228	3000
820	176	1425
821	373	2081
822	0	1160
823	1360	2007
824	1838	2425
825	0	1722
826	693	2062
827	1783	2608
828	1227	2149
829	742	2250
830	0	1663
831	588	1347
832	212	2124
833	1016	2640
834	837	1340
835	1359	1935
836	15	1113
837	85	1710
838	1125	1416
839	310	834
840	0	1494
841	1168	2735
842	1124	1556
843	904	1855
844	0	1290
845	9	1940
846	136	1770
847	695	1812
848	1184	1945
849	151	911
850	1432	2957
851	2154	3000
852	1129	2108
853	712	1021
854	864	1185
855	1291	1852
856	580	924
857	1382	2440
858	131	1862
859	72	992
860	1011	1430
861	517	1031
862	1620	2931
863	686	2371
864	1599	3000
865	1204	2939
866	1632	2810
867	743	1562
868	1157	1594
869	1352	3000
870	0	1454
871	1159	1830
872	898	2751
873	1727	1961
874	1973	2826
875	515	1998
876	1398	3000
877	1391	2612
878	1017	1406
879	1555	2304
880	912	1788
881	234	1475
882	1204	3000
883	1181	1433
884	1365	2059
885	604	2419
886	1551	3000
887	822	2562
888	592	903
889	779	1646
890	180	1552
891	854	2146
892	186	1394
893	1042	2053
894	934	1331
895	351	1479
896	566	2256
897	1800	2070
898	1414	3000
899	0	1477
900	1183	2035
901	0	1526
902	0	1354
903	556	1133
904	1043	2329
905	1816	2752
906	1211	1892
907	1571	1917
908	546	994
909	0	1191
910	216	1342
911	0	1921
912	1954	2245
913	1006	1478
914	1305	3000
915	712	1436
916	0	1903
917	773	1913
918	343	1553
919	150	975
920	664	2057
921	1627	3000
922	515	1782
923	1108	1318
924	0	1826
925	0	1464
926	583	2416
927	1259	2107
928	705	1718
929	2116	2525
930	1649	2292
931	0	1234
932	0	1111
933	1002	2202
934	576	1015
935	21	1476
936	333	1835
937	0	1354
938	0	937
939	264	1727
940	0	1689
941	899	1438
942	375	1661
943	1843	2582
944	428	1243
945	1659	2171
946	1458	2541
947	722	1590
948	1258	2200
949	321	2085
950	596	1067
951	0	771
952	1145	2062
953	1047	2807
954	929	1826
955	622	2281
956	1003	1531
957	435	1292
958	831	1415
959	780	1272
960	2034	3000
961	0	1187
962	2008	2851
963	854	2575
964	1695	3000
965	0	1018
966	684	910
967	938	1302
968	1110	2437
969	0	1857
970	975	2680
971	0	1204
972	1018	1905
973	138	2098
974	0	1276
975	164	1061
976	0	1444
977	376	1433
978	188	1864
979	1284	2111
980	0	425
981	1680	2539
982	1136	2894
983	366	1043
984	1240	3000
985	259	2124
986	1257	1558
987	756	2095
988	1014	2665
989	621	1521
990	784	2694
991	896	2439
992	502	793
993	687	1661
994	651	1712
995	1449	2293
996	922	1904
997	271	1363
998	1459	3000
999	982	2482
1000	1985	2350
1001	183	1057
BACKHAUL_SECTION
5	7	10	16	19	26	30	34	47	68	79	87	97	103	104	106	108	110	111	113	129	137	138	143	145	157	163	170	182	185	192	193	194	198	199	209	215	216	223	233	236	246	248	264	270	281	284	289	292	295	296	297	303	304	305	306	307	309	319	326	328	329	335	338	340	350	356	360	364	366	368	374	379	381	382	392	394	397	418	423	436	438	442	444	460	461	462	464	466	474	479	480	482	487	488	490	496	513	519	521	532	533	546	549	558	571	572	574	577	581	588	589	594	597	599	601	603	604	626	627	643	645	647	651	655	658	659	660	661	664	667	668	670	677	683	689	692	694	697	706	716	718	731	738	752	757	765	769	776	780	785	794	797	798	802	805	807	808	810	823	830	834	835	836	837	839	846	849	851	852	858	869	878	886	894	896	898	906	916	929	931	934	941	943	947	950	955	958	960	963	971	972	973	978	979	981	984	987	988	992	-1
DEPOT_SECTION
1
-1
EOF
