NAME : n1001-0034
COMMENT : "Generated by pyvrp_manuel (VRPL)"
TYPE : VRPL
DIMENSION : 1001
EDGE_WEIGHT_TYPE : EUC_2D
CAPACITY : 150
VEHICLES : 1000
DISTANCE : 3000
NODE_COORD_SECTION
1	404	417
2	552	530
3	502	215
4	568	733
5	27	587
6	667	807
7	324	903
8	645	35
9	706	406
10	215	631
11	397	70
12	638	83
13	954	863
14	345	246
15	811	571
16	714	435
17	831	217
18	50	383
19	704	853
20	319	907
21	377	770
22	905	500
23	942	96
24	402	425
25	134	412
26	731	573
27	519	905
28	648	11
29	925	47
30	643	964
31	104	121
32	978	213
33	28	32
34	749	674
35	485	680
36	218	765
37	488	417
38	718	828
39	947	277
40	34	944
41	821	746
42	748	795
43	687	743
44	245	242
45	722	571
46	628	894
47	864	183
48	19	167
49	115	49
50	9	321
51	599	695
52	127	15
53	390	98
54	258	411
55	423	368
56	786	998
57	735	457
58	10	602
59	132	356
60	612	337
61	388	640
62	948	284
63	257	513
64	689	344
65	408	331
66	645	346
67	650	837
68	813	782
69	132	15
70	161	235
71	37	824
72	698	204
73	388	223
74	661	339
75	998	26
76	729	165
77	639	748
78	101	237
79	26	809
80	216	444
81	916	730
82	672	263
83	416	732
84	814	548
85	538	613
86	698	528
87	939	38
88	738	774
89	144	92
90	769	431
91	619	302
92	669	173
93	475	485
94	812	407
95	479	205
96	537	963
97	264	8
98	854	946
99	236	12
100	189	16
101	624	464
102	988	133
103	604	94
104	892	391
105	131	253
106	196	374
107	643	912
108	42	199
109	757	214
110	576	944
111	673	118
112	456	760
113	454	24
114	405	245
115	216	371
116	164	518
117	829	869
118	473	128
119	453	886
120	961	309
121	534	820
122	657	927
123	931	510
124	140	221
125	382	554
126	716	208
127	714	523
128	779	145
129	585	565
130	173	216
131	163	503
132	937	524
133	95	404
134	166	966
135	518	927
136	899	412
137	877	465
138	342	558
139	983	708
140	270	645
141	332	642
142	632	281
143	243	442
144	857	98
145	753	618
146	487	137
147	538	104
148	421	253
149	692	893
150	887	66
151	512	690
152	322	495
153	709	350
154	592	303
155	265	354
156	586	972
157	973	743
158	863	660
159	989	896
160	94	776
161	790	822
162	791	785
163	762	390
164	355	59
165	659	915
166	627	445
167	220	616
168	444	920
169	244	459
170	759	369
171	963	970
172	267	110
173	818	777
174	113	823
175	842	572
176	81	447
177	584	426
178	658	183
179	183	68
180	22	292
181	210	443
182	289	722
183	299	314
184	954	750
185	17	453
186	849	713
187	894	93
188	72	667
189	947	312
190	486	389
191	354	653
192	811	862
193	446	797
194	192	63
195	327	112
196	199	240
197	734	986
198	354	408
199	238	656
200	808	673
201	619	284
202	295	525
203	834	328
204	566	551
205	692	758
206	535	77
207	536	831
208	55	991
209	69	250
210	620	519
211	815	219
212	525	313
213	804	509
214	474	728
215	552	771
216	50	355
217	197	276
218	959	985
219	987	432
220	966	206
221	331	250
222	972	583
223	30	271
224	522	681
225	265	825
226	879	454
227	751	456
228	121	703
229	184	939
230	153	750
231	112	312
232	630	608
233	334	762
234	322	407
235	919	710
236	162	471
237	817	542
238	391	840
239	324	877
240	333	138
241	95	165
242	445	331
243	36	659
244	352	625
245	494	345
246	576	431
247	272	934
248	532	507
249	897	227
250	463	960
251	307	798
252	443	160
253	867	101
254	374	847
255	658	784
256	695	921
257	291	559
258	65	536
259	173	481
260	463	625
261	27	785
262	663	819
263	778	199
264	346	145
265	302	1
266	148	378
267	951	494
268	281	527
269	987	900
270	627	706
271	940	713
272	237	787
273	483	453
274	903	488
275	218	270
276	279	111
277	967	77
278	999	958
279	84	572
280	701	254
281	881	509
282	277	530
283	395	156
284	335	895
285	104	1
286	344	663
287	554	791
288	747	86
289	261	786
290	603	665
291	485	814
292	931	437
293	602	992
294	791	454
295	280	259
296	677	183
297	273	79
298	642	35
299	38	185
300	306	13
301	803	178
302	546	975
303	959	551
304	806	47
305	294	461
306	431	426
307	489	14
308	136	746
309	2	427
310	135	902
311	995	60
312	86	693
313	119	153
314	860	960
315	122	909
316	279	312
317	812	531
318	381	361
319	968	76
320	161	606
321	30	846
322	241	822
323	242	405
324	460	760
325	811	738
326	711	851
327	56	268
328	638	368
329	714	629
330	184	350
331	866	624
332	559	988
333	449	635
334	779	404
335	345	606
336	7	381
337	814	720
338	74	113
339	316	263
340	893	463
341	56	456
342	356	703
343	246	172
344	401	126
345	227	768
346	618	795
347	94	870
348	990	974
349	474	849
350	677	35
351	494	216
352	4	741
353	228	161
354	842	149
355	900	642
356	907	127
357	247	390
358	478	322
359	70	396
360	83	927
361	72	482
362	177	330
363	55	202
364	531	933
365	78	737
366	376	936
367	195	545
368	892	402
369	734	35
370	950	840
371	869	735
372	105	131
373	224	371
374	681	409
375	609	884
376	229	257
377	155	296
378	491	763
379	120	280
380	767	665
381	321	991
382	574	337
383	473	782
384	822	270
385	759	41
386	155	517
387	587	991
388	240	43
389	287	256
390	668	567
391	86	548
392	516	568
393	776	112
394	30	241
395	905	738
396	890	717
397	72	939
398	607	840
399	364	606
400	54	69
401	195	838
402	657	657
403	101	803
404	13	457
405	856	753
406	632	30
407	870	153
408	626	950
409	589	20
410	753	111
411	116	372
412	924	758
413	266	512
414	136	273
415	633	885
416	310	731
417	488	59
418	885	784
419	156	2
420	510	207
421	688	816
422	94	251
423	659	772
424	104	581
425	463	712
426	215	603
427	450	145
428	729	609
429	355	63
430	388	754
431	547	404
432	771	789
433	358	300
434	346	503
435	105	958
436	290	286
437	826	983
438	952	777
439	433	536
440	986	768
441	144	814
442	5	321
443	160	75
444	897	484
445	177	892
446	861	280
447	10	846
448	624	934
449	571	436
450	83	222
451	370	956
452	201	468
453	832	992
454	867	110
455	578	720
456	334	514
457	183	679
458	42	31
459	207	547
460	832	882
461	315	437
462	456	90
463	582	321
464	514	827
465	69	558
466	921	744
467	952	869
468	252	279
469	205	697
470	726	466
471	203	335
472	58	637
473	31	302
474	880	492
475	606	782
476	912	511
477	192	359
478	630	621
479	592	208
480	927	309
481	734	135
482	12	77
483	684	111
484	792	504
485	761	184
486	336	574
487	841	547
488	348	80
489	272	240
490	72	583
491	386	966
492	982	958
493	625	879
494	924	200
495	342	366
496	447	54
497	858	349
498	471	4
499	935	718
500	607	503
501	232	19
502	205	9
503	815	585
504	647	951
505	398	802
506	527	7
507	805	981
508	532	540
509	516	416
510	102	794
511	150	478
512	441	364
513	935	199
514	719	10
515	526	110
516	58	337
517	26	84
518	997	150
519	564	171
520	692	335
521	802	740
522	587	584
523	494	760
524	64	586
525	646	64
526	398	564
527	467	37
528	51	794
529	649	751
530	546	629
531	636	662
532	102	773
533	872	926
534	229	833
535	15	669
536	356	698
537	369	42
538	373	460
539	224	521
540	997	480
541	763	338
542	672	962
543	327	866
544	345	801
545	882	8
546	25	754
547	633	469
548	633	98
549	994	591
550	813	584
551	926	848
552	556	697
553	408	509
554	954	771
555	163	178
556	233	282
557	316	924
558	47	202
559	211	203
560	779	823
561	935	688
562	512	847
563	169	272
564	174	284
565	476	22
566	630	96
567	664	734
568	44	853
569	679	798
570	638	660
571	402	773
572	554	964
573	36	328
574	771	535
575	728	346
576	584	558
577	235	725
578	279	656
579	405	48
580	375	142
581	692	127
582	14	914
583	393	660
584	402	0
585	430	106
586	398	622
587	410	737
588	251	240
589	355	196
590	948	795
591	526	369
592	235	995
593	965	448
594	44	794
595	719	323
596	949	59
597	115	486
598	437	738
599	72	725
600	366	995
601	203	969
602	770	853
603	197	742
604	222	161
605	843	670
606	710	749
607	111	78
608	417	119
609	644	941
610	871	678
611	830	131
612	724	797
613	987	269
614	960	16
615	25	98
616	7	334
617	805	397
618	501	503
619	349	901
620	576	611
621	399	849
622	600	533
623	177	114
624	656	67
625	614	904
626	448	413
627	636	226
628	680	827
629	64	500
630	789	959
631	58	513
632	351	912
633	989	115
634	475	941
635	517	95
636	453	295
637	243	828
638	734	325
639	760	672
640	415	735
641	959	712
642	650	561
643	488	946
644	260	494
645	887	502
646	444	567
647	887	16
648	880	97
649	659	718
650	330	595
651	572	754
652	256	794
653	86	286
654	629	368
655	552	431
656	586	201
657	402	785
658	676	3
659	610	837
660	428	637
661	970	340
662	742	81
663	520	754
664	139	583
665	834	41
666	856	412
667	922	49
668	283	887
669	708	193
670	937	951
671	122	334
672	982	958
673	675	634
674	660	575
675	29	255
676	446	328
677	149	103
678	429	143
679	521	125
680	240	657
681	725	662
682	688	593
683	820	660
684	351	233
685	494	145
686	804	771
687	967	345
688	413	589
689	575	756
690	715	938
691	624	776
692	650	91
693	476	103
694	61	222
695	931	647
696	826	239
697	947	993
698	498	843
699	2	379
700	256	444
701	812	901
702	296	291
703	882	677
704	459	998
705	444	254
706	571	542
707	603	299
708	293	270
709	129	674
710	357	75
711	871	508
712	245	233
713	961	138
714	237	394
715	465	113
716	923	762
717	965	478
718	411	551
719	69	767
720	710	31
721	468	205
722	249	930
723	358	37
724	66	327
725	831	285
726	761	455
727	62	209
728	725	822
729	385	842
730	237	755
731	307	367
732	107	498
733	785	441
734	38	463
735	731	233
736	723	487
737	833	348
738	286	337
739	628	510
740	915	61
741	255	846
742	762	750
743	448	480
744	57	570
745	812	821
746	271	243
747	45	168
748	777	329
749	432	841
750	336	755
751	323	168
752	436	333
753	656	854
754	206	808
755	147	394
756	904	321
757	501	470
758	830	326
759	279	0
760	779	507
761	642	791
762	155	318
763	930	73
764	444	354
765	426	943
766	368	926
767	276	878
768	473	953
769	714	725
770	583	429
771	860	239
772	465	283
773	620	689
774	615	365
775	283	953
776	555	619
777	29	323
778	774	678
779	323	57
780	837	744
781	946	845
782	318	436
783	690	893
784	543	275
785	890	200
786	690	348
787	225	512
788	904	554
789	772	588
790	704	580
791	581	731
792	261	843
793	416	887
794	220	272
795	60	849
796	971	472
797	236	68
798	641	759
799	630	503
800	470	640
801	769	371
802	477	259
803	988	561
804	44	20
805	253	457
806	120	182
807	850	307
808	926	589
809	990	661
810	441	756
811	769	185
812	449	634
813	913	356
814	752	128
815	560	414
816	660	838
817	389	818
818	553	766
819	320	347
820	418	179
821	690	613
822	170	164
823	728	279
824	341	426
825	746	51
826	793	688
827	70	619
828	345	105
829	636	135
830	815	458
831	568	286
832	702	321
833	126	367
834	736	327
835	260	447
836	61	382
837	884	219
838	437	971
839	40	879
840	883	582
841	54	837
842	963	125
843	343	944
844	575	834
845	71	305
846	742	51
847	906	121
848	764	820
849	125	843
850	6	103
851	456	338
852	89	222
853	42	439
854	175	142
855	322	827
856	730	545
857	165	646
858	657	775
859	194	620
860	29	423
861	473	713
862	84	922
863	960	678
864	686	904
865	374	629
866	473	319
867	277	545
868	883	25
869	416	851
870	469	241
871	212	332
872	644	991
873	715	387
874	925	972
875	279	149
876	298	930
877	284	513
878	580	358
879	546	533
880	972	280
881	842	379
882	759	317
883	276	335
884	357	392
885	981	514
886	926	218
887	848	725
888	518	369
889	883	208
890	265	695
891	880	900
892	727	919
893	724	917
894	137	105
895	68	184
896	537	105
897	412	930
898	730	134
899	476	313
900	347	43
901	320	418
902	173	119
903	95	940
904	942	45
905	982	157
906	713	172
907	343	787
908	88	992
909	137	775
910	522	558
911	6	972
912	1	674
913	13	450
914	30	335
915	868	780
916	402	490
917	670	578
918	194	29
919	882	437
920	456	579
921	268	539
922	709	131
923	866	300
924	467	436
925	521	868
926	571	989
927	272	399
928	44	60
929	364	397
930	501	989
931	152	772
932	331	520
933	567	523
934	512	576
935	252	420
936	84	211
937	839	362
938	797	307
939	843	846
940	172	181
941	944	1
942	206	296
943	686	791
944	650	278
945	725	997
946	874	587
947	86	920
948	547	592
949	55	47
950	454	156
951	316	918
952	298	733
953	785	271
954	392	717
955	234	557
956	965	722
957	354	568
958	824	309
959	26	156
960	127	304
961	272	483
962	652	645
963	898	182
964	342	388
965	137	503
966	478	973
967	898	82
968	989	765
969	634	990
970	294	863
971	743	895
972	480	470
973	215	500
974	582	193
975	430	382
976	239	259
977	596	960
978	233	43
979	334	258
980	599	447
981	926	437
982	730	429
983	2	34
984	440	412
985	528	830
986	248	155
987	537	898
988	869	944
989	207	104
990	293	606
991	481	707
992	974	732
993	472	44
994	83	423
995	190	103
996	629	91
997	259	737
998	601	158
999	118	595
1000	987	442
1001	710	350
DEMAND_SECTION
1	0
2	5
3	9
4	2
5	1
6	2
7	2
8	5
9	5
10	2
11	6
12	8
13	3
14	7
15	5
16	4
17	1
18	6
19	3
20	7
21	7
22	2
23	8
24	1
25	8
26	7
27	2
28	4
29	1
30	4
31	3
32	3
33	9
34	5
35	2
36	9
37	9
38	1
39	9
40	8
41	8
42	9
43	6
44	9
45	7
46	2
47	9
48	8
49	1
50	3
51	5
52	8
53	2
54	5
55	2
56	4
57	1
58	3
59	7
60	2
61	3
62	7
63	5
64	8
65	5
66	9
67	4
68	6
69	8
70	1
71	8
72	9
73	2
74	9
75	8
76	5
77	4
78	1
79	2
80	4
81	1
82	6
83	3
84	2
85	2
86	7
87	1
88	8
89	2
90	7
91	1
92	1
93	7
94	9
95	8
96	6
97	4
98	8
99	7
100	5
101	4
102	3
103	1
104	5
105	3
106	5
107	7
108	5
109	6
110	3
111	8
112	1
113	9
114	4
115	1
116	7
117	2
118	6
119	2
120	7
121	8
122	1
123	1
124	7
125	2
126	6
127	9
128	2
129	8
130	8
131	7
132	4
133	8
134	5
135	6
136	2
137	4
138	6
139	2
140	5
141	2
142	4
143	4
144	2
145	5
146	3
147	9
148	9
149	8
150	7
151	5
152	3
153	9
154	7
155	7
156	2
157	7
158	1
159	2
160	1
161	1
162	4
163	5
164	8
165	8
166	7
167	9
168	4
169	2
170	3
171	5
172	4
173	2
174	7
175	7
176	1
177	2
178	9
179	6
180	5
181	2
182	8
183	1
184	7
185	2
186	9
187	8
188	9
189	1
190	7
191	6
192	6
193	3
194	3
195	9
196	5
197	9
198	4
199	5
200	3
201	4
202	4
203	8
204	4
205	9
206	1
207	1
208	8
209	2
210	7
211	6
212	7
213	9
214	8
215	7
216	9
217	1
218	8
219	4
220	6
221	6
222	6
223	8
224	7
225	9
226	7
227	5
228	7
229	7
230	5
231	8
232	6
233	4
234	5
235	5
236	9
237	9
238	1
239	1
240	1
241	1
242	2
243	5
244	2
245	2
246	8
247	2
248	9
249	8
250	5
251	3
252	9
253	1
254	7
255	6
256	9
257	7
258	3
259	7
260	6
261	8
262	8
263	1
264	9
265	4
266	2
267	1
268	2
269	7
270	5
271	1
272	3
273	3
274	7
275	8
276	2
277	2
278	1
279	5
280	7
281	5
282	8
283	5
284	6
285	9
286	7
287	4
288	5
289	1
290	9
291	4
292	2
293	2
294	6
295	4
296	5
297	8
298	3
299	8
300	6
301	2
302	9
303	5
304	3
305	3
306	8
307	5
308	9
309	7
310	2
311	6
312	5
313	7
314	3
315	1
316	1
317	3
318	2
319	3
320	3
321	8
322	4
323	5
324	7
325	2
326	6
327	6
328	4
329	5
330	4
331	6
332	8
333	6
334	6
335	5
336	8
337	8
338	3
339	9
340	7
341	4
342	8
343	4
344	3
345	4
346	2
347	7
348	6
349	9
350	3
351	1
352	8
353	1
354	2
355	2
356	4
357	8
358	9
359	4
360	3
361	2
362	9
363	2
364	2
365	8
366	4
367	4
368	3
369	5
370	6
371	6
372	8
373	6
374	5
375	2
376	3
377	1
378	4
379	7
380	4
381	5
382	8
383	6
384	8
385	1
386	7
387	3
388	2
389	6
390	3
391	3
392	7
393	1
394	3
395	8
396	8
397	3
398	2
399	4
400	9
401	8
402	2
403	5
404	1
405	5
406	6
407	9
408	8
409	6
410	7
411	6
412	6
413	4
414	4
415	8
416	2
417	1
418	4
419	5
420	3
421	1
422	9
423	8
424	6
425	2
426	3
427	1
428	6
429	4
430	7
431	2
432	8
433	9
434	2
435	3
436	1
437	6
438	4
439	4
440	5
441	9
442	9
443	9
444	7
445	8
446	7
447	9
448	5
449	1
450	1
451	6
452	9
453	1
454	6
455	8
456	3
457	3
458	3
459	1
460	3
461	6
462	9
463	1
464	7
465	1
466	2
467	8
468	3
469	2
470	5
471	3
472	5
473	1
474	5
475	9
476	3
477	9
478	3
479	7
480	6
481	1
482	1
483	1
484	5
485	2
486	3
487	3
488	4
489	3
490	5
491	9
492	3
493	4
494	8
495	9
496	5
497	9
498	4
499	7
500	6
501	1
502	4
503	8
504	1
505	4
506	5
507	6
508	4
509	7
510	1
511	6
512	6
513	6
514	5
515	4
516	3
517	4
518	3
519	7
520	1
521	4
522	2
523	4
524	5
525	4
526	1
527	7
528	1
529	7
530	6
531	6
532	1
533	9
534	5
535	8
536	2
537	8
538	7
539	6
540	2
541	8
542	4
543	9
544	2
545	4
546	5
547	8
548	7
549	1
550	4
551	2
552	5
553	6
554	6
555	6
556	1
557	6
558	6
559	2
560	8
561	8
562	7
563	9
564	9
565	6
566	8
567	6
568	9
569	6
570	7
571	7
572	4
573	6
574	4
575	3
576	8
577	4
578	4
579	6
580	2
581	4
582	3
583	3
584	1
585	6
586	8
587	1
588	8
589	1
590	2
591	4
592	1
593	9
594	4
595	8
596	7
597	3
598	8
599	6
600	3
601	2
602	9
603	2
604	3
605	2
606	1
607	7
608	1
609	9
610	5
611	5
612	1
613	2
614	1
615	3
616	3
617	6
618	2
619	9
620	1
621	5
622	9
623	6
624	2
625	6
626	5
627	4
628	3
629	4
630	2
631	6
632	3
633	3
634	7
635	1
636	1
637	5
638	2
639	6
640	5
641	1
642	6
643	8
644	3
645	1
646	2
647	2
648	1
649	2
650	5
651	8
652	7
653	1
654	3
655	7
656	2
657	7
658	2
659	3
660	5
661	2
662	2
663	2
664	5
665	9
666	2
667	9
668	7
669	2
670	4
671	7
672	7
673	5
674	9
675	2
676	2
677	8
678	5
679	4
680	7
681	7
682	4
683	5
684	8
685	1
686	5
687	8
688	2
689	9
690	3
691	8
692	9
693	8
694	6
695	8
696	4
697	9
698	1
699	4
700	6
701	4
702	3
703	2
704	4
705	9
706	8
707	3
708	6
709	6
710	2
711	5
712	2
713	9
714	3
715	1
716	6
717	8
718	8
719	2
720	8
721	4
722	4
723	2
724	9
725	6
726	4
727	1
728	1
729	5
730	8
731	6
732	7
733	5
734	7
735	2
736	7
737	5
738	6
739	1
740	4
741	6
742	6
743	3
744	9
745	7
746	2
747	1
748	1
749	6
750	7
751	1
752	6
753	5
754	8
755	5
756	9
757	2
758	5
759	4
760	9
761	8
762	8
763	2
764	6
765	9
766	7
767	5
768	3
769	1
770	4
771	4
772	6
773	5
774	2
775	4
776	2
777	6
778	2
779	1
780	9
781	8
782	1
783	7
784	3
785	8
786	2
787	2
788	8
789	2
790	4
791	2
792	2
793	2
794	6
795	8
796	7
797	1
798	8
799	9
800	9
801	5
802	8
803	2
804	5
805	2
806	9
807	3
808	6
809	1
810	8
811	6
812	9
813	5
814	1
815	6
816	1
817	6
818	9
819	1
820	8
821	9
822	7
823	9
824	2
825	2
826	1
827	9
828	6
829	1
830	7
831	7
832	8
833	7
834	1
835	2
836	2
837	6
838	9
839	3
840	7
841	3
842	3
843	8
844	7
845	6
846	1
847	8
848	3
849	3
850	8
851	6
852	7
853	1
854	7
855	1
856	3
857	2
858	1
859	9
860	1
861	6
862	8
863	6
864	4
865	4
866	7
867	8
868	2
869	9
870	1
871	9
872	9
873	2
874	5
875	1
876	7
877	7
878	5
879	8
880	8
881	6
882	9
883	1
884	1
885	9
886	1
887	4
888	4
889	9
890	9
891	5
892	8
893	8
894	6
895	7
896	8
897	7
898	9
899	5
900	8
901	6
902	5
903	1
904	7
905	7
906	5
907	7
908	9
909	5
910	1
911	4
912	2
913	3
914	9
915	7
916	8
917	7
918	9
919	5
920	3
921	8
922	6
923	5
924	8
925	9
926	9
927	4
928	3
929	9
930	8
931	6
932	6
933	2
934	3
935	7
936	3
937	1
938	3
939	3
940	3
941	3
942	6
943	3
944	2
945	3
946	4
947	9
948	8
949	5
950	4
951	5
952	9
953	1
954	1
955	8
956	6
957	7
958	6
959	4
960	9
961	8
962	5
963	9
964	4
965	6
966	9
967	2
968	8
969	5
970	1
971	9
972	4
973	1
974	3
975	2
976	4
977	1
978	9
979	9
980	7
981	3
982	6
983	3
984	9
985	2
986	7
987	8
988	8
989	4
990	5
991	9
992	7
993	2
994	1
995	8
996	4
997	3
998	7
999	2
1000	4
1001	2
DEPOT_SECTION
1
-1
EOF
