NAME : n1001-0026
COMMENT : "Generated by pyvrp_manuel (VRPL)"
TYPE : VRPL
DIMENSION : 1001
EDGE_WEIGHT_TYPE : EUC_2D
CAPACITY : 150
VEHICLES : 1000
DISTANCE : 3000
NODE_COORD_SECTION
1	553	523
2	162	208
3	551	821
4	838	292
5	52	893
6	1	725
7	514	260
8	730	968
9	671	23
10	69	61
11	698	484
12	966	985
13	884	347
14	70	300
15	59	600
16	116	433
17	708	3
18	271	497
19	149	521
20	304	390
21	600	392
22	481	147
23	806	620
24	863	149
25	687	271
26	392	610
27	904	166
28	398	526
29	965	860
30	156	873
31	495	873
32	833	869
33	9	883
34	621	946
35	16	394
36	878	466
37	529	777
38	752	198
39	788	554
40	272	812
41	686	788
42	100	748
43	633	557
44	998	659
45	87	754
46	393	137
47	316	37
48	498	980
49	386	968
50	792	942
51	623	178
52	880	645
53	471	628
54	630	31
55	793	384
56	391	301
57	563	295
58	478	100
59	703	901
60	130	448
61	687	199
62	96	348
63	218	582
64	140	360
65	319	430
66	829	355
67	255	799
68	700	918
69	354	913
70	356	294
71	373	666
72	960	598
73	335	494
74	196	900
75	908	783
76	523	80
77	345	140
78	280	859
79	756	837
80	748	779
81	920	138
82	930	62
83	636	500
84	274	954
85	892	640
86	277	204
87	648	574
88	870	608
89	893	98
90	804	866
91	678	351
92	400	957
93	810	945
94	116	864
95	706	224
96	37	176
97	313	386
98	82	292
99	164	204
100	709	562
101	935	275
102	93	937
103	617	398
104	521	309
105	269	832
106	57	444
107	724	34
108	589	872
109	916	541
110	99	578
111	956	408
112	563	880
113	817	539
114	543	766
115	830	439
116	397	132
117	831	279
118	31	327
119	346	309
120	142	815
121	478	654
122	378	140
123	975	344
124	835	887
125	564	1
126	224	349
127	485	996
128	2	522
129	185	292
130	798	317
131	566	225
132	67	857
133	613	544
134	522	197
135	357	400
136	88	587
137	902	240
138	766	40
139	552	77
140	108	440
141	903	399
142	811	554
143	202	947
144	99	424
145	263	406
146	261	564
147	0	377
148	255	39
149	161	416
150	697	610
151	483	878
152	29	939
153	589	438
154	184	645
155	736	507
156	86	149
157	789	722
158	168	485
159	246	781
160	372	648
161	630	736
162	359	871
163	790	235
164	226	646
165	604	536
166	85	834
167	383	298
168	45	103
169	135	424
170	222	540
171	738	822
172	781	644
173	893	36
174	343	931
175	77	996
176	366	749
177	219	30
178	642	729
179	570	861
180	182	470
181	819	854
182	487	576
183	912	169
184	154	394
185	779	748
186	934	909
187	587	228
188	703	444
189	67	463
190	901	844
191	834	126
192	126	775
193	97	538
194	683	607
195	603	66
196	669	181
197	437	942
198	332	221
199	630	8
200	805	810
201	332	295
202	533	467
203	916	997
204	107	399
205	142	64
206	861	118
207	156	616
208	923	751
209	989	130
210	691	875
211	248	774
212	853	544
213	600	255
214	749	699
215	731	370
216	496	792
217	716	673
218	643	435
219	992	84
220	72	737
221	49	3
222	528	234
223	10	537
224	397	370
225	852	403
226	368	301
227	39	971
228	370	55
229	993	68
230	316	600
231	705	875
232	179	854
233	581	705
234	947	869
235	574	577
236	330	554
237	44	124
238	529	318
239	972	444
240	796	840
241	398	862
242	26	595
243	973	154
244	173	656
245	376	491
246	936	17
247	967	244
248	240	595
249	558	111
250	523	45
251	642	509
252	692	364
253	562	261
254	770	497
255	358	429
256	804	543
257	937	160
258	866	375
259	52	613
260	314	536
261	541	40
262	976	780
263	943	157
264	85	152
265	444	812
266	139	889
267	327	296
268	78	520
269	494	649
270	322	852
271	248	704
272	207	756
273	539	933
274	627	444
275	113	283
276	551	298
277	432	996
278	68	6
279	864	737
280	194	944
281	191	81
282	919	164
283	508	196
284	61	454
285	269	471
286	375	372
287	849	472
288	278	465
289	891	653
290	383	790
291	870	244
292	144	690
293	940	394
294	144	438
295	902	841
296	736	11
297	633	164
298	157	821
299	103	395
300	291	265
301	308	305
302	909	912
303	416	153
304	555	960
305	949	236
306	193	57
307	825	561
308	88	443
309	690	156
310	638	586
311	698	562
312	140	473
313	553	119
314	359	147
315	406	981
316	51	805
317	204	108
318	147	199
319	336	23
320	154	864
321	873	192
322	91	326
323	889	948
324	397	745
325	513	130
326	841	488
327	378	733
328	844	935
329	231	996
330	869	437
331	771	126
332	887	983
333	215	932
334	349	296
335	97	978
336	897	909
337	449	638
338	637	149
339	426	688
340	724	99
341	231	830
342	634	997
343	860	948
344	883	889
345	135	665
346	843	90
347	950	787
348	573	600
349	276	875
350	618	179
351	975	607
352	472	221
353	625	813
354	83	86
355	248	854
356	555	248
357	382	615
358	511	391
359	896	555
360	736	476
361	470	530
362	781	732
363	562	56
364	48	729
365	390	495
366	287	822
367	383	721
368	358	188
369	745	96
370	413	388
371	56	960
372	758	776
373	587	452
374	178	311
375	567	909
376	991	749
377	314	233
378	626	305
379	331	264
380	495	612
381	37	719
382	471	678
383	649	979
384	994	246
385	316	540
386	340	488
387	655	384
388	752	816
389	948	433
390	346	875
391	860	274
392	470	674
393	138	522
394	381	532
395	582	576
396	427	709
397	154	843
398	566	703
399	272	629
400	589	280
401	903	257
402	34	535
403	551	196
404	594	918
405	785	218
406	525	535
407	230	748
408	558	238
409	336	729
410	572	686
411	576	117
412	877	925
413	634	598
414	839	874
415	47	565
416	32	131
417	450	696
418	442	947
419	403	958
420	259	250
421	299	329
422	566	715
423	807	704
424	319	890
425	119	783
426	729	146
427	900	94
428	381	574
429	517	805
430	113	961
431	586	879
432	621	832
433	874	883
434	988	85
435	200	542
436	664	304
437	808	767
438	392	4
439	82	376
440	501	818
441	707	352
442	50	930
443	808	63
444	538	21
445	396	593
446	68	355
447	208	607
448	770	186
449	119	378
450	599	804
451	368	628
452	19	697
453	819	869
454	298	902
455	491	193
456	534	837
457	745	685
458	522	196
459	886	236
460	814	704
461	93	862
462	739	598
463	692	980
464	427	424
465	187	220
466	488	561
467	604	389
468	853	298
469	567	573
470	908	895
471	3	323
472	231	592
473	187	285
474	213	127
475	286	580
476	155	566
477	130	861
478	105	471
479	704	60
480	573	746
481	566	878
482	808	936
483	228	921
484	426	582
485	22	669
486	727	363
487	250	273
488	94	151
489	946	513
490	367	757
491	985	690
492	531	581
493	453	55
494	694	268
495	476	390
496	799	995
497	469	769
498	39	45
499	499	285
500	194	355
501	938	139
502	366	641
503	618	283
504	910	994
505	747	965
506	526	510
507	216	883
508	684	735
509	289	453
510	167	140
511	613	673
512	43	231
513	946	367
514	210	570
515	676	330
516	711	878
517	4	307
518	233	67
519	67	272
520	718	13
521	589	569
522	788	587
523	34	392
524	738	157
525	422	919
526	403	953
527	409	128
528	204	978
529	379	539
530	191	893
531	88	81
532	529	618
533	973	265
534	54	537
535	938	842
536	42	579
537	549	425
538	214	96
539	153	283
540	669	2
541	910	923
542	869	864
543	138	145
544	810	59
545	237	628
546	392	292
547	965	490
548	272	669
549	856	161
550	560	929
551	399	804
552	6	970
553	351	898
554	342	615
555	585	754
556	576	67
557	831	209
558	36	766
559	247	338
560	613	967
561	743	842
562	460	324
563	355	53
564	280	576
565	332	160
566	531	14
567	819	227
568	49	361
569	109	196
570	799	165
571	333	370
572	91	502
573	143	105
574	374	214
575	160	12
576	691	945
577	473	738
578	945	139
579	237	135
580	491	224
581	982	20
582	757	633
583	265	13
584	447	125
585	814	641
586	737	912
587	116	955
588	291	73
589	93	587
590	117	702
591	986	556
592	954	400
593	911	276
594	555	410
595	201	336
596	760	788
597	516	463
598	646	545
599	993	349
600	517	218
601	879	328
602	599	595
603	483	915
604	887	724
605	625	563
606	571	539
607	83	294
608	694	574
609	840	732
610	103	217
611	768	287
612	450	678
613	794	847
614	242	958
615	494	94
616	682	573
617	894	956
618	331	432
619	190	745
620	786	620
621	94	33
622	597	120
623	391	131
624	98	83
625	419	816
626	779	156
627	644	386
628	600	844
629	933	485
630	914	452
631	506	37
632	369	961
633	920	192
634	552	69
635	201	306
636	250	899
637	317	597
638	585	843
639	88	492
640	336	650
641	934	676
642	258	719
643	567	259
644	221	468
645	383	310
646	897	6
647	582	979
648	761	750
649	638	487
650	28	262
651	410	923
652	743	184
653	546	947
654	465	708
655	373	352
656	886	177
657	276	915
658	438	923
659	286	622
660	163	556
661	111	754
662	736	679
663	406	581
664	496	819
665	537	857
666	472	663
667	785	401
668	959	134
669	733	591
670	315	893
671	568	508
672	937	723
673	413	122
674	565	68
675	800	710
676	993	73
677	97	914
678	3	633
679	996	341
680	420	276
681	228	213
682	304	120
683	778	903
684	326	655
685	112	36
686	379	655
687	106	39
688	582	132
689	176	476
690	423	838
691	950	223
692	305	388
693	649	437
694	488	557
695	511	311
696	836	426
697	640	627
698	124	510
699	59	159
700	482	395
701	964	987
702	143	632
703	797	474
704	405	52
705	128	168
706	753	267
707	902	343
708	297	365
709	558	850
710	287	452
711	542	923
712	549	945
713	525	617
714	606	545
715	972	985
716	352	624
717	259	992
718	821	301
719	35	307
720	575	370
721	127	199
722	738	228
723	121	502
724	827	17
725	365	138
726	654	533
727	437	710
728	23	950
729	641	312
730	571	625
731	415	32
732	955	585
733	693	397
734	217	878
735	917	690
736	874	285
737	286	835
738	28	432
739	814	541
740	756	73
741	741	618
742	751	698
743	241	108
744	767	580
745	669	241
746	124	350
747	130	914
748	325	144
749	777	761
750	950	931
751	232	412
752	897	879
753	593	330
754	298	254
755	197	85
756	726	782
757	41	97
758	33	225
759	233	292
760	294	934
761	202	411
762	32	465
763	520	814
764	244	732
765	800	569
766	259	338
767	893	712
768	768	975
769	487	460
770	964	384
771	961	289
772	99	882
773	211	173
774	530	636
775	109	755
776	574	213
777	472	955
778	487	992
779	699	410
780	647	474
781	329	919
782	954	726
783	455	522
784	459	415
785	238	671
786	814	793
787	298	60
788	732	884
789	409	470
790	974	61
791	867	668
792	565	794
793	666	267
794	569	161
795	893	883
796	568	684
797	69	530
798	999	139
799	72	184
800	478	890
801	567	639
802	42	253
803	644	699
804	1000	831
805	547	489
806	675	258
807	54	866
808	179	52
809	916	905
810	591	661
811	754	522
812	76	528
813	897	995
814	712	850
815	237	112
816	424	499
817	418	334
818	422	905
819	658	911
820	501	595
821	621	699
822	260	928
823	388	431
824	143	216
825	527	12
826	307	389
827	870	177
828	854	239
829	204	265
830	32	476
831	229	264
832	927	295
833	974	18
834	966	446
835	563	938
836	872	485
837	87	62
838	460	425
839	194	76
840	735	98
841	881	638
842	870	731
843	251	656
844	283	405
845	813	393
846	590	204
847	60	666
848	104	485
849	674	162
850	255	884
851	128	688
852	205	161
853	980	585
854	427	913
855	897	911
856	489	216
857	735	725
858	817	425
859	525	242
860	142	562
861	54	361
862	911	467
863	682	459
864	15	740
865	860	238
866	309	593
867	746	714
868	595	416
869	862	53
870	116	189
871	417	513
872	212	565
873	342	714
874	959	205
875	247	279
876	298	925
877	919	360
878	188	60
879	864	69
880	89	310
881	64	516
882	144	679
883	459	101
884	796	331
885	65	248
886	752	912
887	560	765
888	615	84
889	439	212
890	346	992
891	669	372
892	233	98
893	72	621
894	737	767
895	360	876
896	6	346
897	257	479
898	600	874
899	270	654
900	563	310
901	76	885
902	22	684
903	134	284
904	264	36
905	783	708
906	437	952
907	764	477
908	838	212
909	733	684
910	218	730
911	775	339
912	611	178
913	547	744
914	264	816
915	876	965
916	771	588
917	934	201
918	830	459
919	786	49
920	282	87
921	327	250
922	660	568
923	415	875
924	991	60
925	42	106
926	718	316
927	525	631
928	772	937
929	943	119
930	61	558
931	567	817
932	863	810
933	974	364
934	941	334
935	509	805
936	105	501
937	734	870
938	475	347
939	689	556
940	986	524
941	128	627
942	983	182
943	496	188
944	926	678
945	837	229
946	224	731
947	88	330
948	144	685
949	523	870
950	984	783
951	584	353
952	367	997
953	897	461
954	571	408
955	895	113
956	9	947
957	357	47
958	741	340
959	78	719
960	84	880
961	394	726
962	827	239
963	536	54
964	943	299
965	62	563
966	355	848
967	855	701
968	269	442
969	47	54
970	154	746
971	197	93
972	193	305
973	944	805
974	525	623
975	474	694
976	717	213
977	686	740
978	317	258
979	299	620
980	660	320
981	800	781
982	963	358
983	518	627
984	900	413
985	772	278
986	30	960
987	685	698
988	564	980
989	666	27
990	922	740
991	621	309
992	113	507
993	531	384
994	888	302
995	782	189
996	592	878
997	149	420
998	27	847
999	993	177
1000	252	587
1001	625	715
DEMAND_SECTION
1	0
2	2
3	2
4	8
5	8
6	5
7	8
8	7
9	2
10	6
11	1
12	7
13	5
14	1
15	2
16	6
17	6
18	4
19	1
20	9
21	8
22	3
23	2
24	4
25	4
26	1
27	7
28	4
29	2
30	6
31	2
32	6
33	5
34	1
35	9
36	8
37	4
38	7
39	3
40	2
41	1
42	4
43	9
44	9
45	7
46	4
47	6
48	4
49	8
50	2
51	9
52	5
53	7
54	9
55	2
56	7
57	2
58	5
59	6
60	5
61	8
62	6
63	3
64	4
65	4
66	6
67	5
68	4
69	1
70	8
71	1
72	2
73	8
74	2
75	1
76	3
77	1
78	7
79	2
80	2
81	2
82	1
83	5
84	2
85	9
86	3
87	2
88	3
89	8
90	7
91	5
92	3
93	1
94	9
95	1
96	5
97	4
98	6
99	3
100	3
101	9
102	8
103	5
104	5
105	3
106	8
107	6
108	6
109	9
110	3
111	7
112	5
113	3
114	5
115	3
116	5
117	3
118	6
119	6
120	9
121	7
122	7
123	5
124	2
125	9
126	9
127	2
128	5
129	4
130	5
131	2
132	9
133	1
134	3
135	6
136	8
137	8
138	5
139	2
140	5
141	8
142	8
143	5
144	5
145	4
146	3
147	5
148	4
149	1
150	6
151	3
152	9
153	7
154	2
155	9
156	4
157	5
158	1
159	8
160	1
161	8
162	5
163	6
164	7
165	7
166	5
167	2
168	3
169	1
170	5
171	5
172	2
173	3
174	4
175	5
176	8
177	7
178	8
179	1
180	3
181	1
182	3
183	1
184	1
185	3
186	2
187	3
188	2
189	7
190	2
191	1
192	7
193	9
194	9
195	1
196	9
197	5
198	1
199	1
200	3
201	6
202	3
203	4
204	6
205	6
206	8
207	1
208	6
209	2
210	5
211	7
212	4
213	4
214	8
215	3
216	2
217	3
218	2
219	5
220	1
221	2
222	7
223	1
224	4
225	2
226	6
227	2
228	4
229	8
230	2
231	7
232	4
233	1
234	6
235	8
236	5
237	6
238	5
239	8
240	4
241	3
242	9
243	6
244	9
245	7
246	7
247	2
248	3
249	3
250	1
251	6
252	9
253	6
254	9
255	1
256	2
257	3
258	5
259	1
260	3
261	8
262	4
263	4
264	1
265	6
266	9
267	6
268	7
269	1
270	8
271	4
272	1
273	5
274	8
275	3
276	5
277	2
278	8
279	1
280	8
281	5
282	6
283	5
284	9
285	5
286	5
287	5
288	6
289	1
290	2
291	4
292	8
293	7
294	1
295	2
296	7
297	4
298	4
299	7
300	6
301	4
302	2
303	5
304	7
305	1
306	8
307	2
308	3
309	2
310	7
311	1
312	1
313	2
314	8
315	3
316	7
317	4
318	6
319	7
320	5
321	3
322	6
323	5
324	6
325	4
326	6
327	2
328	8
329	2
330	7
331	9
332	5
333	6
334	6
335	4
336	3
337	1
338	9
339	7
340	7
341	3
342	9
343	7
344	1
345	4
346	2
347	6
348	4
349	4
350	6
351	1
352	3
353	8
354	5
355	2
356	1
357	5
358	6
359	6
360	4
361	2
362	2
363	9
364	9
365	3
366	2
367	9
368	8
369	4
370	6
371	5
372	3
373	5
374	8
375	8
376	4
377	2
378	4
379	2
380	6
381	8
382	2
383	6
384	9
385	5
386	8
387	9
388	5
389	7
390	7
391	3
392	8
393	6
394	3
395	5
396	2
397	6
398	6
399	1
400	7
401	8
402	7
403	4
404	6
405	7
406	7
407	3
408	8
409	1
410	4
411	4
412	3
413	3
414	9
415	9
416	7
417	6
418	8
419	5
420	7
421	1
422	7
423	3
424	5
425	3
426	6
427	1
428	3
429	6
430	1
431	2
432	7
433	5
434	5
435	1
436	2
437	2
438	2
439	1
440	7
441	4
442	1
443	9
444	5
445	8
446	8
447	5
448	1
449	6
450	2
451	2
452	3
453	4
454	1
455	7
456	9
457	1
458	1
459	2
460	1
461	8
462	8
463	8
464	3
465	4
466	8
467	7
468	7
469	8
470	7
471	2
472	7
473	1
474	8
475	2
476	2
477	2
478	6
479	3
480	6
481	7
482	8
483	2
484	7
485	3
486	8
487	2
488	4
489	2
490	1
491	4
492	3
493	6
494	8
495	1
496	1
497	5
498	7
499	7
500	9
501	9
502	9
503	2
504	7
505	8
506	8
507	1
508	7
509	3
510	2
511	1
512	8
513	6
514	8
515	3
516	9
517	9
518	3
519	4
520	1
521	4
522	3
523	2
524	4
525	4
526	5
527	3
528	9
529	3
530	4
531	6
532	6
533	9
534	9
535	3
536	1
537	4
538	2
539	4
540	6
541	7
542	2
543	8
544	8
545	4
546	3
547	8
548	6
549	4
550	3
551	6
552	1
553	6
554	7
555	5
556	3
557	2
558	6
559	2
560	3
561	7
562	5
563	2
564	6
565	4
566	9
567	8
568	2
569	7
570	7
571	2
572	5
573	2
574	5
575	1
576	5
577	1
578	9
579	4
580	8
581	1
582	6
583	8
584	9
585	6
586	6
587	2
588	7
589	6
590	8
591	7
592	2
593	1
594	3
595	2
596	6
597	7
598	3
599	1
600	5
601	5
602	1
603	9
604	6
605	2
606	5
607	9
608	4
609	7
610	1
611	6
612	7
613	3
614	5
615	7
616	2
617	4
618	9
619	7
620	3
621	6
622	1
623	5
624	6
625	4
626	6
627	8
628	1
629	2
630	2
631	6
632	2
633	3
634	7
635	2
636	9
637	6
638	3
639	5
640	3
641	1
642	4
643	6
644	3
645	6
646	1
647	1
648	3
649	5
650	4
651	7
652	7
653	4
654	2
655	1
656	9
657	5
658	5
659	4
660	1
661	6
662	8
663	6
664	7
665	9
666	3
667	1
668	8
669	2
670	2
671	9
672	3
673	3
674	9
675	1
676	1
677	2
678	8
679	4
680	7
681	7
682	6
683	8
684	4
685	5
686	8
687	5
688	9
689	6
690	8
691	1
692	7
693	5
694	6
695	2
696	7
697	1
698	4
699	5
700	5
701	4
702	6
703	5
704	3
705	1
706	2
707	8
708	4
709	2
710	6
711	9
712	8
713	9
714	6
715	3
716	9
717	7
718	2
719	7
720	3
721	6
722	5
723	1
724	9
725	8
726	5
727	1
728	2
729	7
730	8
731	4
732	6
733	8
734	5
735	3
736	2
737	9
738	4
739	3
740	3
741	3
742	5
743	1
744	6
745	3
746	2
747	4
748	8
749	5
750	8
751	9
752	1
753	6
754	3
755	3
756	9
757	4
758	5
759	3
760	4
761	7
762	9
763	2
764	4
765	7
766	8
767	3
768	4
769	8
770	5
771	5
772	6
773	7
774	6
775	1
776	7
777	1
778	3
779	2
780	8
781	7
782	1
783	8
784	9
785	3
786	1
787	2
788	5
789	2
790	7
791	5
792	1
793	5
794	2
795	6
796	7
797	7
798	8
799	5
800	2
801	4
802	1
803	8
804	4
805	5
806	6
807	8
808	1
809	6
810	5
811	9
812	5
813	9
814	2
815	7
816	8
817	6
818	1
819	4
820	7
821	9
822	8
823	6
824	5
825	2
826	5
827	8
828	2
829	8
830	4
831	7
832	4
833	6
834	2
835	6
836	1
837	6
838	1
839	6
840	7
841	1
842	1
843	7
844	7
845	8
846	1
847	9
848	1
849	2
850	2
851	4
852	5
853	2
854	3
855	9
856	5
857	3
858	7
859	2
860	3
861	1
862	6
863	4
864	9
865	3
866	9
867	1
868	1
869	6
870	5
871	1
872	9
873	4
874	7
875	4
876	2
877	8
878	1
879	5
880	2
881	3
882	4
883	1
884	1
885	8
886	5
887	5
888	6
889	8
890	1
891	4
892	1
893	8
894	3
895	9
896	8
897	2
898	7
899	5
900	1
901	4
902	2
903	5
904	2
905	7
906	6
907	3
908	8
909	4
910	4
911	4
912	4
913	9
914	6
915	7
916	5
917	4
918	2
919	6
920	8
921	7
922	2
923	2
924	5
925	9
926	7
927	4
928	7
929	6
930	1
931	1
932	7
933	1
934	7
935	4
936	5
937	5
938	7
939	7
940	7
941	7
942	4
943	9
944	9
945	3
946	8
947	1
948	2
949	7
950	9
951	8
952	3
953	5
954	6
955	6
956	6
957	7
958	7
959	8
960	3
961	6
962	3
963	2
964	9
965	8
966	7
967	3
968	9
969	5
970	3
971	9
972	8
973	8
974	4
975	7
976	8
977	2
978	8
979	4
980	9
981	6
982	2
983	3
984	3
985	4
986	6
987	1
988	5
989	1
990	4
991	7
992	4
993	7
994	3
995	7
996	9
997	2
998	6
999	6
1000	6
1001	2
DEPOT_SECTION
1
-1
EOF
