NAME : n1001-0050
COMMENT : "Generated by pyvrp_manuel (VRPL)"
TYPE : VRPL
DIMENSION : 1001
EDGE_WEIGHT_TYPE : EUC_2D
CAPACITY : 150
VEHICLES : 1000
DISTANCE : 3000
NODE_COORD_SECTION
1	438	666
2	787	758
3	317	122
4	377	668
5	112	298
6	373	991
7	46	514
8	521	814
9	150	698
10	205	636
11	717	431
12	287	97
13	417	522
14	435	482
15	549	861
16	23	268
17	994	701
18	647	59
19	68	274
20	89	900
21	14	466
22	932	846
23	514	983
24	784	805
25	771	351
26	257	310
27	695	882
28	59	555
29	295	533
30	716	90
31	535	809
32	810	748
33	232	843
34	438	509
35	994	842
36	93	431
37	680	894
38	404	15
39	911	535
40	690	440
41	964	998
42	574	659
43	676	642
44	717	664
45	267	10
46	53	711
47	61	395
48	491	706
49	724	765
50	127	4
51	835	920
52	134	602
53	816	628
54	605	693
55	783	736
56	250	528
57	643	131
58	964	742
59	687	691
60	685	643
61	439	289
62	237	643
63	227	719
64	572	640
65	240	380
66	696	22
67	112	687
68	553	993
69	85	108
70	593	814
71	501	680
72	555	603
73	961	890
74	597	888
75	991	763
76	660	243
77	284	571
78	758	993
79	352	603
80	270	700
81	968	789
82	233	646
83	98	183
84	995	523
85	504	878
86	548	145
87	59	335
88	722	775
89	618	708
90	619	555
91	326	138
92	719	801
93	121	135
94	237	330
95	266	811
96	299	133
97	111	339
98	558	9
99	911	376
100	95	842
101	298	345
102	583	802
103	604	122
104	842	10
105	523	880
106	383	759
107	471	910
108	10	151
109	227	57
110	203	616
111	407	438
112	861	755
113	207	175
114	939	849
115	800	399
116	546	718
117	106	71
118	878	845
119	758	247
120	970	856
121	449	878
122	311	149
123	728	170
124	399	581
125	1	965
126	27	830
127	488	949
128	961	755
129	296	139
130	150	208
131	969	262
132	410	811
133	772	331
134	632	988
135	216	841
136	503	403
137	907	738
138	127	909
139	644	990
140	964	594
141	579	536
142	46	10
143	55	192
144	473	390
145	582	848
146	150	541
147	760	859
148	409	700
149	622	298
150	998	956
151	976	796
152	914	902
153	730	732
154	281	181
155	692	875
156	521	39
157	462	63
158	596	747
159	371	832
160	107	573
161	771	27
162	624	341
163	638	815
164	314	292
165	720	828
166	355	798
167	818	244
168	937	167
169	604	519
170	33	439
171	308	673
172	633	873
173	700	794
174	522	699
175	374	50
176	396	589
177	754	565
178	345	354
179	523	673
180	119	747
181	92	741
182	594	781
183	658	895
184	669	257
185	806	17
186	800	635
187	349	936
188	284	296
189	843	940
190	552	334
191	339	251
192	484	758
193	843	702
194	169	988
195	410	513
196	572	623
197	285	14
198	816	557
199	694	422
200	277	425
201	432	611
202	64	981
203	261	354
204	774	7
205	524	971
206	269	97
207	223	342
208	17	688
209	440	72
210	545	52
211	11	990
212	876	758
213	851	57
214	308	143
215	645	830
216	388	841
217	661	27
218	667	396
219	337	588
220	595	915
221	268	842
222	249	983
223	199	361
224	477	849
225	91	594
226	328	73
227	698	862
228	563	11
229	916	721
230	899	450
231	762	46
232	231	745
233	350	270
234	72	482
235	293	50
236	67	179
237	960	543
238	796	578
239	178	392
240	135	867
241	602	659
242	24	383
243	456	409
244	394	241
245	99	656
246	983	688
247	290	31
248	213	55
249	682	316
250	770	412
251	715	758
252	523	494
253	384	412
254	162	977
255	828	364
256	677	64
257	129	33
258	327	966
259	684	7
260	47	786
261	247	724
262	573	265
263	102	126
264	311	470
265	124	267
266	154	154
267	917	943
268	535	345
269	15	13
270	260	725
271	309	71
272	545	493
273	885	617
274	924	42
275	743	382
276	188	860
277	22	250
278	621	399
279	184	629
280	822	576
281	806	32
282	270	678
283	92	182
284	277	808
285	465	570
286	307	922
287	344	801
288	118	562
289	975	767
290	455	453
291	700	928
292	653	620
293	566	575
294	124	9
295	940	764
296	862	805
297	919	378
298	821	99
299	811	944
300	320	719
301	691	681
302	880	749
303	37	336
304	998	829
305	987	422
306	569	801
307	761	837
308	778	947
309	1	343
310	921	428
311	34	760
312	374	650
313	365	270
314	41	755
315	688	123
316	376	532
317	956	472
318	410	251
319	522	619
320	212	747
321	320	953
322	474	708
323	51	983
324	778	19
325	554	732
326	900	734
327	36	326
328	408	690
329	600	58
330	61	296
331	920	111
332	820	897
333	857	177
334	45	299
335	885	87
336	40	775
337	796	931
338	553	714
339	784	438
340	196	661
341	741	528
342	572	871
343	756	904
344	257	10
345	380	768
346	993	807
347	388	589
348	655	939
349	563	211
350	95	148
351	830	900
352	823	166
353	725	188
354	479	134
355	991	697
356	168	611
357	270	647
358	907	404
359	841	811
360	654	525
361	499	170
362	243	194
363	34	541
364	846	135
365	141	280
366	699	581
367	628	672
368	988	420
369	534	975
370	564	503
371	816	628
372	987	482
373	264	406
374	557	844
375	945	527
376	650	184
377	688	469
378	538	542
379	676	575
380	692	44
381	906	516
382	208	783
383	120	293
384	845	48
385	135	253
386	312	723
387	973	583
388	186	45
389	595	561
390	561	657
391	902	988
392	579	46
393	305	889
394	826	350
395	121	91
396	32	335
397	108	118
398	627	92
399	991	795
400	843	222
401	682	971
402	144	438
403	928	674
404	248	260
405	245	803
406	957	819
407	459	455
408	191	848
409	968	798
410	716	294
411	197	839
412	423	251
413	565	75
414	864	471
415	399	205
416	124	422
417	217	830
418	632	951
419	329	438
420	579	938
421	795	190
422	573	353
423	713	279
424	253	12
425	236	575
426	164	539
427	245	849
428	706	898
429	642	588
430	450	214
431	731	157
432	472	851
433	854	995
434	737	200
435	598	18
436	403	538
437	838	397
438	451	245
439	20	281
440	727	621
441	801	52
442	887	100
443	146	95
444	149	829
445	962	51
446	202	759
447	607	693
448	953	660
449	60	631
450	909	135
451	467	209
452	19	421
453	969	834
454	908	685
455	57	538
456	634	717
457	512	591
458	961	15
459	473	181
460	265	34
461	390	227
462	926	816
463	374	160
464	452	731
465	815	198
466	516	70
467	858	237
468	789	311
469	512	363
470	640	309
471	542	742
472	542	921
473	145	903
474	37	852
475	984	102
476	695	579
477	518	613
478	454	345
479	515	172
480	518	660
481	819	704
482	754	237
483	449	227
484	73	552
485	230	835
486	207	824
487	844	410
488	75	807
489	297	634
490	236	255
491	901	578
492	54	853
493	784	664
494	303	362
495	127	7
496	655	782
497	212	686
498	214	379
499	929	885
500	635	134
501	750	724
502	202	879
503	785	352
504	159	521
505	211	228
506	617	465
507	438	599
508	583	818
509	181	498
510	543	293
511	387	293
512	225	803
513	247	694
514	719	31
515	88	753
516	458	250
517	40	385
518	13	203
519	794	436
520	131	40
521	601	602
522	462	439
523	784	574
524	738	885
525	276	180
526	442	253
527	973	118
528	994	542
529	973	268
530	6	23
531	952	311
532	975	143
533	576	495
534	91	846
535	845	131
536	313	100
537	901	183
538	918	780
539	182	893
540	147	893
541	47	498
542	201	268
543	252	296
544	76	862
545	739	181
546	977	904
547	920	644
548	554	445
549	122	725
550	518	639
551	544	59
552	448	808
553	663	682
554	899	623
555	571	241
556	122	350
557	458	660
558	744	263
559	529	512
560	184	696
561	604	824
562	384	380
563	132	740
564	34	242
565	272	121
566	82	186
567	85	667
568	482	580
569	783	59
570	290	731
571	771	87
572	317	537
573	808	960
574	359	626
575	577	776
576	775	255
577	515	999
578	87	476
579	605	810
580	224	539
581	526	865
582	337	613
583	747	804
584	793	355
585	594	158
586	711	941
587	245	458
588	945	483
589	2	76
590	158	946
591	978	897
592	355	715
593	140	296
594	661	561
595	361	734
596	709	489
597	815	371
598	848	924
599	56	722
600	346	992
601	639	9
602	331	910
603	10	630
604	937	999
605	570	793
606	762	369
607	794	782
608	821	892
609	633	846
610	616	878
611	370	241
612	613	564
613	949	925
614	943	102
615	518	356
616	207	245
617	429	71
618	608	748
619	606	578
620	64	144
621	214	394
622	871	855
623	881	312
624	175	708
625	953	405
626	488	809
627	332	61
628	629	67
629	209	478
630	734	774
631	882	593
632	676	696
633	157	153
634	542	802
635	206	609
636	676	922
637	749	777
638	687	824
639	759	916
640	977	129
641	521	987
642	567	764
643	117	6
644	989	311
645	355	20
646	348	506
647	173	297
648	76	8
649	189	503
650	727	923
651	295	703
652	20	839
653	326	582
654	357	91
655	795	189
656	44	903
657	345	698
658	347	749
659	897	714
660	602	437
661	854	47
662	146	561
663	950	868
664	222	693
665	652	579
666	407	245
667	454	107
668	941	259
669	109	97
670	703	536
671	480	197
672	670	174
673	774	262
674	416	135
675	195	135
676	843	967
677	858	479
678	381	823
679	636	510
680	885	763
681	768	60
682	459	101
683	706	706
684	456	401
685	988	216
686	57	815
687	546	770
688	434	27
689	58	865
690	298	134
691	308	227
692	833	466
693	276	817
694	353	397
695	448	511
696	22	665
697	699	339
698	583	321
699	78	970
700	269	495
701	653	726
702	965	911
703	761	278
704	454	992
705	797	11
706	993	732
707	387	516
708	126	380
709	634	978
710	734	397
711	508	793
712	568	12
713	962	723
714	670	966
715	928	372
716	807	191
717	727	838
718	92	258
719	630	471
720	388	959
721	424	460
722	220	881
723	807	213
724	923	280
725	127	393
726	339	78
727	182	596
728	971	803
729	770	750
730	969	482
731	248	148
732	20	629
733	831	897
734	360	692
735	137	470
736	667	401
737	551	504
738	763	568
739	964	447
740	725	594
741	534	719
742	519	198
743	45	212
744	336	618
745	606	477
746	928	534
747	325	382
748	545	242
749	640	865
750	785	290
751	96	94
752	647	1
753	961	53
754	926	731
755	382	89
756	746	826
757	835	870
758	739	635
759	253	648
760	511	528
761	608	701
762	168	379
763	127	761
764	393	728
765	690	334
766	98	452
767	863	182
768	370	67
769	406	292
770	255	815
771	271	377
772	568	169
773	30	231
774	476	198
775	625	375
776	866	304
777	832	509
778	578	391
779	248	957
780	672	998
781	422	68
782	216	638
783	70	311
784	848	350
785	127	602
786	418	943
787	43	653
788	630	932
789	171	699
790	875	719
791	593	766
792	574	165
793	305	346
794	529	141
795	393	449
796	284	991
797	777	969
798	975	783
799	839	817
800	937	353
801	251	526
802	785	439
803	731	393
804	919	738
805	967	618
806	517	463
807	414	540
808	477	82
809	434	719
810	389	370
811	273	851
812	723	283
813	371	65
814	586	513
815	719	550
816	143	687
817	986	152
818	51	205
819	661	18
820	834	149
821	756	999
822	380	820
823	640	317
824	37	345
825	766	880
826	873	624
827	296	411
828	114	711
829	180	437
830	529	679
831	820	582
832	997	356
833	856	710
834	383	407
835	910	363
836	546	266
837	857	739
838	453	398
839	244	178
840	728	679
841	792	339
842	479	423
843	886	842
844	228	116
845	41	637
846	679	522
847	272	264
848	549	160
849	415	964
850	355	524
851	584	229
852	395	496
853	724	448
854	752	783
855	951	483
856	935	96
857	652	331
858	398	900
859	495	967
860	817	549
861	108	737
862	195	62
863	909	739
864	580	156
865	307	493
866	885	867
867	814	238
868	91	29
869	205	895
870	871	394
871	43	706
872	997	4
873	404	499
874	590	651
875	160	189
876	501	552
877	459	384
878	679	653
879	73	524
880	661	587
881	881	765
882	764	922
883	880	427
884	399	796
885	983	847
886	430	750
887	140	678
888	689	181
889	926	541
890	77	459
891	375	762
892	5	487
893	817	767
894	459	548
895	290	752
896	83	796
897	374	862
898	925	64
899	65	34
900	447	450
901	384	57
902	806	234
903	817	665
904	872	821
905	473	44
906	89	197
907	939	930
908	591	949
909	194	593
910	631	37
911	904	217
912	56	734
913	898	119
914	185	228
915	454	857
916	947	992
917	371	746
918	222	790
919	182	110
920	31	69
921	19	230
922	466	980
923	739	367
924	672	70
925	993	272
926	164	608
927	657	735
928	343	217
929	844	619
930	183	565
931	751	885
932	233	806
933	524	447
934	273	418
935	180	22
936	605	134
937	349	86
938	826	801
939	341	122
940	405	972
941	245	106
942	391	904
943	537	2
944	117	443
945	624	242
946	84	889
947	101	841
948	968	554
949	374	352
950	308	808
951	235	256
952	610	208
953	155	693
954	753	354
955	929	8
956	693	744
957	582	251
958	490	201
959	617	355
960	132	218
961	210	181
962	852	736
963	706	735
964	511	988
965	717	698
966	486	663
967	703	235
968	697	37
969	147	615
970	755	519
971	29	768
972	808	584
973	40	541
974	889	838
975	526	347
976	344	671
977	551	537
978	976	231
979	60	673
980	975	350
981	940	498
982	226	283
983	876	159
984	776	597
985	293	462
986	314	491
987	392	815
988	988	647
989	999	969
990	189	103
991	529	28
992	727	506
993	207	67
994	585	472
995	366	778
996	126	256
997	672	966
998	163	232
999	861	495
1000	738	260
1001	794	532
DEMAND_SECTION
1	0
2	1
3	8
4	4
5	9
6	9
7	1
8	8
9	5
10	7
11	6
12	8
13	1
14	8
15	8
16	2
17	3
18	7
19	4
20	7
21	6
22	8
23	8
24	9
25	7
26	1
27	2
28	2
29	3
30	4
31	2
32	2
33	9
34	3
35	9
36	8
37	4
38	7
39	6
40	8
41	1
42	3
43	6
44	9
45	6
46	3
47	1
48	8
49	2
50	9
51	5
52	1
53	5
54	4
55	6
56	4
57	7
58	1
59	4
60	8
61	4
62	3
63	4
64	9
65	8
66	8
67	3
68	4
69	3
70	2
71	4
72	2
73	3
74	4
75	7
76	8
77	6
78	5
79	2
80	1
81	9
82	3
83	5
84	3
85	3
86	5
87	3
88	1
89	8
90	8
91	5
92	3
93	8
94	6
95	9
96	7
97	4
98	2
99	7
100	9
101	9
102	6
103	2
104	7
105	8
106	8
107	2
108	2
109	3
110	3
111	8
112	1
113	6
114	6
115	6
116	4
117	3
118	6
119	7
120	9
121	1
122	5
123	4
124	5
125	9
126	3
127	8
128	8
129	6
130	9
131	4
132	4
133	2
134	7
135	3
136	7
137	4
138	5
139	4
140	4
141	9
142	1
143	5
144	4
145	7
146	1
147	4
148	8
149	5
150	1
151	3
152	2
153	9
154	1
155	4
156	6
157	5
158	4
159	2
160	7
161	9
162	3
163	6
164	5
165	1
166	8
167	8
168	1
169	2
170	3
171	6
172	4
173	4
174	7
175	8
176	5
177	5
178	1
179	2
180	1
181	9
182	6
183	9
184	5
185	8
186	3
187	6
188	1
189	4
190	8
191	8
192	6
193	4
194	6
195	9
196	1
197	7
198	3
199	4
200	9
201	6
202	1
203	3
204	9
205	9
206	9
207	6
208	3
209	3
210	3
211	9
212	3
213	5
214	8
215	1
216	7
217	5
218	4
219	9
220	8
221	6
222	4
223	8
224	3
225	8
226	9
227	9
228	4
229	6
230	7
231	1
232	7
233	8
234	8
235	6
236	6
237	5
238	3
239	7
240	7
241	4
242	1
243	7
244	2
245	6
246	1
247	8
248	6
249	5
250	1
251	2
252	2
253	3
254	3
255	4
256	2
257	8
258	7
259	3
260	1
261	3
262	2
263	9
264	5
265	6
266	9
267	8
268	4
269	8
270	7
271	9
272	8
273	6
274	4
275	9
276	4
277	2
278	6
279	8
280	2
281	6
282	9
283	7
284	7
285	9
286	2
287	1
288	4
289	2
290	9
291	1
292	4
293	3
294	6
295	7
296	7
297	7
298	3
299	1
300	2
301	5
302	6
303	6
304	9
305	9
306	1
307	4
308	3
309	7
310	5
311	7
312	4
313	2
314	8
315	1
316	5
317	5
318	4
319	6
320	3
321	4
322	9
323	5
324	9
325	6
326	8
327	7
328	1
329	7
330	3
331	8
332	7
333	9
334	7
335	7
336	2
337	1
338	6
339	9
340	2
341	7
342	4
343	1
344	8
345	1
346	2
347	4
348	8
349	5
350	4
351	9
352	8
353	9
354	4
355	6
356	4
357	3
358	6
359	9
360	4
361	6
362	2
363	1
364	4
365	6
366	9
367	7
368	3
369	3
370	3
371	2
372	2
373	4
374	3
375	6
376	5
377	3
378	3
379	4
380	1
381	1
382	3
383	5
384	3
385	1
386	4
387	4
388	2
389	9
390	9
391	8
392	8
393	8
394	6
395	2
396	2
397	1
398	5
399	8
400	9
401	3
402	9
403	4
404	3
405	6
406	8
407	1
408	1
409	6
410	8
411	8
412	6
413	8
414	1
415	9
416	8
417	5
418	1
419	8
420	5
421	9
422	9
423	2
424	7
425	2
426	6
427	4
428	9
429	3
430	6
431	9
432	4
433	9
434	8
435	9
436	2
437	1
438	3
439	3
440	9
441	1
442	8
443	7
444	9
445	5
446	3
447	7
448	7
449	5
450	9
451	2
452	4
453	6
454	3
455	8
456	9
457	5
458	9
459	2
460	6
461	9
462	4
463	3
464	4
465	7
466	7
467	4
468	8
469	4
470	1
471	5
472	7
473	8
474	8
475	6
476	7
477	5
478	5
479	1
480	3
481	3
482	8
483	4
484	3
485	3
486	2
487	6
488	5
489	9
490	9
491	3
492	7
493	9
494	5
495	4
496	5
497	5
498	5
499	2
500	2
501	8
502	5
503	1
504	1
505	5
506	8
507	6
508	7
509	1
510	2
511	2
512	6
513	4
514	8
515	5
516	5
517	7
518	8
519	1
520	2
521	6
522	1
523	2
524	1
525	1
526	3
527	9
528	8
529	6
530	1
531	1
532	7
533	5
534	9
535	4
536	4
537	7
538	2
539	9
540	1
541	9
542	6
543	2
544	3
545	8
546	8
547	2
548	8
549	6
550	4
551	1
552	3
553	1
554	7
555	1
556	3
557	4
558	5
559	7
560	3
561	7
562	9
563	8
564	7
565	7
566	1
567	4
568	3
569	1
570	9
571	6
572	1
573	3
574	2
575	8
576	7
577	7
578	6
579	2
580	4
581	8
582	3
583	9
584	8
585	2
586	6
587	9
588	2
589	8
590	7
591	2
592	3
593	7
594	5
595	1
596	6
597	7
598	2
599	8
600	8
601	5
602	4
603	7
604	2
605	6
606	4
607	6
608	3
609	8
610	4
611	7
612	9
613	4
614	7
615	5
616	4
617	3
618	9
619	1
620	1
621	8
622	9
623	1
624	7
625	8
626	5
627	6
628	1
629	1
630	4
631	2
632	2
633	8
634	5
635	4
636	1
637	2
638	6
639	6
640	6
641	3
642	4
643	5
644	4
645	9
646	9
647	5
648	6
649	2
650	3
651	4
652	8
653	2
654	3
655	7
656	2
657	8
658	6
659	8
660	6
661	5
662	7
663	5
664	5
665	9
666	9
667	6
668	7
669	3
670	2
671	2
672	4
673	4
674	1
675	1
676	2
677	8
678	1
679	3
680	2
681	9
682	4
683	9
684	3
685	9
686	8
687	6
688	2
689	2
690	2
691	2
692	5
693	1
694	6
695	1
696	3
697	6
698	6
699	3
700	4
701	3
702	8
703	5
704	9
705	9
706	5
707	8
708	4
709	6
710	2
711	3
712	2
713	1
714	9
715	5
716	2
717	5
718	3
719	3
720	9
721	5
722	6
723	2
724	7
725	8
726	9
727	6
728	4
729	8
730	5
731	4
732	6
733	8
734	8
735	7
736	4
737	2
738	1
739	3
740	3
741	4
742	1
743	3
744	1
745	1
746	8
747	7
748	1
749	8
750	6
751	5
752	5
753	3
754	2
755	2
756	7
757	3
758	1
759	8
760	5
761	9
762	4
763	8
764	9
765	1
766	9
767	1
768	1
769	3
770	9
771	6
772	4
773	9
774	1
775	9
776	4
777	4
778	8
779	8
780	6
781	9
782	2
783	5
784	4
785	7
786	4
787	4
788	7
789	2
790	2
791	9
792	9
793	5
794	8
795	1
796	9
797	9
798	4
799	2
800	8
801	6
802	2
803	6
804	2
805	2
806	5
807	6
808	7
809	6
810	8
811	1
812	8
813	5
814	4
815	5
816	5
817	5
818	9
819	7
820	3
821	6
822	5
823	1
824	4
825	5
826	1
827	1
828	5
829	5
830	3
831	2
832	5
833	3
834	7
835	9
836	6
837	9
838	9
839	8
840	2
841	2
842	7
843	6
844	9
845	4
846	2
847	7
848	1
849	1
850	9
851	8
852	3
853	4
854	6
855	9
856	8
857	8
858	5
859	5
860	6
861	2
862	5
863	8
864	5
865	6
866	4
867	1
868	4
869	1
870	1
871	4
872	6
873	8
874	1
875	6
876	1
877	4
878	6
879	7
880	7
881	3
882	9
883	8
884	1
885	3
886	3
887	9
888	4
889	5
890	9
891	8
892	1
893	1
894	2
895	2
896	8
897	3
898	3
899	9
900	4
901	7
902	8
903	3
904	5
905	4
906	7
907	7
908	9
909	5
910	3
911	1
912	6
913	9
914	9
915	6
916	1
917	4
918	1
919	4
920	9
921	6
922	1
923	7
924	8
925	6
926	3
927	4
928	9
929	5
930	5
931	6
932	3
933	5
934	2
935	5
936	3
937	2
938	4
939	9
940	1
941	9
942	2
943	7
944	8
945	2
946	1
947	9
948	4
949	3
950	6
951	3
952	3
953	7
954	4
955	8
956	1
957	7
958	2
959	4
960	6
961	6
962	1
963	8
964	6
965	7
966	4
967	7
968	9
969	2
970	1
971	9
972	6
973	5
974	3
975	5
976	8
977	1
978	8
979	8
980	8
981	6
982	1
983	5
984	8
985	5
986	6
987	9
988	1
989	2
990	2
991	3
992	7
993	1
994	6
995	3
996	5
997	6
998	9
999	5
1000	2
1001	4
DEPOT_SECTION
1
-1
EOF
