NAME : n1001-0037
COMMENT : "Generated by pyvrp_manuel (VRPL)"
TYPE : VRPL
DIMENSION : 1001
EDGE_WEIGHT_TYPE : EUC_2D
CAPACITY : 150
VEHICLES : 1000
DISTANCE : 3000
NODE_COORD_SECTION
1	830	170
2	926	779
3	203	305
4	691	725
5	487	704
6	746	72
7	124	160
8	328	328
9	346	830
10	466	70
11	497	644
12	325	863
13	209	190
14	664	670
15	107	753
16	254	817
17	387	222
18	819	579
19	956	983
20	404	777
21	63	605
22	750	409
23	999	526
24	186	826
25	543	79
26	88	114
27	940	438
28	191	637
29	959	218
30	1	905
31	54	744
32	489	851
33	633	128
34	190	447
35	232	719
36	671	246
37	20	523
38	742	940
39	674	714
40	73	593
41	22	665
42	830	405
43	831	630
44	726	355
45	555	712
46	757	173
47	251	479
48	43	699
49	104	306
50	492	59
51	359	964
52	121	904
53	250	542
54	412	311
55	202	181
56	222	839
57	878	514
58	423	118
59	858	664
60	507	952
61	868	902
62	393	612
63	614	371
64	347	554
65	9	851
66	432	630
67	808	100
68	144	364
69	232	160
70	276	79
71	606	62
72	966	131
73	484	384
74	551	244
75	176	376
76	886	759
77	35	717
78	659	793
79	784	558
80	334	780
81	86	359
82	191	681
83	804	25
84	803	818
85	418	464
86	196	32
87	667	821
88	437	40
89	619	206
90	503	507
91	442	327
92	130	952
93	202	803
94	345	564
95	852	44
96	841	356
97	459	940
98	393	390
99	71	359
100	577	459
101	681	231
102	67	25
103	988	907
104	405	212
105	946	869
106	606	311
107	128	516
108	69	745
109	943	552
110	523	543
111	707	986
112	124	288
113	276	823
114	383	169
115	755	31
116	888	642
117	149	696
118	412	579
119	437	563
120	178	393
121	216	350
122	847	363
123	724	413
124	445	655
125	830	258
126	584	370
127	850	66
128	484	588
129	478	647
130	518	416
131	178	73
132	524	302
133	785	1000
134	966	375
135	594	555
136	769	982
137	718	537
138	923	730
139	32	836
140	852	489
141	707	732
142	986	266
143	717	900
144	995	866
145	261	255
146	166	195
147	638	750
148	516	953
149	328	814
150	457	694
151	544	185
152	971	943
153	23	118
154	538	452
155	529	750
156	559	71
157	336	941
158	724	138
159	518	299
160	139	266
161	21	717
162	284	787
163	334	106
164	588	324
165	175	735
166	435	790
167	824	253
168	381	172
169	733	37
170	919	240
171	97	531
172	916	292
173	728	669
174	645	885
175	832	967
176	317	286
177	532	294
178	3	742
179	370	441
180	627	654
181	716	983
182	873	255
183	948	593
184	492	743
185	792	818
186	173	369
187	582	964
188	951	419
189	658	618
190	584	856
191	856	956
192	29	622
193	310	193
194	561	332
195	514	314
196	541	913
197	854	541
198	586	52
199	739	123
200	410	231
201	633	69
202	687	146
203	545	697
204	808	564
205	788	159
206	522	237
207	808	978
208	839	978
209	63	502
210	751	508
211	228	189
212	342	640
213	956	722
214	539	186
215	808	31
216	70	535
217	879	557
218	540	981
219	108	558
220	520	118
221	635	110
222	651	723
223	703	324
224	430	18
225	448	59
226	43	267
227	982	867
228	434	573
229	287	258
230	356	327
231	748	122
232	519	401
233	616	329
234	274	765
235	299	940
236	427	638
237	85	815
238	370	283
239	555	810
240	503	369
241	550	731
242	349	224
243	804	481
244	34	599
245	424	405
246	841	748
247	672	130
248	27	540
249	728	472
250	951	449
251	875	610
252	692	272
253	496	638
254	402	702
255	179	182
256	578	682
257	867	724
258	200	529
259	579	565
260	945	398
261	856	414
262	969	594
263	315	462
264	502	458
265	702	80
266	27	329
267	827	569
268	27	292
269	370	616
270	764	558
271	352	479
272	375	774
273	2	940
274	606	65
275	404	917
276	750	56
277	620	535
278	892	205
279	880	181
280	447	843
281	200	842
282	849	111
283	150	577
284	965	618
285	918	658
286	116	34
287	987	603
288	56	885
289	202	897
290	801	832
291	272	431
292	157	240
293	297	319
294	187	332
295	654	406
296	77	310
297	413	317
298	674	976
299	404	154
300	772	172
301	879	257
302	253	870
303	905	208
304	969	902
305	564	865
306	599	682
307	51	431
308	185	230
309	872	50
310	402	299
311	941	438
312	276	171
313	273	684
314	156	73
315	178	695
316	571	911
317	937	679
318	231	680
319	153	151
320	352	861
321	45	229
322	831	306
323	981	871
324	14	17
325	562	601
326	746	673
327	532	230
328	350	579
329	767	293
330	391	34
331	932	520
332	455	13
333	919	565
334	157	516
335	847	486
336	537	270
337	622	681
338	757	177
339	6	294
340	711	972
341	559	224
342	571	624
343	83	275
344	738	219
345	344	872
346	176	699
347	347	657
348	631	533
349	599	176
350	564	899
351	757	612
352	708	90
353	872	728
354	851	658
355	681	616
356	580	851
357	876	724
358	597	878
359	361	842
360	730	949
361	207	439
362	442	356
363	950	724
364	608	326
365	6	901
366	856	982
367	388	838
368	711	314
369	573	375
370	483	113
371	32	762
372	732	813
373	182	284
374	447	552
375	956	870
376	824	675
377	419	250
378	468	177
379	996	919
380	237	308
381	932	893
382	490	803
383	689	95
384	216	933
385	746	305
386	829	498
387	777	12
388	819	846
389	299	901
390	189	803
391	987	787
392	623	495
393	891	988
394	365	462
395	29	501
396	976	129
397	630	432
398	219	129
399	376	397
400	203	361
401	216	312
402	862	816
403	977	561
404	9	3
405	353	691
406	902	544
407	536	828
408	688	960
409	379	636
410	846	717
411	495	444
412	86	907
413	769	58
414	944	547
415	685	313
416	967	938
417	72	557
418	953	307
419	402	186
420	180	85
421	548	712
422	825	893
423	429	167
424	431	475
425	266	242
426	555	606
427	605	479
428	332	530
429	360	711
430	746	953
431	132	735
432	320	667
433	56	447
434	542	749
435	218	972
436	984	802
437	717	772
438	241	545
439	964	474
440	581	51
441	865	54
442	87	576
443	796	274
444	343	2
445	397	862
446	144	162
447	734	590
448	466	193
449	613	460
450	445	237
451	479	872
452	987	65
453	251	768
454	140	717
455	979	259
456	396	537
457	318	715
458	962	442
459	989	447
460	897	450
461	315	833
462	725	964
463	870	866
464	79	357
465	51	398
466	930	839
467	975	395
468	705	329
469	2	867
470	273	77
471	322	102
472	178	784
473	154	145
474	903	565
475	565	128
476	264	19
477	479	623
478	79	223
479	976	538
480	96	134
481	406	53
482	945	798
483	755	855
484	626	886
485	201	653
486	553	480
487	585	744
488	924	954
489	460	301
490	192	942
491	950	797
492	527	739
493	977	799
494	813	728
495	579	377
496	291	468
497	819	289
498	776	12
499	478	13
500	21	562
501	25	544
502	978	846
503	895	776
504	725	672
505	422	472
506	747	159
507	432	338
508	530	946
509	813	659
510	498	71
511	301	866
512	221	614
513	100	931
514	323	481
515	63	176
516	669	217
517	803	658
518	35	563
519	773	899
520	561	824
521	3	644
522	324	211
523	476	503
524	191	475
525	781	423
526	784	263
527	280	277
528	507	255
529	242	607
530	20	837
531	885	563
532	30	34
533	887	509
534	195	474
535	487	214
536	775	329
537	891	170
538	274	5
539	548	688
540	812	965
541	622	977
542	608	134
543	231	400
544	177	430
545	979	200
546	465	70
547	111	828
548	875	94
549	164	186
550	667	297
551	579	254
552	84	2
553	763	40
554	950	14
555	822	836
556	101	837
557	675	518
558	120	774
559	935	131
560	696	213
561	146	465
562	282	948
563	256	476
564	871	124
565	664	770
566	56	20
567	82	429
568	365	318
569	671	941
570	958	399
571	307	641
572	514	874
573	302	839
574	510	560
575	620	80
576	770	742
577	810	539
578	717	99
579	440	708
580	643	971
581	776	800
582	818	601
583	588	894
584	689	170
585	977	527
586	611	922
587	581	2
588	857	910
589	547	481
590	686	850
591	9	600
592	324	587
593	101	760
594	667	23
595	383	426
596	632	564
597	427	648
598	392	727
599	997	143
600	544	306
601	307	684
602	626	44
603	149	847
604	829	394
605	691	998
606	796	245
607	841	509
608	787	603
609	630	855
610	610	334
611	632	269
612	614	974
613	95	247
614	215	394
615	198	852
616	473	809
617	719	266
618	166	876
619	366	440
620	149	898
621	159	639
622	661	798
623	185	85
624	87	312
625	119	946
626	373	287
627	387	624
628	627	84
629	126	185
630	475	696
631	600	935
632	127	371
633	142	625
634	130	752
635	926	729
636	75	823
637	799	955
638	633	16
639	113	189
640	641	775
641	252	569
642	932	943
643	717	558
644	939	447
645	828	333
646	408	343
647	556	211
648	396	304
649	962	153
650	348	489
651	985	138
652	245	831
653	162	456
654	849	380
655	666	875
656	113	290
657	694	78
658	971	796
659	628	113
660	217	157
661	776	393
662	282	862
663	913	921
664	808	659
665	417	796
666	150	365
667	890	491
668	663	373
669	525	560
670	768	897
671	501	925
672	853	630
673	686	108
674	24	670
675	906	138
676	221	491
677	138	223
678	750	861
679	839	500
680	326	742
681	259	286
682	469	678
683	436	629
684	123	743
685	934	262
686	735	46
687	656	410
688	253	382
689	554	451
690	619	903
691	267	338
692	700	73
693	411	816
694	515	821
695	303	805
696	166	442
697	388	942
698	532	202
699	139	180
700	393	3
701	596	527
702	494	465
703	973	233
704	888	991
705	630	997
706	323	954
707	146	997
708	213	730
709	958	530
710	803	40
711	25	427
712	306	516
713	600	89
714	400	200
715	837	426
716	597	588
717	61	124
718	550	820
719	949	113
720	100	169
721	334	313
722	22	836
723	460	880
724	68	141
725	710	42
726	38	568
727	938	588
728	473	195
729	729	100
730	455	984
731	323	202
732	801	348
733	401	313
734	215	621
735	567	325
736	64	913
737	901	424
738	729	407
739	868	223
740	402	990
741	88	471
742	693	987
743	452	253
744	701	245
745	661	949
746	838	815
747	356	156
748	201	218
749	857	808
750	216	1000
751	931	481
752	640	659
753	955	874
754	431	738
755	945	455
756	591	731
757	248	957
758	691	57
759	632	159
760	571	949
761	567	796
762	642	990
763	429	331
764	490	918
765	944	561
766	1	194
767	411	570
768	98	185
769	939	574
770	937	292
771	283	159
772	820	537
773	275	860
774	535	50
775	993	44
776	438	230
777	838	452
778	565	925
779	690	321
780	838	173
781	546	775
782	89	600
783	175	459
784	562	630
785	866	612
786	993	145
787	384	54
788	894	200
789	616	840
790	17	730
791	898	527
792	908	426
793	642	14
794	314	251
795	30	510
796	802	251
797	2	206
798	147	632
799	667	125
800	555	350
801	861	745
802	562	745
803	144	491
804	466	950
805	358	317
806	299	494
807	168	587
808	273	456
809	100	832
810	215	561
811	674	610
812	57	592
813	617	619
814	630	42
815	388	924
816	398	144
817	850	849
818	189	995
819	635	714
820	312	144
821	679	372
822	627	965
823	869	586
824	669	966
825	151	167
826	849	253
827	87	895
828	527	56
829	274	74
830	533	460
831	944	954
832	232	338
833	510	462
834	454	636
835	432	94
836	264	141
837	364	75
838	143	604
839	500	315
840	70	442
841	694	894
842	852	563
843	97	997
844	829	866
845	671	140
846	492	306
847	97	291
848	376	121
849	743	870
850	300	617
851	626	404
852	270	769
853	823	932
854	770	509
855	130	338
856	882	404
857	383	818
858	125	121
859	718	774
860	261	127
861	675	316
862	839	646
863	251	717
864	144	157
865	999	673
866	171	316
867	328	529
868	409	637
869	907	504
870	372	861
871	451	127
872	106	186
873	355	364
874	653	180
875	661	256
876	819	298
877	169	746
878	772	261
879	8	181
880	634	251
881	637	443
882	406	705
883	307	535
884	808	552
885	670	121
886	969	867
887	935	434
888	168	741
889	839	889
890	904	957
891	906	417
892	287	976
893	323	101
894	70	136
895	35	435
896	94	426
897	432	726
898	564	363
899	172	818
900	399	465
901	494	533
902	694	958
903	7	770
904	626	875
905	309	965
906	519	52
907	437	847
908	774	84
909	91	47
910	220	289
911	353	69
912	553	52
913	845	21
914	71	963
915	160	955
916	830	839
917	88	775
918	287	495
919	586	423
920	178	183
921	66	832
922	255	192
923	218	211
924	244	365
925	582	762
926	262	572
927	999	239
928	235	591
929	984	918
930	483	25
931	240	253
932	122	313
933	985	731
934	663	194
935	676	54
936	851	617
937	281	54
938	44	579
939	114	552
940	193	684
941	582	643
942	947	127
943	139	273
944	744	580
945	596	359
946	378	158
947	289	796
948	437	600
949	259	200
950	662	948
951	477	565
952	937	137
953	39	827
954	6	750
955	605	180
956	496	650
957	78	139
958	407	205
959	738	554
960	114	212
961	609	26
962	357	169
963	100	972
964	546	702
965	844	414
966	832	69
967	755	683
968	851	621
969	976	945
970	538	56
971	959	743
972	671	806
973	876	581
974	719	822
975	240	982
976	719	634
977	830	215
978	745	839
979	135	132
980	191	733
981	389	920
982	181	569
983	678	315
984	325	148
985	613	914
986	932	799
987	334	531
988	849	354
989	370	592
990	884	559
991	561	335
992	211	621
993	437	959
994	920	394
995	703	448
996	186	477
997	633	651
998	514	142
999	253	369
1000	404	623
1001	520	395
DEMAND_SECTION
1	0
2	6
3	2
4	9
5	3
6	3
7	5
8	5
9	9
10	6
11	2
12	9
13	4
14	8
15	6
16	3
17	8
18	3
19	6
20	9
21	2
22	1
23	1
24	1
25	1
26	5
27	3
28	3
29	3
30	3
31	8
32	9
33	3
34	8
35	8
36	2
37	4
38	7
39	5
40	5
41	9
42	7
43	2
44	5
45	9
46	5
47	7
48	3
49	9
50	2
51	4
52	7
53	5
54	8
55	5
56	7
57	1
58	2
59	9
60	4
61	2
62	5
63	9
64	8
65	9
66	2
67	2
68	4
69	9
70	3
71	3
72	2
73	8
74	3
75	4
76	3
77	5
78	6
79	8
80	6
81	6
82	9
83	9
84	6
85	9
86	3
87	7
88	8
89	8
90	5
91	5
92	7
93	5
94	7
95	1
96	5
97	9
98	2
99	4
100	6
101	4
102	5
103	8
104	1
105	2
106	4
107	6
108	2
109	7
110	4
111	5
112	2
113	8
114	2
115	7
116	6
117	4
118	3
119	8
120	3
121	1
122	1
123	2
124	3
125	6
126	9
127	3
128	2
129	3
130	9
131	9
132	9
133	4
134	4
135	8
136	7
137	3
138	9
139	3
140	1
141	7
142	9
143	3
144	2
145	6
146	2
147	8
148	1
149	3
150	7
151	6
152	9
153	4
154	5
155	1
156	4
157	1
158	6
159	5
160	3
161	9
162	3
163	1
164	9
165	1
166	6
167	5
168	8
169	6
170	9
171	5
172	8
173	4
174	7
175	7
176	8
177	7
178	7
179	2
180	8
181	8
182	7
183	6
184	2
185	1
186	8
187	8
188	1
189	7
190	5
191	9
192	4
193	3
194	4
195	6
196	1
197	7
198	5
199	2
200	9
201	5
202	3
203	3
204	5
205	2
206	8
207	6
208	1
209	4
210	5
211	5
212	7
213	9
214	2
215	6
216	2
217	4
218	6
219	8
220	1
221	3
222	6
223	8
224	4
225	4
226	8
227	8
228	8
229	5
230	4
231	4
232	9
233	4
234	9
235	4
236	4
237	5
238	6
239	6
240	7
241	7
242	2
243	4
244	2
245	8
246	7
247	6
248	7
249	3
250	6
251	7
252	6
253	8
254	9
255	2
256	8
257	9
258	3
259	8
260	8
261	9
262	3
263	7
264	7
265	8
266	4
267	4
268	3
269	5
270	7
271	4
272	3
273	1
274	3
275	3
276	9
277	8
278	4
279	9
280	2
281	1
282	4
283	4
284	4
285	4
286	2
287	7
288	6
289	8
290	4
291	5
292	2
293	3
294	8
295	7
296	4
297	4
298	9
299	3
300	3
301	7
302	2
303	7
304	3
305	2
306	7
307	2
308	7
309	1
310	6
311	3
312	7
313	7
314	9
315	5
316	3
317	2
318	8
319	1
320	7
321	1
322	6
323	5
324	4
325	6
326	8
327	1
328	6
329	6
330	3
331	5
332	3
333	4
334	6
335	1
336	1
337	5
338	3
339	4
340	9
341	4
342	8
343	7
344	8
345	6
346	3
347	2
348	3
349	9
350	6
351	6
352	4
353	7
354	7
355	5
356	8
357	6
358	9
359	2
360	4
361	1
362	8
363	3
364	9
365	2
366	4
367	8
368	2
369	9
370	3
371	4
372	8
373	7
374	8
375	1
376	3
377	7
378	5
379	3
380	8
381	3
382	7
383	2
384	9
385	5
386	9
387	4
388	4
389	3
390	5
391	4
392	8
393	2
394	1
395	7
396	2
397	3
398	9
399	5
400	5
401	6
402	8
403	1
404	6
405	3
406	9
407	5
408	2
409	8
410	9
411	2
412	3
413	2
414	8
415	2
416	6
417	2
418	4
419	8
420	4
421	1
422	8
423	6
424	9
425	1
426	2
427	2
428	1
429	3
430	8
431	1
432	5
433	1
434	4
435	1
436	2
437	4
438	8
439	4
440	9
441	2
442	8
443	7
444	7
445	8
446	5
447	1
448	7
449	2
450	9
451	8
452	8
453	1
454	5
455	5
456	7
457	3
458	3
459	8
460	8
461	1
462	5
463	6
464	6
465	3
466	6
467	4
468	3
469	8
470	5
471	1
472	7
473	8
474	5
475	1
476	1
477	1
478	3
479	9
480	3
481	7
482	1
483	3
484	7
485	8
486	7
487	2
488	3
489	3
490	5
491	5
492	8
493	6
494	9
495	3
496	3
497	2
498	5
499	5
500	6
501	4
502	6
503	4
504	1
505	7
506	2
507	7
508	5
509	8
510	3
511	7
512	4
513	3
514	1
515	1
516	1
517	4
518	8
519	9
520	1
521	6
522	3
523	8
524	2
525	7
526	9
527	5
528	3
529	5
530	9
531	2
532	7
533	3
534	8
535	2
536	6
537	5
538	7
539	8
540	4
541	8
542	1
543	6
544	1
545	3
546	2
547	5
548	3
549	3
550	7
551	4
552	9
553	2
554	9
555	4
556	7
557	7
558	1
559	9
560	7
561	5
562	4
563	2
564	7
565	8
566	5
567	1
568	5
569	3
570	1
571	7
572	5
573	9
574	5
575	8
576	8
577	9
578	3
579	4
580	7
581	4
582	3
583	2
584	2
585	3
586	9
587	3
588	4
589	1
590	5
591	5
592	1
593	4
594	6
595	2
596	1
597	7
598	8
599	3
600	8
601	6
602	1
603	8
604	2
605	8
606	7
607	9
608	1
609	1
610	3
611	5
612	3
613	8
614	6
615	7
616	4
617	6
618	3
619	1
620	9
621	4
622	9
623	8
624	1
625	3
626	2
627	8
628	8
629	6
630	6
631	8
632	4
633	7
634	4
635	5
636	2
637	7
638	2
639	5
640	8
641	1
642	2
643	2
644	2
645	1
646	6
647	7
648	4
649	8
650	7
651	3
652	1
653	6
654	5
655	8
656	5
657	8
658	3
659	2
660	9
661	7
662	9
663	4
664	2
665	2
666	4
667	6
668	7
669	6
670	4
671	4
672	1
673	2
674	1
675	4
676	6
677	9
678	8
679	7
680	5
681	9
682	9
683	1
684	4
685	3
686	8
687	3
688	3
689	3
690	7
691	6
692	7
693	3
694	7
695	6
696	8
697	7
698	6
699	7
700	5
701	3
702	5
703	2
704	9
705	7
706	4
707	9
708	1
709	8
710	2
711	4
712	4
713	2
714	6
715	5
716	9
717	7
718	9
719	5
720	3
721	6
722	2
723	2
724	6
725	3
726	9
727	7
728	4
729	7
730	3
731	9
732	7
733	7
734	9
735	1
736	2
737	1
738	3
739	8
740	2
741	1
742	2
743	9
744	2
745	9
746	3
747	6
748	1
749	2
750	3
751	1
752	3
753	7
754	5
755	3
756	3
757	1
758	3
759	2
760	3
761	3
762	1
763	9
764	1
765	4
766	6
767	7
768	2
769	9
770	1
771	3
772	3
773	4
774	1
775	8
776	2
777	3
778	1
779	7
780	7
781	8
782	9
783	5
784	1
785	2
786	8
787	7
788	6
789	6
790	2
791	7
792	8
793	2
794	3
795	1
796	5
797	2
798	7
799	3
800	7
801	1
802	4
803	2
804	6
805	3
806	5
807	1
808	7
809	1
810	3
811	8
812	5
813	2
814	8
815	9
816	5
817	4
818	7
819	9
820	8
821	7
822	6
823	6
824	3
825	9
826	4
827	2
828	8
829	5
830	8
831	9
832	4
833	4
834	5
835	1
836	7
837	9
838	8
839	8
840	4
841	1
842	1
843	3
844	2
845	9
846	2
847	8
848	3
849	9
850	7
851	8
852	9
853	8
854	3
855	9
856	8
857	9
858	2
859	9
860	8
861	6
862	6
863	9
864	2
865	6
866	2
867	9
868	2
869	3
870	7
871	4
872	8
873	7
874	6
875	7
876	6
877	4
878	3
879	7
880	3
881	2
882	5
883	4
884	3
885	2
886	4
887	5
888	4
889	4
890	4
891	7
892	9
893	5
894	9
895	3
896	4
897	6
898	1
899	1
900	7
901	5
902	6
903	7
904	1
905	3
906	9
907	4
908	8
909	4
910	3
911	8
912	1
913	2
914	6
915	5
916	4
917	2
918	9
919	1
920	8
921	3
922	9
923	7
924	9
925	3
926	5
927	1
928	8
929	7
930	7
931	8
932	6
933	7
934	2
935	8
936	1
937	1
938	9
939	3
940	8
941	4
942	1
943	4
944	3
945	7
946	1
947	6
948	9
949	7
950	8
951	4
952	8
953	7
954	8
955	4
956	8
957	5
958	3
959	4
960	8
961	6
962	4
963	3
964	4
965	8
966	4
967	1
968	5
969	4
970	1
971	2
972	6
973	1
974	7
975	6
976	7
977	5
978	6
979	4
980	6
981	3
982	5
983	8
984	8
985	2
986	7
987	4
988	9
989	3
990	6
991	4
992	9
993	6
994	2
995	2
996	7
997	4
998	6
999	7
1000	7
1001	8
DEPOT_SECTION
1
-1
EOF
