NAME : n1001-0013
COMMENT : "Generated by pyvrp_manuel (VRPL)"
TYPE : VRPL
DIMENSION : 1001
EDGE_WEIGHT_TYPE : EUC_2D
CAPACITY : 150
VEHICLES : 1000
DISTANCE : 3000
NODE_COORD_SECTION
1	223	832
2	1000	506
3	959	554
4	168	86
5	803	963
6	155	869
7	60	621
8	106	539
9	709	320
10	356	95
11	997	798
12	479	206
13	12	809
14	718	288
15	640	854
16	713	958
17	128	260
18	398	467
19	167	161
20	556	121
21	901	48
22	438	150
23	850	838
24	116	387
25	128	94
26	861	994
27	735	449
28	167	654
29	435	120
30	119	242
31	363	911
32	505	254
33	188	961
34	669	683
35	51	604
36	794	211
37	554	667
38	445	826
39	860	200
40	569	402
41	866	367
42	652	306
43	659	142
44	944	951
45	234	266
46	77	522
47	183	499
48	69	548
49	382	1
50	607	869
51	276	971
52	482	854
53	916	21
54	210	664
55	228	56
56	987	375
57	938	999
58	243	115
59	399	439
60	800	644
61	601	244
62	488	303
63	41	574
64	954	478
65	150	84
66	14	25
67	886	584
68	403	502
69	584	142
70	446	856
71	835	12
72	698	154
73	717	745
74	481	149
75	796	788
76	355	288
77	183	207
78	118	528
79	217	364
80	541	324
81	443	950
82	985	109
83	189	127
84	96	856
85	775	386
86	805	455
87	635	24
88	876	927
89	797	1
90	66	693
91	836	665
92	17	884
93	433	917
94	53	873
95	158	922
96	127	716
97	818	606
98	201	414
99	848	878
100	766	3
101	420	808
102	332	787
103	622	251
104	547	578
105	99	472
106	480	639
107	45	418
108	89	36
109	896	410
110	366	289
111	641	297
112	410	467
113	589	376
114	297	446
115	289	437
116	217	109
117	479	607
118	740	472
119	411	709
120	455	464
121	704	4
122	332	911
123	507	703
124	617	95
125	756	911
126	723	667
127	404	536
128	213	439
129	772	529
130	291	338
131	955	870
132	431	482
133	438	567
134	366	27
135	929	586
136	479	729
137	280	809
138	296	908
139	214	469
140	11	855
141	701	449
142	860	932
143	138	407
144	155	416
145	667	31
146	416	738
147	225	97
148	890	871
149	773	273
150	181	146
151	491	156
152	19	144
153	64	858
154	628	507
155	101	49
156	510	810
157	95	75
158	826	107
159	401	871
160	841	611
161	269	48
162	699	699
163	423	103
164	697	989
165	830	331
166	27	991
167	423	108
168	659	506
169	762	9
170	721	462
171	503	106
172	306	268
173	996	802
174	936	961
175	675	752
176	962	967
177	522	78
178	672	32
179	634	45
180	577	606
181	110	483
182	55	840
183	43	623
184	969	76
185	949	263
186	189	775
187	82	855
188	400	130
189	204	829
190	128	197
191	415	856
192	998	916
193	685	749
194	743	162
195	898	14
196	670	782
197	762	461
198	301	903
199	875	419
200	282	886
201	988	948
202	789	914
203	664	454
204	346	767
205	586	123
206	420	715
207	456	39
208	249	253
209	639	8
210	4	431
211	304	340
212	592	341
213	556	408
214	715	952
215	862	769
216	967	731
217	327	226
218	475	459
219	898	206
220	113	951
221	155	23
222	69	132
223	90	736
224	284	194
225	129	288
226	273	234
227	147	651
228	457	328
229	393	131
230	393	250
231	676	958
232	527	562
233	67	789
234	518	612
235	160	316
236	251	797
237	94	756
238	332	809
239	610	166
240	567	488
241	216	440
242	570	506
243	498	751
244	660	166
245	188	328
246	460	531
247	478	14
248	276	108
249	491	270
250	772	63
251	187	29
252	177	335
253	442	65
254	313	678
255	178	594
256	503	862
257	188	349
258	862	355
259	405	109
260	848	805
261	11	215
262	661	815
263	171	788
264	510	425
265	150	498
266	786	466
267	95	699
268	507	622
269	142	356
270	993	995
271	747	453
272	287	41
273	840	615
274	690	877
275	962	615
276	515	442
277	612	611
278	962	362
279	276	375
280	850	362
281	486	378
282	289	929
283	178	979
284	695	942
285	74	875
286	401	356
287	844	946
288	499	476
289	522	500
290	393	766
291	692	742
292	336	475
293	575	776
294	809	371
295	92	946
296	559	603
297	777	136
298	212	577
299	352	625
300	435	86
301	121	841
302	326	148
303	68	314
304	31	963
305	565	406
306	499	333
307	422	71
308	717	266
309	829	805
310	67	372
311	874	425
312	887	975
313	349	879
314	152	689
315	748	418
316	732	416
317	543	804
318	996	900
319	88	108
320	101	457
321	243	327
322	917	53
323	260	795
324	49	367
325	287	690
326	11	655
327	882	903
328	377	880
329	82	37
330	526	107
331	277	641
332	692	270
333	449	807
334	283	4
335	686	712
336	20	800
337	642	491
338	649	858
339	226	735
340	451	312
341	46	596
342	154	819
343	864	693
344	632	604
345	392	266
346	154	507
347	114	787
348	187	415
349	189	712
350	27	550
351	977	681
352	305	252
353	185	585
354	955	46
355	176	839
356	568	623
357	870	220
358	121	412
359	316	631
360	718	374
361	435	84
362	414	102
363	100	415
364	389	536
365	576	726
366	60	234
367	547	979
368	287	664
369	776	542
370	379	102
371	881	800
372	201	282
373	812	320
374	113	8
375	896	334
376	234	280
377	641	272
378	882	107
379	422	798
380	255	508
381	712	518
382	876	278
383	899	29
384	93	307
385	300	667
386	604	904
387	825	255
388	24	159
389	743	180
390	86	798
391	437	863
392	856	878
393	668	942
394	840	10
395	630	278
396	447	186
397	370	412
398	282	616
399	83	900
400	708	165
401	288	786
402	170	382
403	792	817
404	614	848
405	540	159
406	31	55
407	352	441
408	790	640
409	650	678
410	271	687
411	587	86
412	580	200
413	390	901
414	330	232
415	916	40
416	296	500
417	505	39
418	889	112
419	719	652
420	85	165
421	735	804
422	348	339
423	55	261
424	285	85
425	415	60
426	543	596
427	621	180
428	757	62
429	659	721
430	269	976
431	978	4
432	200	932
433	155	724
434	277	426
435	839	180
436	857	653
437	572	767
438	667	965
439	332	897
440	7	51
441	391	735
442	266	710
443	813	828
444	82	977
445	599	339
446	761	205
447	353	345
448	540	723
449	49	598
450	108	848
451	892	998
452	621	151
453	68	879
454	736	114
455	231	215
456	509	194
457	492	819
458	405	238
459	128	82
460	520	8
461	494	428
462	924	190
463	225	439
464	456	416
465	648	637
466	229	56
467	358	822
468	315	445
469	764	243
470	944	301
471	27	835
472	34	53
473	726	414
474	387	313
475	153	916
476	723	361
477	985	651
478	724	747
479	300	836
480	719	154
481	441	656
482	186	958
483	559	319
484	246	701
485	818	30
486	739	593
487	809	811
488	611	146
489	237	570
490	642	836
491	892	432
492	181	538
493	291	174
494	820	3
495	244	546
496	592	241
497	7	829
498	375	679
499	770	59
500	44	41
501	507	266
502	848	412
503	763	786
504	943	256
505	471	497
506	750	324
507	462	248
508	167	174
509	977	694
510	130	803
511	775	715
512	829	326
513	801	440
514	883	846
515	755	737
516	502	133
517	443	70
518	370	313
519	207	864
520	966	470
521	921	212
522	460	382
523	476	689
524	766	630
525	718	264
526	23	691
527	829	234
528	699	549
529	959	637
530	489	479
531	747	444
532	412	553
533	237	291
534	571	654
535	523	955
536	294	560
537	523	439
538	888	276
539	64	998
540	960	169
541	563	998
542	293	797
543	459	79
544	829	114
545	137	904
546	248	190
547	942	309
548	260	708
549	370	333
550	16	722
551	215	39
552	738	610
553	346	300
554	984	428
555	399	857
556	169	581
557	531	370
558	790	256
559	0	782
560	11	121
561	299	617
562	234	684
563	362	635
564	514	703
565	570	988
566	547	338
567	159	981
568	377	95
569	423	668
570	69	305
571	97	920
572	390	394
573	106	546
574	236	927
575	610	133
576	847	159
577	585	372
578	169	122
579	988	578
580	569	99
581	185	860
582	98	758
583	401	870
584	720	908
585	609	656
586	289	381
587	36	289
588	16	322
589	833	149
590	357	296
591	276	534
592	434	556
593	285	900
594	821	778
595	600	234
596	194	651
597	369	851
598	350	926
599	392	247
600	278	218
601	978	450
602	362	850
603	667	129
604	495	490
605	562	700
606	286	279
607	734	72
608	802	213
609	212	35
610	497	142
611	776	526
612	261	210
613	411	461
614	181	579
615	412	950
616	48	131
617	502	932
618	607	28
619	427	56
620	853	53
621	650	138
622	906	546
623	443	913
624	684	867
625	995	32
626	83	634
627	181	667
628	985	120
629	517	362
630	382	265
631	184	25
632	323	822
633	198	882
634	403	693
635	696	91
636	468	649
637	158	882
638	161	592
639	886	1000
640	895	810
641	725	516
642	325	181
643	403	115
644	475	137
645	344	202
646	655	629
647	200	906
648	389	640
649	656	810
650	34	728
651	763	191
652	978	385
653	726	190
654	234	390
655	467	119
656	667	477
657	458	214
658	964	409
659	536	508
660	707	735
661	446	775
662	879	560
663	187	623
664	622	367
665	101	170
666	2	781
667	614	919
668	806	290
669	381	804
670	368	36
671	312	858
672	830	144
673	613	411
674	645	609
675	306	972
676	997	140
677	857	900
678	335	709
679	49	888
680	918	146
681	397	37
682	435	851
683	716	674
684	706	802
685	860	296
686	12	521
687	189	468
688	3	172
689	389	493
690	208	816
691	174	952
692	530	969
693	41	805
694	757	929
695	212	810
696	78	581
697	621	154
698	738	636
699	93	338
700	342	247
701	882	563
702	900	797
703	228	391
704	408	715
705	916	781
706	335	187
707	490	657
708	596	240
709	861	779
710	880	219
711	190	654
712	166	340
713	200	80
714	492	791
715	765	75
716	885	456
717	164	971
718	254	275
719	942	736
720	804	91
721	513	807
722	194	158
723	686	581
724	401	308
725	604	5
726	259	980
727	913	94
728	343	877
729	210	967
730	72	181
731	734	480
732	146	43
733	134	932
734	792	322
735	999	27
736	366	848
737	368	439
738	459	608
739	676	261
740	211	248
741	123	695
742	753	830
743	846	903
744	544	706
745	472	504
746	54	846
747	153	857
748	886	722
749	402	640
750	41	661
751	730	918
752	463	259
753	498	996
754	413	681
755	638	651
756	364	661
757	755	975
758	682	800
759	985	812
760	470	985
761	262	93
762	182	530
763	831	669
764	808	252
765	425	310
766	462	68
767	329	475
768	340	762
769	33	394
770	409	947
771	252	150
772	104	187
773	293	407
774	351	145
775	75	421
776	222	462
777	226	703
778	706	952
779	852	471
780	17	734
781	895	213
782	298	838
783	78	215
784	312	673
785	220	662
786	410	363
787	7	840
788	525	986
789	863	816
790	489	132
791	143	635
792	286	854
793	632	769
794	203	385
795	320	491
796	430	938
797	354	527
798	171	798
799	717	115
800	734	879
801	973	612
802	312	782
803	374	314
804	913	524
805	403	342
806	856	951
807	698	751
808	601	712
809	458	304
810	84	140
811	165	297
812	54	216
813	923	477
814	497	368
815	685	959
816	543	906
817	426	754
818	980	63
819	970	933
820	275	138
821	678	585
822	600	106
823	173	917
824	249	310
825	388	463
826	35	518
827	81	484
828	147	76
829	922	509
830	789	395
831	466	920
832	527	929
833	894	461
834	726	9
835	49	639
836	567	250
837	516	496
838	825	752
839	628	827
840	388	334
841	463	485
842	497	312
843	129	193
844	54	867
845	345	181
846	155	618
847	244	493
848	539	491
849	452	152
850	857	897
851	500	644
852	709	69
853	939	456
854	667	448
855	339	23
856	892	219
857	37	837
858	523	34
859	443	538
860	120	364
861	11	648
862	158	493
863	1	690
864	44	701
865	645	790
866	545	639
867	35	183
868	854	618
869	691	66
870	260	907
871	807	786
872	979	847
873	409	11
874	891	88
875	990	3
876	901	206
877	12	965
878	297	988
879	542	395
880	408	631
881	443	20
882	976	688
883	266	845
884	145	808
885	791	236
886	104	241
887	814	966
888	934	166
889	28	381
890	217	299
891	478	619
892	759	510
893	967	324
894	17	79
895	806	690
896	316	114
897	426	647
898	377	995
899	668	333
900	439	108
901	424	100
902	257	126
903	17	778
904	829	939
905	934	90
906	152	33
907	18	291
908	210	550
909	538	801
910	702	883
911	272	610
912	603	368
913	514	564
914	780	448
915	401	781
916	967	520
917	637	659
918	881	640
919	267	483
920	134	289
921	343	4
922	394	688
923	532	499
924	916	34
925	257	921
926	410	639
927	329	740
928	321	391
929	846	431
930	166	721
931	629	722
932	982	799
933	123	909
934	967	712
935	241	134
936	514	380
937	443	854
938	938	911
939	397	900
940	415	717
941	712	41
942	414	913
943	468	603
944	748	139
945	492	805
946	783	331
947	589	789
948	567	565
949	966	358
950	417	715
951	87	646
952	807	193
953	307	473
954	885	409
955	683	303
956	393	747
957	447	837
958	871	363
959	766	734
960	7	318
961	796	578
962	216	186
963	500	430
964	675	138
965	391	129
966	548	180
967	112	103
968	245	770
969	434	940
970	665	504
971	988	654
972	545	180
973	937	760
974	683	911
975	33	234
976	636	256
977	545	736
978	838	314
979	283	396
980	196	650
981	846	903
982	628	586
983	305	805
984	554	497
985	841	316
986	482	904
987	412	67
988	40	140
989	131	911
990	656	919
991	256	273
992	61	87
993	444	183
994	869	873
995	990	297
996	766	690
997	853	29
998	43	128
999	376	944
1000	209	87
1001	559	192
DEMAND_SECTION
1	0
2	3
3	2
4	1
5	8
6	1
7	1
8	2
9	5
10	5
11	4
12	7
13	3
14	9
15	8
16	3
17	5
18	6
19	6
20	2
21	2
22	9
23	5
24	8
25	5
26	3
27	9
28	7
29	4
30	1
31	8
32	8
33	9
34	4
35	6
36	1
37	5
38	4
39	2
40	2
41	8
42	2
43	9
44	3
45	4
46	5
47	4
48	1
49	8
50	7
51	7
52	3
53	3
54	9
55	8
56	4
57	6
58	3
59	8
60	4
61	5
62	5
63	3
64	3
65	9
66	3
67	2
68	9
69	8
70	3
71	9
72	4
73	3
74	3
75	2
76	1
77	9
78	7
79	5
80	7
81	6
82	8
83	8
84	4
85	8
86	1
87	5
88	9
89	1
90	4
91	9
92	8
93	7
94	5
95	7
96	9
97	1
98	7
99	8
100	5
101	9
102	9
103	4
104	7
105	6
106	2
107	2
108	6
109	1
110	7
111	7
112	5
113	8
114	3
115	7
116	1
117	5
118	6
119	8
120	4
121	8
122	9
123	3
124	5
125	4
126	4
127	4
128	5
129	3
130	8
131	7
132	6
133	6
134	1
135	8
136	4
137	3
138	7
139	9
140	3
141	7
142	3
143	2
144	5
145	5
146	6
147	4
148	2
149	1
150	5
151	3
152	5
153	4
154	8
155	3
156	1
157	1
158	1
159	3
160	8
161	6
162	2
163	3
164	9
165	6
166	4
167	2
168	8
169	7
170	3
171	3
172	4
173	5
174	7
175	1
176	3
177	1
178	9
179	1
180	5
181	1
182	5
183	6
184	5
185	8
186	1
187	8
188	7
189	9
190	7
191	8
192	2
193	5
194	2
195	2
196	3
197	1
198	6
199	8
200	9
201	7
202	5
203	3
204	9
205	5
206	8
207	3
208	7
209	7
210	2
211	9
212	9
213	6
214	4
215	6
216	1
217	9
218	9
219	7
220	3
221	9
222	3
223	8
224	9
225	9
226	4
227	3
228	4
229	2
230	3
231	9
232	1
233	8
234	2
235	7
236	3
237	3
238	1
239	4
240	1
241	2
242	1
243	7
244	3
245	5
246	5
247	2
248	1
249	9
250	2
251	7
252	1
253	3
254	3
255	1
256	4
257	6
258	7
259	9
260	5
261	6
262	7
263	3
264	2
265	3
266	4
267	3
268	7
269	3
270	3
271	3
272	3
273	6
274	3
275	7
276	5
277	8
278	4
279	4
280	3
281	1
282	6
283	4
284	9
285	8
286	6
287	5
288	3
289	4
290	5
291	1
292	2
293	7
294	6
295	1
296	5
297	1
298	9
299	5
300	9
301	9
302	9
303	7
304	2
305	9
306	2
307	3
308	8
309	5
310	6
311	1
312	2
313	9
314	3
315	1
316	9
317	3
318	5
319	1
320	5
321	9
322	3
323	5
324	7
325	4
326	7
327	2
328	6
329	1
330	8
331	4
332	1
333	9
334	1
335	6
336	5
337	7
338	1
339	4
340	5
341	4
342	5
343	7
344	5
345	3
346	9
347	5
348	6
349	7
350	4
351	4
352	8
353	5
354	5
355	2
356	2
357	4
358	5
359	2
360	2
361	1
362	3
363	7
364	3
365	7
366	9
367	9
368	5
369	7
370	7
371	1
372	6
373	3
374	7
375	3
376	9
377	7
378	3
379	5
380	7
381	9
382	1
383	2
384	3
385	6
386	1
387	4
388	9
389	3
390	1
391	1
392	1
393	3
394	5
395	3
396	1
397	6
398	8
399	9
400	6
401	8
402	3
403	5
404	6
405	7
406	9
407	1
408	3
409	2
410	5
411	7
412	6
413	5
414	5
415	8
416	5
417	8
418	4
419	3
420	2
421	3
422	5
423	5
424	6
425	3
426	6
427	5
428	3
429	4
430	4
431	9
432	6
433	6
434	6
435	7
436	2
437	3
438	6
439	6
440	9
441	7
442	4
443	8
444	3
445	6
446	7
447	1
448	3
449	8
450	3
451	4
452	3
453	1
454	3
455	8
456	7
457	5
458	6
459	2
460	8
461	2
462	7
463	2
464	6
465	3
466	3
467	9
468	8
469	1
470	5
471	7
472	9
473	7
474	7
475	5
476	3
477	5
478	7
479	1
480	7
481	8
482	2
483	9
484	3
485	7
486	4
487	5
488	3
489	4
490	3
491	8
492	9
493	8
494	6
495	5
496	7
497	3
498	7
499	5
500	2
501	4
502	4
503	2
504	2
505	3
506	6
507	5
508	9
509	6
510	8
511	1
512	4
513	8
514	9
515	2
516	1
517	8
518	8
519	5
520	5
521	5
522	8
523	1
524	3
525	2
526	3
527	3
528	6
529	4
530	5
531	1
532	7
533	7
534	5
535	6
536	9
537	1
538	9
539	6
540	7
541	2
542	9
543	1
544	6
545	3
546	9
547	8
548	3
549	5
550	6
551	1
552	2
553	8
554	2
555	3
556	9
557	9
558	9
559	6
560	7
561	9
562	4
563	3
564	6
565	5
566	6
567	6
568	2
569	4
570	4
571	2
572	6
573	2
574	1
575	9
576	3
577	9
578	3
579	4
580	2
581	6
582	1
583	2
584	6
585	5
586	7
587	7
588	4
589	8
590	9
591	3
592	4
593	4
594	3
595	2
596	7
597	3
598	9
599	1
600	5
601	2
602	1
603	1
604	7
605	7
606	8
607	5
608	6
609	7
610	4
611	7
612	5
613	9
614	7
615	3
616	3
617	7
618	6
619	2
620	8
621	6
622	3
623	6
624	4
625	7
626	8
627	9
628	5
629	6
630	7
631	4
632	1
633	6
634	9
635	6
636	8
637	4
638	6
639	3
640	7
641	9
642	8
643	3
644	1
645	6
646	2
647	9
648	5
649	4
650	9
651	8
652	7
653	9
654	4
655	2
656	1
657	2
658	5
659	9
660	5
661	1
662	2
663	4
664	9
665	2
666	9
667	4
668	8
669	8
670	2
671	8
672	1
673	7
674	8
675	7
676	2
677	4
678	3
679	8
680	1
681	4
682	8
683	3
684	7
685	6
686	5
687	3
688	1
689	7
690	7
691	7
692	9
693	5
694	3
695	1
696	8
697	9
698	8
699	8
700	4
701	4
702	6
703	2
704	5
705	6
706	5
707	4
708	9
709	2
710	7
711	9
712	6
713	5
714	9
715	4
716	2
717	4
718	9
719	9
720	1
721	6
722	8
723	8
724	4
725	9
726	5
727	9
728	5
729	4
730	8
731	9
732	5
733	2
734	7
735	6
736	6
737	1
738	8
739	3
740	5
741	8
742	5
743	5
744	2
745	8
746	5
747	8
748	6
749	1
750	6
751	9
752	4
753	7
754	8
755	1
756	8
757	6
758	1
759	4
760	1
761	2
762	6
763	9
764	5
765	9
766	3
767	5
768	9
769	6
770	9
771	4
772	2
773	2
774	4
775	7
776	4
777	9
778	5
779	6
780	1
781	3
782	2
783	8
784	9
785	8
786	6
787	2
788	8
789	9
790	5
791	2
792	7
793	7
794	2
795	1
796	2
797	2
798	4
799	8
800	4
801	3
802	8
803	9
804	2
805	7
806	9
807	1
808	2
809	7
810	7
811	4
812	2
813	3
814	8
815	2
816	5
817	1
818	2
819	6
820	4
821	5
822	1
823	5
824	5
825	6
826	1
827	3
828	4
829	9
830	9
831	9
832	5
833	2
834	2
835	4
836	9
837	4
838	7
839	3
840	4
841	7
842	8
843	4
844	9
845	7
846	2
847	1
848	6
849	6
850	6
851	5
852	9
853	8
854	5
855	8
856	7
857	8
858	8
859	1
860	4
861	6
862	4
863	6
864	2
865	8
866	5
867	1
868	6
869	3
870	9
871	7
872	8
873	3
874	1
875	5
876	6
877	5
878	1
879	3
880	3
881	6
882	6
883	5
884	2
885	4
886	7
887	7
888	7
889	5
890	9
891	8
892	6
893	9
894	9
895	2
896	9
897	1
898	1
899	3
900	6
901	1
902	6
903	3
904	8
905	3
906	5
907	3
908	3
909	2
910	5
911	8
912	1
913	6
914	7
915	7
916	6
917	2
918	7
919	7
920	7
921	7
922	8
923	7
924	8
925	5
926	6
927	7
928	2
929	3
930	5
931	2
932	6
933	4
934	4
935	8
936	4
937	9
938	9
939	3
940	4
941	9
942	3
943	5
944	6
945	4
946	3
947	1
948	3
949	4
950	5
951	3
952	7
953	4
954	6
955	2
956	1
957	1
958	5
959	9
960	8
961	5
962	6
963	4
964	5
965	2
966	5
967	2
968	2
969	4
970	4
971	6
972	8
973	1
974	6
975	8
976	3
977	1
978	6
979	3
980	1
981	8
982	2
983	3
984	9
985	2
986	2
987	5
988	3
989	7
990	4
991	5
992	8
993	4
994	7
995	7
996	5
997	4
998	8
999	6
1000	6
1001	6
DEPOT_SECTION
1
-1
EOF
