NAME : n1001-0019
COMMENT : "Generated by pyvrp_manuel (VRPL)"
TYPE : VRPL
DIMENSION : 1001
EDGE_WEIGHT_TYPE : EUC_2D
CAPACITY : 150
VEHICLES : 1000
DISTANCE : 3000
NODE_COORD_SECTION
1	934	405
2	6	899
3	109	379
4	16	731
5	884	320
6	377	905
7	292	864
8	705	932
9	326	678
10	69	696
11	175	438
12	436	264
13	612	54
14	598	54
15	269	86
16	966	718
17	337	225
18	156	33
19	112	194
20	35	279
21	612	237
22	554	388
23	266	555
24	96	105
25	226	642
26	665	753
27	331	227
28	89	412
29	168	407
30	47	609
31	708	91
32	574	155
33	529	890
34	667	107
35	19	488
36	744	25
37	528	881
38	606	121
39	638	50
40	666	259
41	747	775
42	1000	114
43	34	946
44	313	120
45	912	883
46	460	464
47	11	808
48	7	695
49	134	955
50	856	793
51	966	374
52	390	135
53	674	916
54	125	492
55	355	403
56	140	184
57	646	234
58	175	909
59	908	35
60	209	730
61	424	950
62	742	914
63	437	144
64	32	442
65	964	548
66	840	144
67	830	729
68	39	301
69	655	342
70	35	472
71	608	676
72	184	360
73	668	647
74	271	111
75	802	124
76	488	140
77	388	212
78	516	175
79	620	288
80	450	616
81	300	841
82	386	366
83	200	988
84	936	405
85	460	736
86	668	807
87	408	258
88	592	411
89	45	945
90	909	444
91	303	449
92	710	701
93	759	784
94	84	702
95	844	491
96	659	526
97	751	519
98	564	780
99	381	649
100	967	521
101	607	263
102	620	251
103	207	537
104	349	389
105	665	913
106	333	215
107	439	765
108	294	279
109	722	240
110	569	48
111	64	35
112	33	937
113	845	226
114	947	660
115	186	895
116	192	314
117	76	479
118	174	744
119	316	179
120	8	670
121	812	430
122	817	423
123	532	815
124	60	363
125	152	371
126	731	275
127	752	954
128	130	77
129	391	796
130	718	234
131	387	667
132	222	441
133	318	26
134	604	416
135	262	994
136	549	490
137	137	30
138	661	326
139	626	858
140	63	946
141	49	278
142	42	488
143	666	344
144	898	349
145	784	796
146	231	525
147	422	192
148	70	609
149	786	950
150	251	945
151	582	287
152	431	595
153	421	675
154	74	437
155	376	25
156	854	787
157	280	519
158	196	957
159	89	952
160	430	742
161	15	879
162	527	623
163	798	633
164	541	574
165	306	930
166	611	469
167	400	207
168	861	946
169	362	556
170	126	899
171	29	467
172	975	664
173	503	697
174	910	173
175	919	474
176	301	584
177	250	222
178	160	474
179	358	938
180	855	175
181	781	228
182	60	639
183	944	429
184	532	265
185	87	592
186	26	123
187	211	391
188	227	990
189	678	71
190	492	133
191	596	279
192	863	112
193	867	464
194	956	686
195	788	754
196	36	878
197	591	83
198	269	790
199	219	995
200	11	292
201	95	640
202	77	249
203	634	105
204	280	815
205	759	797
206	939	153
207	326	585
208	693	159
209	112	881
210	718	847
211	997	352
212	943	811
213	872	804
214	921	503
215	920	22
216	664	412
217	502	985
218	433	932
219	315	141
220	225	386
221	354	942
222	933	30
223	431	883
224	906	967
225	203	561
226	336	739
227	738	978
228	762	209
229	175	935
230	38	648
231	785	847
232	940	804
233	219	225
234	171	203
235	696	315
236	657	320
237	283	282
238	123	649
239	905	855
240	375	617
241	624	193
242	270	344
243	814	869
244	183	231
245	782	731
246	591	630
247	150	899
248	840	742
249	546	709
250	712	706
251	710	762
252	591	515
253	58	562
254	737	573
255	944	661
256	78	832
257	86	943
258	842	800
259	134	881
260	700	963
261	642	716
262	231	310
263	854	76
264	809	231
265	768	140
266	256	31
267	464	921
268	296	386
269	609	908
270	28	659
271	296	297
272	842	571
273	703	696
274	433	619
275	393	55
276	888	232
277	591	539
278	862	795
279	919	705
280	155	639
281	939	263
282	914	589
283	786	976
284	682	132
285	224	77
286	919	500
287	578	982
288	44	307
289	682	982
290	340	842
291	322	151
292	190	787
293	703	163
294	523	845
295	176	198
296	660	421
297	630	579
298	37	678
299	667	747
300	759	259
301	848	486
302	662	141
303	444	816
304	538	533
305	839	665
306	51	864
307	439	60
308	75	673
309	510	863
310	525	432
311	412	211
312	112	145
313	150	514
314	324	37
315	918	130
316	989	801
317	901	795
318	174	771
319	99	187
320	776	640
321	266	349
322	177	553
323	697	693
324	371	44
325	188	602
326	198	604
327	961	894
328	437	309
329	519	992
330	185	354
331	333	774
332	540	764
333	776	868
334	620	352
335	336	780
336	436	575
337	855	630
338	189	805
339	168	371
340	864	244
341	338	617
342	703	968
343	475	331
344	322	481
345	243	42
346	772	68
347	247	207
348	788	928
349	17	306
350	5	473
351	744	779
352	524	804
353	874	611
354	573	539
355	405	291
356	450	739
357	721	712
358	4	19
359	263	332
360	443	720
361	150	17
362	186	358
363	106	820
364	698	17
365	726	845
366	608	351
367	700	342
368	17	547
369	759	155
370	311	497
371	327	926
372	605	970
373	78	504
374	79	170
375	942	285
376	905	110
377	99	85
378	865	21
379	370	678
380	248	798
381	648	567
382	697	382
383	219	157
384	164	726
385	135	641
386	439	798
387	933	672
388	95	60
389	338	468
390	385	488
391	449	574
392	833	382
393	287	132
394	813	225
395	349	470
396	771	146
397	928	422
398	878	29
399	776	552
400	605	229
401	687	270
402	738	518
403	758	293
404	675	825
405	856	461
406	321	231
407	86	999
408	339	162
409	611	747
410	57	683
411	816	458
412	368	916
413	365	742
414	747	335
415	786	209
416	185	257
417	303	308
418	579	171
419	159	128
420	657	393
421	992	263
422	859	218
423	745	694
424	470	214
425	55	70
426	722	662
427	287	236
428	178	338
429	396	704
430	378	696
431	421	135
432	682	519
433	452	532
434	513	687
435	867	40
436	761	985
437	842	834
438	282	25
439	100	466
440	841	949
441	622	975
442	291	386
443	521	291
444	121	463
445	831	508
446	187	141
447	877	609
448	304	808
449	106	912
450	373	126
451	201	154
452	524	241
453	348	366
454	901	934
455	168	686
456	81	813
457	745	976
458	529	640
459	793	803
460	175	192
461	118	789
462	461	543
463	210	769
464	16	88
465	690	592
466	561	988
467	784	675
468	322	564
469	845	521
470	877	305
471	338	508
472	680	931
473	567	166
474	226	517
475	768	974
476	319	797
477	92	198
478	207	767
479	103	687
480	406	302
481	680	320
482	846	872
483	183	289
484	402	672
485	172	213
486	115	39
487	853	966
488	916	869
489	514	505
490	39	73
491	796	63
492	609	523
493	938	847
494	901	379
495	880	89
496	267	299
497	591	726
498	108	756
499	223	835
500	318	188
501	120	672
502	41	6
503	497	320
504	342	692
505	565	725
506	422	784
507	980	530
508	664	630
509	191	729
510	365	677
511	67	644
512	791	823
513	647	719
514	771	221
515	400	117
516	676	475
517	639	298
518	149	384
519	661	228
520	694	147
521	434	680
522	962	696
523	44	447
524	859	668
525	594	549
526	232	645
527	821	114
528	872	834
529	80	827
530	773	563
531	299	992
532	882	862
533	767	190
534	696	893
535	877	45
536	546	785
537	444	74
538	326	738
539	582	47
540	84	19
541	558	639
542	284	156
543	896	626
544	767	291
545	142	536
546	525	730
547	637	726
548	470	142
549	152	278
550	253	225
551	196	283
552	326	121
553	719	858
554	852	427
555	882	163
556	706	929
557	276	722
558	525	289
559	798	528
560	481	206
561	537	894
562	75	82
563	612	17
564	896	158
565	607	459
566	511	536
567	954	105
568	532	668
569	275	637
570	621	88
571	442	59
572	431	53
573	89	22
574	349	749
575	223	577
576	466	106
577	890	908
578	931	974
579	124	697
580	381	538
581	776	676
582	835	775
583	689	916
584	121	356
585	697	999
586	68	212
587	713	977
588	667	819
589	730	141
590	934	750
591	752	611
592	315	970
593	82	646
594	520	896
595	858	64
596	816	897
597	593	10
598	228	71
599	988	670
600	103	753
601	807	757
602	442	231
603	741	949
604	892	345
605	30	732
606	323	640
607	730	51
608	483	975
609	779	601
610	62	187
611	5	594
612	794	203
613	753	645
614	615	782
615	171	120
616	224	829
617	525	77
618	210	513
619	543	437
620	796	968
621	844	303
622	78	442
623	377	368
624	184	145
625	85	962
626	962	277
627	877	120
628	143	941
629	996	33
630	261	736
631	851	275
632	325	355
633	663	331
634	143	704
635	103	870
636	969	493
637	151	880
638	283	238
639	199	984
640	513	366
641	47	302
642	311	967
643	638	923
644	278	891
645	302	971
646	403	944
647	261	817
648	727	23
649	808	645
650	810	417
651	838	977
652	675	736
653	779	583
654	31	192
655	294	64
656	73	561
657	969	193
658	150	924
659	553	227
660	182	681
661	276	772
662	188	279
663	795	726
664	427	367
665	5	723
666	72	974
667	729	332
668	132	424
669	582	554
670	314	938
671	659	289
672	323	804
673	604	861
674	65	955
675	476	137
676	834	807
677	96	772
678	49	496
679	603	741
680	503	507
681	252	309
682	385	710
683	280	508
684	895	583
685	451	496
686	869	302
687	729	362
688	449	526
689	597	353
690	943	339
691	588	377
692	157	649
693	149	748
694	679	53
695	530	680
696	258	974
697	255	229
698	576	754
699	627	732
700	580	877
701	636	556
702	852	27
703	355	27
704	623	285
705	497	79
706	828	190
707	554	315
708	209	887
709	648	235
710	778	708
711	993	736
712	233	1
713	132	340
714	366	624
715	93	669
716	283	822
717	138	29
718	329	963
719	508	256
720	970	435
721	435	118
722	191	169
723	450	764
724	200	264
725	829	284
726	336	956
727	405	944
728	905	581
729	797	322
730	253	891
731	763	900
732	404	487
733	722	814
734	275	64
735	186	768
736	569	492
737	477	764
738	523	253
739	452	272
740	776	440
741	625	195
742	534	683
743	21	478
744	376	153
745	698	611
746	773	610
747	278	986
748	579	302
749	936	645
750	43	124
751	554	223
752	344	109
753	896	695
754	685	181
755	824	886
756	723	489
757	36	2
758	805	239
759	210	3
760	230	519
761	735	804
762	295	393
763	754	701
764	522	721
765	559	187
766	647	637
767	279	800
768	754	868
769	664	591
770	40	621
771	546	813
772	754	363
773	108	904
774	187	839
775	392	425
776	515	494
777	289	586
778	465	434
779	56	32
780	366	115
781	940	399
782	622	243
783	414	215
784	290	782
785	604	96
786	678	848
787	663	287
788	351	493
789	889	361
790	863	398
791	454	836
792	291	780
793	589	370
794	205	798
795	373	415
796	625	786
797	527	444
798	275	510
799	65	126
800	384	241
801	991	963
802	653	798
803	576	510
804	326	163
805	945	236
806	779	416
807	238	668
808	775	19
809	432	697
810	503	347
811	539	101
812	902	686
813	695	328
814	438	226
815	162	99
816	40	913
817	142	401
818	364	598
819	26	516
820	876	239
821	94	622
822	153	712
823	671	515
824	570	974
825	872	920
826	147	234
827	743	259
828	267	6
829	359	618
830	714	552
831	185	996
832	241	344
833	783	632
834	572	629
835	253	46
836	345	446
837	246	846
838	838	936
839	273	339
840	889	797
841	835	921
842	135	260
843	489	423
844	130	293
845	494	549
846	188	260
847	474	147
848	479	557
849	247	704
850	500	88
851	197	894
852	229	448
853	887	137
854	657	457
855	625	176
856	937	48
857	908	777
858	594	133
859	601	770
860	863	30
861	987	476
862	622	348
863	354	848
864	806	247
865	967	808
866	422	40
867	228	592
868	406	870
869	717	924
870	260	211
871	473	471
872	422	513
873	12	229
874	79	127
875	12	155
876	954	251
877	909	535
878	483	933
879	289	419
880	887	620
881	967	478
882	943	801
883	428	614
884	431	601
885	262	777
886	694	201
887	946	395
888	75	520
889	223	946
890	536	607
891	296	24
892	828	604
893	519	982
894	652	535
895	296	856
896	222	146
897	12	113
898	203	856
899	651	712
900	288	218
901	219	672
902	219	916
903	807	266
904	946	824
905	960	282
906	664	158
907	82	436
908	171	508
909	964	330
910	992	0
911	526	800
912	409	850
913	54	337
914	446	874
915	320	327
916	831	587
917	384	785
918	852	100
919	882	439
920	248	285
921	633	30
922	754	595
923	257	973
924	415	763
925	724	565
926	495	300
927	790	348
928	375	137
929	641	800
930	897	931
931	235	562
932	917	203
933	865	491
934	422	318
935	354	407
936	452	55
937	1000	220
938	280	562
939	87	274
940	892	977
941	624	206
942	239	797
943	729	120
944	433	7
945	603	347
946	465	986
947	521	797
948	244	596
949	26	387
950	188	678
951	170	775
952	682	908
953	99	236
954	921	878
955	225	70
956	768	668
957	795	967
958	739	443
959	506	695
960	348	420
961	686	282
962	805	909
963	952	662
964	979	708
965	101	747
966	269	776
967	482	695
968	247	303
969	432	823
970	315	433
971	887	528
972	373	937
973	772	813
974	629	508
975	997	788
976	979	764
977	179	536
978	922	715
979	926	124
980	60	461
981	162	837
982	409	452
983	640	229
984	332	59
985	485	86
986	298	971
987	305	211
988	251	519
989	574	264
990	247	238
991	312	614
992	316	418
993	712	66
994	694	652
995	287	144
996	753	923
997	762	856
998	267	200
999	396	359
1000	106	295
1001	515	357
DEMAND_SECTION
1	0
2	7
3	1
4	9
5	7
6	9
7	2
8	6
9	3
10	6
11	9
12	8
13	4
14	7
15	2
16	2
17	8
18	1
19	5
20	1
21	6
22	6
23	2
24	6
25	7
26	9
27	4
28	2
29	6
30	6
31	1
32	1
33	5
34	9
35	2
36	4
37	3
38	9
39	5
40	3
41	6
42	8
43	9
44	1
45	3
46	6
47	1
48	3
49	4
50	1
51	9
52	4
53	9
54	4
55	7
56	2
57	2
58	9
59	2
60	8
61	3
62	3
63	9
64	7
65	6
66	8
67	5
68	5
69	4
70	6
71	8
72	4
73	6
74	5
75	6
76	4
77	8
78	7
79	6
80	5
81	8
82	5
83	1
84	4
85	5
86	1
87	5
88	2
89	8
90	5
91	8
92	4
93	3
94	1
95	6
96	5
97	4
98	3
99	4
100	3
101	2
102	2
103	6
104	1
105	5
106	8
107	9
108	8
109	9
110	7
111	8
112	2
113	9
114	8
115	6
116	6
117	1
118	1
119	8
120	7
121	1
122	5
123	3
124	6
125	4
126	5
127	1
128	7
129	4
130	7
131	8
132	1
133	4
134	7
135	7
136	2
137	8
138	7
139	8
140	6
141	5
142	5
143	3
144	6
145	4
146	3
147	1
148	8
149	6
150	4
151	9
152	6
153	6
154	8
155	2
156	1
157	5
158	7
159	9
160	7
161	4
162	2
163	7
164	4
165	1
166	5
167	1
168	6
169	7
170	3
171	8
172	8
173	7
174	3
175	8
176	4
177	3
178	8
179	6
180	8
181	6
182	6
183	1
184	5
185	1
186	2
187	4
188	9
189	7
190	8
191	1
192	4
193	6
194	2
195	9
196	5
197	7
198	3
199	9
200	9
201	7
202	3
203	7
204	6
205	7
206	3
207	8
208	9
209	5
210	9
211	9
212	4
213	6
214	6
215	5
216	3
217	9
218	9
219	5
220	1
221	8
222	6
223	5
224	7
225	5
226	5
227	2
228	6
229	3
230	9
231	6
232	9
233	4
234	5
235	5
236	2
237	9
238	6
239	2
240	4
241	8
242	8
243	5
244	9
245	2
246	5
247	5
248	3
249	4
250	3
251	9
252	2
253	1
254	2
255	6
256	1
257	1
258	4
259	2
260	4
261	7
262	8
263	8
264	9
265	7
266	5
267	7
268	6
269	3
270	8
271	3
272	6
273	3
274	4
275	3
276	1
277	7
278	5
279	4
280	3
281	7
282	2
283	7
284	9
285	9
286	8
287	3
288	1
289	9
290	1
291	4
292	8
293	7
294	8
295	5
296	9
297	7
298	1
299	4
300	8
301	6
302	9
303	5
304	8
305	5
306	3
307	8
308	7
309	5
310	9
311	8
312	6
313	6
314	5
315	9
316	1
317	6
318	3
319	5
320	9
321	3
322	2
323	7
324	9
325	6
326	5
327	4
328	3
329	7
330	4
331	8
332	2
333	8
334	3
335	6
336	3
337	6
338	2
339	2
340	6
341	1
342	8
343	4
344	5
345	7
346	5
347	3
348	5
349	8
350	9
351	6
352	6
353	9
354	8
355	1
356	9
357	7
358	2
359	2
360	7
361	1
362	8
363	4
364	7
365	5
366	9
367	1
368	7
369	8
370	8
371	1
372	3
373	7
374	5
375	8
376	1
377	2
378	9
379	6
380	6
381	9
382	7
383	1
384	7
385	8
386	9
387	5
388	5
389	6
390	9
391	7
392	9
393	5
394	8
395	3
396	1
397	8
398	4
399	3
400	8
401	3
402	6
403	1
404	3
405	2
406	3
407	7
408	3
409	9
410	1
411	1
412	8
413	8
414	7
415	3
416	3
417	4
418	5
419	9
420	9
421	8
422	2
423	7
424	1
425	4
426	7
427	1
428	3
429	8
430	7
431	8
432	1
433	7
434	4
435	5
436	7
437	8
438	5
439	6
440	4
441	4
442	6
443	5
444	4
445	4
446	2
447	7
448	3
449	1
450	8
451	3
452	9
453	2
454	8
455	7
456	1
457	8
458	6
459	4
460	3
461	3
462	9
463	7
464	1
465	3
466	8
467	5
468	2
469	1
470	8
471	2
472	5
473	2
474	3
475	2
476	4
477	2
478	6
479	7
480	8
481	1
482	9
483	4
484	4
485	7
486	9
487	3
488	3
489	2
490	4
491	3
492	2
493	9
494	4
495	2
496	7
497	5
498	7
499	8
500	7
501	7
502	4
503	5
504	4
505	6
506	8
507	8
508	2
509	3
510	1
511	4
512	7
513	6
514	4
515	6
516	1
517	1
518	5
519	8
520	7
521	6
522	5
523	1
524	6
525	1
526	9
527	6
528	8
529	6
530	9
531	4
532	1
533	7
534	5
535	2
536	7
537	5
538	2
539	8
540	2
541	9
542	2
543	2
544	5
545	8
546	4
547	6
548	4
549	2
550	9
551	8
552	3
553	5
554	5
555	1
556	7
557	8
558	6
559	6
560	3
561	1
562	7
563	7
564	1
565	5
566	4
567	3
568	6
569	5
570	3
571	3
572	7
573	1
574	6
575	1
576	7
577	2
578	5
579	5
580	4
581	5
582	4
583	7
584	8
585	3
586	9
587	8
588	1
589	7
590	9
591	4
592	9
593	6
594	2
595	9
596	6
597	8
598	2
599	5
600	7
601	1
602	6
603	8
604	3
605	3
606	3
607	3
608	1
609	2
610	5
611	3
612	9
613	2
614	9
615	3
616	7
617	7
618	9
619	3
620	8
621	9
622	3
623	5
624	2
625	9
626	9
627	8
628	7
629	8
630	3
631	1
632	1
633	4
634	6
635	5
636	4
637	6
638	9
639	1
640	4
641	4
642	3
643	4
644	3
645	3
646	1
647	6
648	1
649	2
650	6
651	7
652	3
653	5
654	1
655	9
656	7
657	8
658	6
659	6
660	2
661	3
662	8
663	9
664	5
665	7
666	4
667	7
668	4
669	5
670	4
671	2
672	1
673	9
674	7
675	1
676	3
677	3
678	2
679	4
680	5
681	8
682	4
683	9
684	2
685	4
686	5
687	2
688	6
689	8
690	5
691	8
692	4
693	7
694	7
695	2
696	7
697	3
698	5
699	2
700	3
701	8
702	7
703	4
704	7
705	2
706	9
707	3
708	6
709	3
710	9
711	9
712	1
713	3
714	8
715	1
716	9
717	9
718	5
719	1
720	4
721	1
722	6
723	1
724	5
725	7
726	1
727	7
728	1
729	8
730	8
731	9
732	2
733	2
734	7
735	6
736	6
737	6
738	3
739	6
740	1
741	5
742	8
743	1
744	2
745	7
746	6
747	1
748	9
749	7
750	2
751	6
752	4
753	4
754	1
755	4
756	2
757	3
758	3
759	3
760	4
761	2
762	3
763	3
764	4
765	3
766	5
767	6
768	4
769	6
770	9
771	4
772	7
773	5
774	4
775	1
776	4
777	5
778	2
779	6
780	4
781	1
782	4
783	5
784	1
785	1
786	9
787	5
788	6
789	5
790	2
791	6
792	6
793	3
794	8
795	6
796	8
797	8
798	5
799	1
800	1
801	3
802	8
803	3
804	3
805	8
806	4
807	5
808	8
809	1
810	3
811	1
812	9
813	1
814	9
815	3
816	1
817	1
818	7
819	2
820	2
821	4
822	4
823	2
824	2
825	4
826	7
827	2
828	6
829	9
830	7
831	7
832	4
833	4
834	9
835	3
836	5
837	1
838	3
839	7
840	1
841	4
842	1
843	3
844	4
845	9
846	3
847	9
848	3
849	9
850	1
851	5
852	8
853	3
854	8
855	2
856	1
857	9
858	1
859	6
860	8
861	2
862	5
863	2
864	5
865	9
866	5
867	2
868	4
869	4
870	2
871	8
872	4
873	2
874	7
875	2
876	5
877	6
878	5
879	7
880	7
881	2
882	6
883	7
884	2
885	8
886	5
887	7
888	2
889	3
890	6
891	3
892	1
893	8
894	3
895	7
896	8
897	7
898	9
899	5
900	8
901	4
902	4
903	5
904	6
905	6
906	2
907	9
908	6
909	3
910	4
911	7
912	8
913	8
914	4
915	5
916	8
917	4
918	2
919	1
920	1
921	4
922	6
923	3
924	4
925	2
926	5
927	8
928	8
929	8
930	9
931	1
932	1
933	4
934	3
935	2
936	1
937	8
938	8
939	9
940	1
941	6
942	9
943	7
944	8
945	2
946	4
947	9
948	6
949	4
950	8
951	2
952	4
953	5
954	8
955	9
956	9
957	8
958	4
959	2
960	6
961	8
962	5
963	8
964	5
965	6
966	4
967	8
968	7
969	7
970	2
971	2
972	6
973	9
974	8
975	1
976	5
977	8
978	3
979	4
980	3
981	6
982	7
983	7
984	9
985	9
986	4
987	8
988	1
989	9
990	1
991	2
992	8
993	7
994	2
995	4
996	8
997	1
998	2
999	7
1000	5
1001	5
DEPOT_SECTION
1
-1
EOF
