NAME : n1001-0022
COMMENT : "Generated by pyvrp_manuel (VRPL)"
TYPE : VRPL
DIMENSION : 1001
EDGE_WEIGHT_TYPE : EUC_2D
CAPACITY : 150
VEHICLES : 1000
DISTANCE : 3000
NODE_COORD_SECTION
1	75	706
2	161	658
3	503	863
4	131	960
5	42	472
6	789	888
7	629	525
8	819	664
9	735	492
10	991	333
11	500	201
12	730	295
13	292	881
14	231	29
15	579	200
16	619	347
17	29	968
18	632	443
19	981	977
20	581	662
21	287	457
22	886	818
23	72	827
24	689	263
25	857	648
26	275	349
27	846	713
28	832	187
29	905	352
30	276	302
31	921	747
32	983	763
33	39	528
34	837	498
35	368	806
36	888	965
37	112	105
38	510	821
39	929	117
40	870	754
41	776	109
42	868	389
43	424	544
44	465	682
45	773	977
46	976	250
47	933	640
48	263	722
49	986	427
50	630	151
51	767	836
52	886	539
53	309	898
54	237	976
55	145	151
56	867	346
57	551	221
58	687	541
59	181	606
60	892	9
61	166	818
62	210	748
63	583	515
64	511	410
65	186	153
66	385	21
67	42	574
68	832	141
69	817	568
70	865	273
71	22	906
72	271	2
73	789	894
74	335	702
75	579	306
76	663	248
77	773	870
78	652	635
79	589	169
80	149	689
81	48	934
82	605	435
83	917	183
84	11	158
85	228	185
86	161	235
87	646	685
88	955	816
89	732	74
90	628	96
91	969	208
92	111	339
93	928	963
94	504	993
95	218	421
96	77	801
97	240	557
98	674	703
99	217	142
100	583	527
101	587	67
102	432	557
103	325	835
104	589	112
105	635	425
106	976	997
107	550	289
108	124	79
109	596	200
110	353	256
111	345	734
112	641	919
113	527	155
114	479	954
115	128	28
116	470	269
117	296	968
118	249	501
119	643	454
120	228	407
121	51	205
122	932	313
123	427	316
124	378	998
125	949	385
126	601	714
127	56	1
128	699	147
129	113	129
130	463	300
131	852	868
132	854	981
133	56	110
134	259	304
135	390	700
136	460	841
137	53	204
138	219	52
139	46	856
140	671	996
141	387	454
142	597	944
143	288	675
144	858	618
145	698	373
146	983	601
147	487	883
148	857	524
149	929	759
150	150	889
151	800	183
152	24	605
153	105	977
154	586	535
155	703	299
156	722	977
157	594	683
158	2	616
159	160	575
160	195	705
161	684	247
162	666	332
163	191	723
164	820	118
165	504	620
166	481	112
167	112	546
168	131	94
169	824	183
170	234	450
171	913	765
172	212	902
173	803	92
174	541	583
175	425	98
176	116	136
177	242	194
178	538	295
179	312	70
180	668	600
181	114	554
182	264	282
183	929	475
184	232	917
185	663	325
186	636	22
187	615	414
188	398	689
189	929	630
190	671	32
191	174	945
192	773	335
193	565	565
194	939	455
195	678	324
196	307	550
197	568	386
198	673	346
199	632	369
200	450	20
201	860	351
202	331	533
203	567	49
204	293	942
205	410	236
206	477	412
207	690	92
208	209	454
209	696	245
210	346	355
211	794	651
212	299	629
213	940	663
214	973	392
215	488	333
216	355	440
217	981	704
218	805	734
219	900	681
220	66	859
221	36	61
222	566	288
223	249	556
224	201	294
225	396	891
226	932	806
227	947	33
228	22	696
229	645	975
230	834	194
231	660	256
232	44	842
233	414	110
234	795	316
235	907	756
236	61	307
237	65	424
238	385	252
239	793	372
240	129	966
241	238	67
242	949	999
243	600	528
244	145	863
245	699	898
246	578	266
247	987	475
248	112	692
249	676	223
250	92	339
251	195	488
252	102	321
253	871	74
254	929	114
255	453	744
256	861	491
257	264	359
258	142	195
259	676	37
260	696	252
261	770	973
262	693	980
263	110	454
264	702	36
265	420	932
266	653	872
267	273	659
268	445	469
269	751	545
270	397	574
271	645	249
272	357	385
273	374	198
274	968	641
275	575	959
276	433	358
277	637	808
278	700	417
279	598	259
280	747	241
281	84	884
282	575	232
283	425	77
284	222	391
285	947	873
286	688	919
287	852	541
288	883	842
289	279	426
290	935	504
291	291	580
292	850	78
293	99	872
294	45	465
295	991	405
296	446	496
297	966	627
298	242	218
299	638	539
300	571	157
301	396	930
302	678	132
303	541	671
304	673	865
305	695	495
306	499	699
307	225	67
308	445	270
309	315	758
310	5	996
311	962	158
312	428	871
313	280	27
314	836	840
315	305	68
316	196	828
317	536	845
318	949	795
319	405	572
320	574	656
321	320	52
322	277	246
323	96	587
324	303	637
325	364	8
326	644	931
327	858	930
328	111	747
329	306	274
330	13	898
331	249	347
332	423	564
333	740	125
334	832	108
335	13	731
336	678	282
337	833	618
338	307	982
339	913	345
340	349	477
341	698	586
342	53	147
343	16	614
344	730	291
345	234	702
346	292	540
347	315	749
348	121	9
349	411	334
350	833	840
351	206	101
352	299	619
353	58	945
354	870	422
355	530	525
356	333	122
357	429	682
358	834	546
359	171	27
360	208	618
361	214	278
362	405	581
363	557	52
364	257	148
365	935	796
366	927	363
367	33	784
368	747	415
369	611	334
370	620	829
371	32	162
372	720	103
373	124	937
374	626	274
375	800	311
376	596	187
377	475	327
378	188	528
379	379	481
380	367	762
381	883	386
382	680	725
383	464	533
384	473	329
385	39	801
386	72	487
387	988	751
388	777	517
389	714	214
390	570	228
391	338	687
392	437	219
393	631	163
394	709	870
395	454	827
396	722	724
397	230	406
398	820	792
399	498	469
400	903	304
401	290	853
402	821	499
403	21	474
404	165	656
405	437	43
406	14	522
407	728	406
408	124	745
409	563	271
410	362	147
411	702	642
412	724	10
413	66	53
414	111	19
415	732	328
416	691	186
417	279	742
418	658	972
419	656	593
420	996	433
421	442	297
422	192	850
423	293	435
424	766	244
425	27	127
426	673	242
427	194	192
428	26	427
429	426	564
430	182	11
431	227	170
432	358	251
433	680	901
434	676	367
435	940	272
436	789	221
437	677	162
438	121	326
439	919	424
440	316	483
441	628	517
442	634	956
443	397	655
444	280	52
445	299	779
446	604	425
447	566	125
448	631	762
449	391	712
450	443	391
451	676	576
452	781	444
453	832	526
454	544	940
455	415	724
456	696	618
457	153	851
458	711	782
459	749	460
460	821	50
461	689	899
462	10	963
463	686	763
464	755	844
465	558	707
466	849	224
467	726	763
468	562	950
469	912	183
470	600	599
471	732	871
472	881	904
473	616	955
474	486	881
475	854	80
476	120	760
477	415	606
478	347	641
479	387	667
480	356	576
481	266	609
482	978	715
483	21	1
484	605	649
485	189	161
486	347	802
487	861	593
488	335	663
489	584	366
490	439	271
491	924	174
492	426	155
493	235	537
494	786	890
495	458	432
496	687	257
497	576	348
498	596	808
499	314	230
500	808	657
501	9	276
502	856	953
503	779	432
504	732	431
505	31	328
506	75	891
507	370	555
508	439	236
509	536	11
510	186	719
511	500	302
512	837	950
513	292	76
514	910	575
515	404	776
516	107	648
517	830	986
518	940	159
519	398	486
520	951	223
521	695	957
522	638	878
523	37	160
524	490	9
525	11	816
526	266	186
527	755	692
528	970	497
529	813	222
530	664	557
531	262	260
532	823	690
533	864	520
534	343	708
535	439	229
536	190	620
537	723	693
538	72	579
539	829	537
540	529	790
541	492	714
542	716	947
543	803	835
544	637	545
545	10	5
546	905	789
547	921	525
548	662	186
549	892	678
550	470	173
551	825	530
552	631	26
553	338	539
554	39	466
555	247	177
556	893	166
557	610	666
558	755	623
559	443	269
560	203	7
561	845	345
562	333	897
563	478	748
564	27	869
565	3	664
566	125	576
567	688	771
568	864	273
569	939	827
570	989	867
571	30	621
572	918	910
573	448	583
574	821	946
575	279	89
576	919	660
577	127	952
578	395	102
579	653	373
580	568	126
581	190	172
582	193	259
583	292	488
584	594	686
585	828	207
586	107	153
587	124	701
588	185	924
589	157	199
590	519	298
591	835	520
592	314	33
593	384	771
594	948	251
595	116	552
596	323	949
597	551	612
598	843	639
599	791	571
600	520	364
601	490	718
602	381	13
603	20	702
604	134	193
605	516	515
606	302	381
607	129	561
608	826	808
609	812	226
610	343	611
611	998	369
612	257	102
613	62	827
614	355	815
615	357	189
616	593	194
617	600	259
618	556	475
619	959	966
620	486	840
621	791	212
622	372	391
623	368	759
624	976	21
625	187	944
626	540	821
627	128	328
628	269	551
629	549	800
630	49	290
631	742	8
632	16	781
633	43	577
634	584	534
635	887	583
636	439	969
637	526	725
638	884	572
639	9	655
640	404	814
641	41	996
642	338	360
643	123	250
644	503	790
645	564	385
646	550	288
647	397	643
648	852	949
649	227	635
650	674	690
651	949	611
652	273	470
653	148	44
654	622	410
655	483	795
656	886	177
657	441	578
658	512	608
659	659	661
660	268	568
661	189	315
662	393	532
663	755	720
664	731	646
665	311	333
666	588	300
667	983	226
668	302	783
669	585	943
670	404	751
671	365	254
672	566	769
673	997	576
674	735	48
675	653	424
676	327	506
677	228	652
678	33	530
679	884	44
680	715	160
681	625	242
682	264	208
683	832	60
684	762	875
685	283	193
686	951	982
687	156	798
688	569	478
689	98	941
690	814	412
691	331	437
692	950	718
693	283	149
694	825	973
695	906	672
696	588	66
697	501	837
698	428	988
699	748	171
700	124	307
701	646	474
702	3	260
703	680	571
704	873	481
705	537	692
706	802	177
707	799	959
708	334	286
709	805	375
710	672	789
711	487	136
712	297	303
713	927	559
714	524	281
715	556	874
716	860	845
717	908	211
718	411	270
719	218	206
720	75	575
721	168	489
722	343	766
723	218	16
724	35	90
725	515	147
726	314	861
727	497	41
728	662	647
729	189	298
730	590	232
731	465	756
732	433	369
733	359	74
734	277	76
735	928	868
736	50	857
737	578	323
738	309	548
739	777	694
740	97	644
741	520	609
742	609	2
743	570	516
744	182	965
745	85	283
746	586	190
747	697	28
748	762	807
749	266	938
750	120	136
751	370	871
752	516	959
753	475	990
754	208	860
755	515	169
756	350	5
757	974	169
758	540	411
759	609	469
760	384	565
761	470	228
762	418	468
763	941	594
764	783	200
765	367	460
766	730	307
767	96	414
768	799	764
769	324	743
770	624	214
771	455	826
772	309	364
773	132	135
774	171	830
775	384	344
776	43	859
777	476	720
778	449	198
779	62	571
780	537	613
781	664	556
782	4	503
783	112	866
784	611	587
785	503	557
786	940	858
787	464	518
788	737	961
789	937	588
790	96	699
791	984	977
792	811	948
793	278	800
794	194	913
795	664	259
796	845	682
797	505	359
798	680	903
799	48	626
800	958	505
801	542	370
802	126	280
803	921	582
804	38	351
805	921	618
806	979	529
807	732	368
808	667	696
809	992	465
810	209	626
811	571	945
812	302	35
813	807	784
814	944	602
815	846	743
816	883	422
817	684	194
818	587	96
819	316	229
820	873	408
821	25	841
822	364	297
823	296	996
824	347	55
825	775	249
826	701	169
827	193	999
828	761	72
829	805	550
830	944	779
831	307	422
832	325	241
833	807	584
834	494	266
835	758	493
836	719	786
837	52	456
838	628	247
839	141	587
840	607	595
841	968	606
842	222	979
843	430	145
844	63	659
845	223	902
846	5	45
847	481	821
848	788	448
849	930	877
850	111	42
851	974	456
852	107	412
853	104	957
854	564	175
855	314	963
856	567	890
857	392	186
858	598	66
859	788	549
860	224	292
861	770	794
862	545	820
863	717	199
864	22	687
865	535	152
866	105	64
867	63	912
868	192	19
869	153	701
870	515	330
871	750	453
872	103	609
873	384	873
874	494	797
875	239	409
876	935	923
877	321	792
878	471	713
879	283	206
880	126	799
881	22	358
882	118	363
883	840	291
884	487	100
885	587	998
886	635	512
887	793	930
888	869	567
889	172	557
890	553	507
891	787	410
892	616	105
893	167	415
894	699	552
895	458	258
896	466	807
897	729	761
898	403	911
899	613	476
900	196	376
901	198	550
902	311	777
903	133	100
904	732	951
905	376	31
906	369	413
907	267	341
908	516	519
909	458	538
910	765	693
911	190	449
912	761	274
913	609	189
914	259	81
915	108	670
916	108	378
917	827	194
918	245	91
919	389	261
920	698	44
921	790	926
922	205	262
923	245	162
924	302	397
925	889	603
926	494	739
927	524	59
928	279	528
929	96	881
930	823	427
931	318	815
932	432	111
933	508	914
934	658	544
935	321	234
936	956	851
937	902	270
938	238	62
939	559	230
940	480	177
941	36	107
942	382	628
943	507	61
944	801	559
945	285	709
946	802	827
947	759	644
948	993	279
949	422	461
950	79	995
951	453	421
952	626	382
953	201	135
954	703	712
955	922	647
956	927	422
957	851	34
958	287	413
959	359	221
960	674	730
961	874	560
962	106	302
963	253	318
964	94	137
965	873	737
966	100	761
967	222	492
968	597	125
969	27	657
970	730	794
971	489	77
972	187	496
973	727	206
974	599	521
975	217	673
976	69	1000
977	316	446
978	223	237
979	425	349
980	932	567
981	847	348
982	669	330
983	326	19
984	585	371
985	262	607
986	211	554
987	603	113
988	539	913
989	335	461
990	437	92
991	684	327
992	870	479
993	835	781
994	682	895
995	53	405
996	162	101
997	938	302
998	518	978
999	871	404
1000	722	532
1001	17	542
DEMAND_SECTION
1	0
2	4
3	5
4	8
5	4
6	6
7	1
8	1
9	2
10	9
11	7
12	4
13	7
14	8
15	6
16	9
17	3
18	7
19	5
20	9
21	7
22	6
23	7
24	7
25	8
26	7
27	2
28	7
29	1
30	8
31	2
32	4
33	1
34	9
35	2
36	2
37	9
38	6
39	2
40	5
41	3
42	5
43	9
44	5
45	4
46	3
47	5
48	6
49	4
50	9
51	1
52	7
53	6
54	3
55	5
56	9
57	3
58	7
59	4
60	4
61	1
62	3
63	2
64	8
65	2
66	2
67	1
68	3
69	6
70	4
71	7
72	5
73	1
74	2
75	5
76	1
77	5
78	4
79	1
80	5
81	8
82	5
83	4
84	1
85	9
86	4
87	4
88	3
89	9
90	1
91	6
92	7
93	4
94	4
95	5
96	6
97	9
98	3
99	7
100	6
101	8
102	2
103	9
104	2
105	2
106	5
107	1
108	7
109	5
110	4
111	4
112	6
113	1
114	3
115	5
116	8
117	8
118	4
119	8
120	5
121	9
122	6
123	8
124	7
125	6
126	3
127	6
128	7
129	6
130	8
131	3
132	6
133	6
134	3
135	8
136	2
137	4
138	1
139	3
140	4
141	9
142	4
143	5
144	4
145	1
146	3
147	8
148	3
149	1
150	9
151	4
152	3
153	2
154	5
155	4
156	6
157	9
158	6
159	5
160	3
161	6
162	9
163	7
164	1
165	9
166	6
167	4
168	7
169	2
170	2
171	7
172	2
173	4
174	5
175	7
176	9
177	8
178	7
179	1
180	4
181	5
182	8
183	9
184	1
185	1
186	2
187	5
188	3
189	7
190	6
191	4
192	8
193	1
194	9
195	1
196	4
197	8
198	8
199	9
200	9
201	6
202	9
203	1
204	2
205	2
206	5
207	4
208	9
209	7
210	7
211	8
212	9
213	9
214	7
215	1
216	2
217	1
218	5
219	9
220	1
221	9
222	4
223	1
224	5
225	8
226	8
227	1
228	3
229	3
230	2
231	2
232	8
233	6
234	6
235	1
236	9
237	1
238	4
239	5
240	4
241	9
242	8
243	3
244	2
245	7
246	8
247	8
248	5
249	4
250	6
251	3
252	3
253	8
254	9
255	3
256	6
257	1
258	6
259	8
260	7
261	9
262	1
263	5
264	3
265	2
266	4
267	2
268	2
269	5
270	9
271	7
272	7
273	5
274	9
275	7
276	2
277	6
278	1
279	6
280	6
281	3
282	8
283	1
284	3
285	8
286	2
287	8
288	8
289	7
290	4
291	4
292	8
293	7
294	5
295	7
296	5
297	8
298	6
299	4
300	2
301	5
302	6
303	8
304	7
305	3
306	9
307	2
308	3
309	8
310	4
311	4
312	8
313	1
314	9
315	8
316	2
317	5
318	6
319	3
320	5
321	2
322	2
323	7
324	9
325	1
326	8
327	3
328	2
329	9
330	3
331	6
332	8
333	4
334	8
335	6
336	1
337	8
338	9
339	3
340	9
341	6
342	7
343	1
344	1
345	3
346	5
347	9
348	2
349	9
350	1
351	6
352	7
353	9
354	9
355	6
356	9
357	4
358	4
359	5
360	6
361	8
362	3
363	6
364	7
365	5
366	4
367	3
368	2
369	2
370	6
371	9
372	5
373	1
374	4
375	2
376	8
377	4
378	6
379	5
380	8
381	3
382	8
383	6
384	9
385	2
386	1
387	5
388	7
389	7
390	9
391	9
392	1
393	8
394	4
395	4
396	6
397	2
398	7
399	9
400	1
401	7
402	9
403	6
404	1
405	4
406	4
407	8
408	8
409	6
410	4
411	3
412	4
413	1
414	2
415	4
416	2
417	7
418	1
419	5
420	4
421	2
422	4
423	2
424	5
425	2
426	2
427	6
428	7
429	9
430	8
431	9
432	6
433	6
434	8
435	8
436	1
437	8
438	4
439	9
440	5
441	4
442	3
443	3
444	5
445	2
446	3
447	4
448	2
449	1
450	4
451	2
452	7
453	2
454	6
455	6
456	6
457	8
458	5
459	6
460	1
461	3
462	9
463	1
464	9
465	2
466	3
467	5
468	4
469	4
470	5
471	9
472	2
473	3
474	5
475	8
476	4
477	6
478	2
479	5
480	1
481	1
482	5
483	1
484	3
485	9
486	7
487	5
488	7
489	6
490	5
491	8
492	3
493	7
494	7
495	6
496	5
497	6
498	1
499	7
500	8
501	6
502	4
503	5
504	2
505	9
506	1
507	9
508	8
509	8
510	1
511	6
512	1
513	5
514	6
515	9
516	7
517	2
518	8
519	1
520	8
521	2
522	8
523	3
524	1
525	7
526	1
527	2
528	6
529	6
530	5
531	2
532	4
533	7
534	5
535	3
536	2
537	9
538	9
539	2
540	8
541	6
542	1
543	4
544	3
545	5
546	8
547	7
548	8
549	3
550	6
551	5
552	5
553	4
554	2
555	1
556	8
557	6
558	2
559	8
560	6
561	1
562	8
563	5
564	8
565	8
566	9
567	8
568	3
569	2
570	1
571	3
572	1
573	6
574	9
575	2
576	7
577	5
578	5
579	6
580	2
581	1
582	8
583	2
584	4
585	4
586	5
587	1
588	9
589	4
590	4
591	8
592	1
593	6
594	8
595	5
596	4
597	2
598	1
599	9
600	3
601	4
602	4
603	7
604	8
605	1
606	9
607	5
608	7
609	1
610	2
611	4
612	9
613	3
614	5
615	5
616	8
617	2
618	3
619	2
620	6
621	2
622	9
623	6
624	2
625	9
626	7
627	3
628	2
629	1
630	9
631	2
632	1
633	8
634	4
635	9
636	2
637	2
638	8
639	7
640	8
641	3
642	5
643	8
644	7
645	6
646	2
647	3
648	9
649	1
650	9
651	3
652	1
653	8
654	8
655	1
656	4
657	5
658	7
659	3
660	2
661	7
662	4
663	6
664	6
665	2
666	3
667	8
668	6
669	2
670	5
671	6
672	3
673	4
674	6
675	9
676	8
677	6
678	1
679	5
680	8
681	4
682	3
683	8
684	1
685	3
686	9
687	3
688	3
689	4
690	7
691	6
692	8
693	8
694	5
695	2
696	4
697	5
698	5
699	2
700	6
701	6
702	9
703	6
704	8
705	2
706	9
707	6
708	5
709	7
710	4
711	3
712	8
713	4
714	9
715	2
716	8
717	1
718	3
719	9
720	2
721	1
722	4
723	2
724	7
725	6
726	4
727	9
728	1
729	2
730	1
731	5
732	9
733	2
734	6
735	5
736	4
737	7
738	5
739	2
740	3
741	8
742	2
743	4
744	4
745	1
746	8
747	8
748	8
749	1
750	5
751	1
752	6
753	7
754	4
755	4
756	7
757	9
758	7
759	1
760	7
761	2
762	9
763	8
764	2
765	1
766	9
767	5
768	8
769	1
770	3
771	7
772	6
773	6
774	8
775	1
776	9
777	7
778	2
779	3
780	7
781	1
782	2
783	2
784	5
785	1
786	3
787	2
788	8
789	8
790	7
791	5
792	2
793	2
794	7
795	1
796	3
797	9
798	4
799	8
800	6
801	8
802	6
803	2
804	9
805	1
806	4
807	6
808	2
809	2
810	2
811	7
812	3
813	1
814	2
815	1
816	4
817	9
818	9
819	6
820	7
821	3
822	3
823	5
824	3
825	4
826	9
827	4
828	4
829	2
830	4
831	1
832	7
833	6
834	5
835	9
836	1
837	4
838	8
839	1
840	8
841	5
842	1
843	4
844	5
845	1
846	3
847	5
848	6
849	7
850	3
851	2
852	5
853	1
854	1
855	1
856	3
857	7
858	5
859	7
860	7
861	2
862	5
863	1
864	9
865	8
866	2
867	7
868	5
869	1
870	1
871	9
872	1
873	3
874	8
875	9
876	3
877	5
878	8
879	4
880	8
881	1
882	9
883	2
884	5
885	8
886	1
887	5
888	5
889	6
890	6
891	6
892	9
893	5
894	7
895	7
896	1
897	6
898	7
899	9
900	1
901	7
902	4
903	3
904	6
905	1
906	8
907	5
908	9
909	1
910	2
911	7
912	4
913	3
914	6
915	1
916	6
917	4
918	1
919	3
920	4
921	1
922	6
923	1
924	3
925	9
926	9
927	2
928	8
929	2
930	7
931	3
932	8
933	7
934	7
935	2
936	1
937	9
938	6
939	5
940	2
941	9
942	5
943	8
944	5
945	4
946	1
947	6
948	4
949	7
950	2
951	5
952	9
953	8
954	8
955	7
956	4
957	4
958	8
959	6
960	8
961	8
962	6
963	4
964	2
965	2
966	5
967	6
968	6
969	6
970	9
971	3
972	9
973	4
974	4
975	7
976	4
977	2
978	3
979	4
980	1
981	3
982	7
983	6
984	1
985	4
986	3
987	1
988	1
989	1
990	7
991	9
992	4
993	9
994	5
995	7
996	2
997	8
998	8
999	1
1000	4
1001	8
DEPOT_SECTION
1
-1
EOF
