NAME : n501-0026
COMMENT : "Generated by pyvrp_manuel (OVRPL)"
TYPE : OVRPL
DIMENSION : 501
EDGE_WEIGHT_TYPE : EUC_2D
CAPACITY : 100
VEHICLES : 500
OPEN_ROUTE : YES
DISTANCE : 3000
NODE_COORD_SECTION
1	436	701
2	421	725
3	178	934
4	839	382
5	156	498
6	9	258
7	918	253
8	978	863
9	806	934
10	863	817
11	206	739
12	12	607
13	287	710
14	276	857
15	781	193
16	806	359
17	48	307
18	257	961
19	196	778
20	807	595
21	21	696
22	362	598
23	372	961
24	581	788
25	604	771
26	167	129
27	31	100
28	464	579
29	740	568
30	227	426
31	733	651
32	471	463
33	101	39
34	820	604
35	345	191
36	963	19
37	299	912
38	398	793
39	21	868
40	257	830
41	22	255
42	713	632
43	986	769
44	590	394
45	545	552
46	40	285
47	74	508
48	266	433
49	876	552
50	938	124
51	97	999
52	312	948
53	774	447
54	199	10
55	304	794
56	371	931
57	854	333
58	97	495
59	208	960
60	468	705
61	565	6
62	818	481
63	715	151
64	237	826
65	357	697
66	109	43
67	944	789
68	5	999
69	120	672
70	436	506
71	732	233
72	248	976
73	861	120
74	581	502
75	933	772
76	216	951
77	814	727
78	945	561
79	35	36
80	69	828
81	427	482
82	232	596
83	813	168
84	713	543
85	296	433
86	772	298
87	480	562
88	64	406
89	93	19
90	197	37
91	132	961
92	439	260
93	68	943
94	424	867
95	63	768
96	539	21
97	89	261
98	890	271
99	450	429
100	314	585
101	971	880
102	122	538
103	620	444
104	326	319
105	339	457
106	887	451
107	909	8
108	215	239
109	318	583
110	794	302
111	577	329
112	72	972
113	362	40
114	868	979
115	190	198
116	203	130
117	614	203
118	681	822
119	549	305
120	300	956
121	47	515
122	990	949
123	506	585
124	672	979
125	842	468
126	543	222
127	5	333
128	801	225
129	545	440
130	414	281
131	603	373
132	882	389
133	718	756
134	110	128
135	439	665
136	368	613
137	14	411
138	465	357
139	530	497
140	734	654
141	13	536
142	337	308
143	190	565
144	824	722
145	322	219
146	750	612
147	762	701
148	135	151
149	339	419
150	897	327
151	751	458
152	600	148
153	756	573
154	378	59
155	466	71
156	416	781
157	684	260
158	753	194
159	956	51
160	802	429
161	621	846
162	515	626
163	113	967
164	937	587
165	350	835
166	176	660
167	389	358
168	28	813
169	979	987
170	976	506
171	533	384
172	564	663
173	704	455
174	668	102
175	880	777
176	493	565
177	63	794
178	123	739
179	39	28
180	205	792
181	807	270
182	358	706
183	230	764
184	937	34
185	401	748
186	884	843
187	841	907
188	189	444
189	488	128
190	195	780
191	814	747
192	360	12
193	562	542
194	107	946
195	721	881
196	980	146
197	602	234
198	793	882
199	532	826
200	952	365
201	937	343
202	698	784
203	94	42
204	881	313
205	621	92
206	635	100
207	451	863
208	617	928
209	885	538
210	256	939
211	416	179
212	532	681
213	208	16
214	954	465
215	229	722
216	912	275
217	638	504
218	629	139
219	857	526
220	196	430
221	917	438
222	216	329
223	788	566
224	400	665
225	79	223
226	231	222
227	970	407
228	888	412
229	941	347
230	303	487
231	73	819
232	438	86
233	827	111
234	99	264
235	316	111
236	629	513
237	717	513
238	871	56
239	864	322
240	611	557
241	716	279
242	506	490
243	543	18
244	696	506
245	275	238
246	635	457
247	223	948
248	873	973
249	747	51
250	241	558
251	338	170
252	493	371
253	169	17
254	493	349
255	638	331
256	567	969
257	670	643
258	737	781
259	795	282
260	441	41
261	187	795
262	551	927
263	792	694
264	348	864
265	701	188
266	169	140
267	32	717
268	151	13
269	167	910
270	709	844
271	662	76
272	334	166
273	727	535
274	613	553
275	878	114
276	727	475
277	249	664
278	322	991
279	440	374
280	383	999
281	361	178
282	925	174
283	349	619
284	381	732
285	859	612
286	294	662
287	454	397
288	267	58
289	688	783
290	265	731
291	553	869
292	1	933
293	6	743
294	8	778
295	212	446
296	915	842
297	379	669
298	975	763
299	810	741
300	226	730
301	877	649
302	18	493
303	193	615
304	310	43
305	755	96
306	746	356
307	249	580
308	189	689
309	543	134
310	689	294
311	366	351
312	931	778
313	448	333
314	963	598
315	608	76
316	245	903
317	221	833
318	167	544
319	258	333
320	620	297
321	890	239
322	962	897
323	601	78
324	283	702
325	702	148
326	700	60
327	19	377
328	286	402
329	957	111
330	832	427
331	867	75
332	269	829
333	324	301
334	171	97
335	527	456
336	698	340
337	571	599
338	538	575
339	890	282
340	34	113
341	636	0
342	543	553
343	90	731
344	44	459
345	122	405
346	766	928
347	658	961
348	256	146
349	218	324
350	18	461
351	805	777
352	930	349
353	592	42
354	466	972
355	416	533
356	396	740
357	407	876
358	792	582
359	279	575
360	724	251
361	447	310
362	440	379
363	257	612
364	118	172
365	944	787
366	347	925
367	869	509
368	929	231
369	483	765
370	873	799
371	162	792
372	897	76
373	696	94
374	72	878
375	990	370
376	99	209
377	734	818
378	820	794
379	471	273
380	595	945
381	856	933
382	37	345
383	992	809
384	28	82
385	814	354
386	633	36
387	153	747
388	619	910
389	701	586
390	660	352
391	732	40
392	188	378
393	43	853
394	577	451
395	116	178
396	627	349
397	776	959
398	752	944
399	55	501
400	546	821
401	413	4
402	498	679
403	995	294
404	435	38
405	195	211
406	766	77
407	440	18
408	972	513
409	452	355
410	456	520
411	35	510
412	180	423
413	445	498
414	786	914
415	94	783
416	837	149
417	846	201
418	262	938
419	623	982
420	332	835
421	25	623
422	763	355
423	951	957
424	894	670
425	949	113
426	893	612
427	856	840
428	298	448
429	169	257
430	285	787
431	875	268
432	987	316
433	778	76
434	179	225
435	227	549
436	160	96
437	549	47
438	844	283
439	383	772
440	434	681
441	597	812
442	246	424
443	572	128
444	238	260
445	852	452
446	418	811
447	816	193
448	17	415
449	804	681
450	673	965
451	962	436
452	777	526
453	654	531
454	424	216
455	265	903
456	311	533
457	624	670
458	841	162
459	489	789
460	647	262
461	638	211
462	361	739
463	87	895
464	161	38
465	266	484
466	89	117
467	447	602
468	646	826
469	256	544
470	52	547
471	641	725
472	94	292
473	159	74
474	664	261
475	138	539
476	828	59
477	478	769
478	251	774
479	81	505
480	242	983
481	780	233
482	918	117
483	904	638
484	710	84
485	281	814
486	988	197
487	697	955
488	769	542
489	954	356
490	498	468
491	165	888
492	148	196
493	716	596
494	82	53
495	909	143
496	389	723
497	420	121
498	855	435
499	930	305
500	644	882
501	499	330
DEMAND_SECTION
1	0
2	2
3	1
4	6
5	1
6	4
7	2
8	3
9	8
10	8
11	9
12	8
13	3
14	8
15	3
16	5
17	4
18	6
19	8
20	9
21	9
22	3
23	2
24	7
25	1
26	3
27	8
28	9
29	2
30	7
31	8
32	3
33	8
34	5
35	2
36	9
37	5
38	9
39	1
40	3
41	3
42	9
43	9
44	8
45	7
46	9
47	4
48	5
49	9
50	3
51	6
52	7
53	8
54	9
55	9
56	5
57	6
58	7
59	2
60	1
61	9
62	2
63	6
64	6
65	2
66	5
67	2
68	3
69	6
70	6
71	7
72	5
73	1
74	6
75	9
76	6
77	7
78	8
79	6
80	9
81	9
82	2
83	6
84	5
85	4
86	7
87	5
88	3
89	6
90	1
91	5
92	1
93	9
94	5
95	1
96	8
97	9
98	7
99	2
100	9
101	2
102	3
103	3
104	8
105	9
106	5
107	4
108	3
109	9
110	3
111	3
112	7
113	6
114	4
115	2
116	9
117	2
118	6
119	3
120	2
121	4
122	7
123	4
124	6
125	9
126	2
127	8
128	9
129	8
130	3
131	1
132	7
133	9
134	1
135	1
136	9
137	8
138	2
139	6
140	2
141	7
142	9
143	2
144	9
145	5
146	7
147	7
148	5
149	9
150	9
151	1
152	6
153	1
154	9
155	3
156	4
157	7
158	2
159	3
160	7
161	7
162	2
163	4
164	7
165	6
166	7
167	1
168	5
169	2
170	5
171	4
172	2
173	8
174	1
175	9
176	1
177	1
178	7
179	7
180	2
181	5
182	8
183	8
184	3
185	5
186	8
187	6
188	3
189	7
190	3
191	2
192	9
193	9
194	4
195	3
196	2
197	1
198	5
199	6
200	1
201	6
202	7
203	4
204	4
205	7
206	1
207	1
208	7
209	9
210	1
211	3
212	1
213	5
214	6
215	6
216	7
217	2
218	1
219	8
220	6
221	3
222	3
223	1
224	4
225	6
226	8
227	4
228	7
229	5
230	8
231	7
232	3
233	5
234	9
235	3
236	4
237	4
238	7
239	1
240	8
241	8
242	1
243	8
244	1
245	5
246	8
247	6
248	7
249	2
250	4
251	2
252	6
253	9
254	5
255	4
256	6
257	1
258	3
259	9
260	3
261	2
262	3
263	3
264	2
265	1
266	9
267	2
268	4
269	5
270	5
271	7
272	2
273	6
274	9
275	1
276	2
277	3
278	8
279	6
280	2
281	1
282	4
283	7
284	9
285	2
286	6
287	4
288	6
289	7
290	5
291	7
292	5
293	3
294	7
295	2
296	9
297	1
298	3
299	9
300	4
301	1
302	4
303	1
304	4
305	8
306	3
307	1
308	5
309	7
310	3
311	8
312	1
313	4
314	1
315	2
316	9
317	5
318	5
319	2
320	8
321	8
322	3
323	5
324	7
325	5
326	2
327	8
328	7
329	3
330	8
331	1
332	2
333	1
334	8
335	4
336	4
337	5
338	4
339	5
340	9
341	2
342	6
343	8
344	8
345	7
346	9
347	2
348	2
349	8
350	2
351	1
352	5
353	3
354	7
355	9
356	6
357	7
358	9
359	2
360	3
361	7
362	3
363	8
364	8
365	4
366	3
367	8
368	3
369	3
370	3
371	1
372	6
373	7
374	4
375	8
376	9
377	5
378	6
379	8
380	4
381	8
382	4
383	7
384	2
385	5
386	3
387	4
388	2
389	2
390	6
391	1
392	6
393	7
394	9
395	3
396	8
397	9
398	7
399	9
400	3
401	4
402	1
403	6
404	3
405	3
406	3
407	3
408	6
409	5
410	3
411	9
412	9
413	6
414	8
415	3
416	4
417	3
418	6
419	2
420	2
421	5
422	4
423	7
424	1
425	9
426	9
427	5
428	3
429	9
430	3
431	7
432	4
433	6
434	8
435	5
436	7
437	7
438	2
439	2
440	8
441	9
442	3
443	8
444	5
445	4
446	9
447	4
448	6
449	8
450	2
451	3
452	8
453	9
454	5
455	4
456	3
457	7
458	7
459	4
460	1
461	3
462	5
463	4
464	7
465	3
466	5
467	7
468	9
469	7
470	8
471	3
472	1
473	5
474	8
475	1
476	4
477	5
478	2
479	7
480	5
481	6
482	1
483	8
484	9
485	3
486	7
487	6
488	4
489	2
490	4
491	8
492	3
493	3
494	6
495	9
496	1
497	3
498	1
499	9
500	6
501	9
DEPOT_SECTION
1
-1
EOF
