NAME : n501-0011
COMMENT : "Generated by pyvrp_manuel (OVRPL)"
TYPE : OVRPL
DIMENSION : 501
EDGE_WEIGHT_TYPE : EUC_2D
CAPACITY : 100
VEHICLES : 500
OPEN_ROUTE : YES
DISTANCE : 3000
NODE_COORD_SECTION
1	181	715
2	652	663
3	472	324
4	400	544
5	329	952
6	881	907
7	709	131
8	785	746
9	473	1
10	383	359
11	428	510
12	80	401
13	877	78
14	820	263
15	606	915
16	500	970
17	15	320
18	396	384
19	746	42
20	790	311
21	554	165
22	523	892
23	254	167
24	651	898
25	234	880
26	523	200
27	732	958
28	575	186
29	968	789
30	256	580
31	902	154
32	15	420
33	644	886
34	411	585
35	603	546
36	706	521
37	550	891
38	925	659
39	764	990
40	697	325
41	447	591
42	949	962
43	431	445
44	829	279
45	531	988
46	714	581
47	946	757
48	544	436
49	925	483
50	638	841
51	275	421
52	870	214
53	364	874
54	352	23
55	620	466
56	805	991
57	995	672
58	58	724
59	999	139
60	953	960
61	765	675
62	667	456
63	12	777
64	958	842
65	502	811
66	327	230
67	956	895
68	21	84
69	240	795
70	68	172
71	303	251
72	138	977
73	514	80
74	780	452
75	674	223
76	29	760
77	931	172
78	449	22
79	273	673
80	965	239
81	902	881
82	804	454
83	672	490
84	900	241
85	157	550
86	460	74
87	46	322
88	251	306
89	227	274
90	3	278
91	773	594
92	175	320
93	371	945
94	340	295
95	812	713
96	714	712
97	167	19
98	753	278
99	954	751
100	275	736
101	260	784
102	363	545
103	403	707
104	731	554
105	57	14
106	360	79
107	220	377
108	972	763
109	878	44
110	168	634
111	984	917
112	605	245
113	368	421
114	434	104
115	774	827
116	24	814
117	616	301
118	586	312
119	855	634
120	234	138
121	196	244
122	441	833
123	724	745
124	966	210
125	293	956
126	934	212
127	285	402
128	420	917
129	114	430
130	214	399
131	708	838
132	69	520
133	934	576
134	261	947
135	418	383
136	80	4
137	525	185
138	69	832
139	703	402
140	916	173
141	621	148
142	839	237
143	251	959
144	903	804
145	21	373
146	834	222
147	854	411
148	794	426
149	235	537
150	676	977
151	181	752
152	257	212
153	450	300
154	899	305
155	495	401
156	638	827
157	374	308
158	979	409
159	739	987
160	309	637
161	601	171
162	83	349
163	163	761
164	815	479
165	831	676
166	61	582
167	960	670
168	338	439
169	95	187
170	932	696
171	441	945
172	713	325
173	399	910
174	790	894
175	177	911
176	913	208
177	532	395
178	713	655
179	856	912
180	655	879
181	353	524
182	536	406
183	961	424
184	693	620
185	275	376
186	465	39
187	563	525
188	965	85
189	864	641
190	503	454
191	262	467
192	795	33
193	347	438
194	434	544
195	42	833
196	105	83
197	546	975
198	740	816
199	918	153
200	338	889
201	413	802
202	468	542
203	379	792
204	637	122
205	173	237
206	57	278
207	258	353
208	316	7
209	327	234
210	784	10
211	373	875
212	783	313
213	199	249
214	208	53
215	303	540
216	724	367
217	12	921
218	82	90
219	85	631
220	979	848
221	256	503
222	302	140
223	775	960
224	819	70
225	266	746
226	267	332
227	490	166
228	642	805
229	537	225
230	96	63
231	404	926
232	610	741
233	725	462
234	789	173
235	701	425
236	63	770
237	142	702
238	607	596
239	935	69
240	800	355
241	820	809
242	823	99
243	836	985
244	468	132
245	540	686
246	842	906
247	8	92
248	633	911
249	260	649
250	223	504
251	892	845
252	721	574
253	478	913
254	278	452
255	215	281
256	348	682
257	883	287
258	100	344
259	890	758
260	442	931
261	277	845
262	631	652
263	36	889
264	280	765
265	546	62
266	549	956
267	849	270
268	774	101
269	641	184
270	165	319
271	140	158
272	388	702
273	834	838
274	235	261
275	710	998
276	668	105
277	748	171
278	47	563
279	383	798
280	330	737
281	993	397
282	763	256
283	934	218
284	69	744
285	964	118
286	608	161
287	989	555
288	490	841
289	488	85
290	674	271
291	131	496
292	115	921
293	546	753
294	451	100
295	844	401
296	348	28
297	503	897
298	782	306
299	352	564
300	596	467
301	628	489
302	868	949
303	635	256
304	466	856
305	958	232
306	852	53
307	633	420
308	930	229
309	458	100
310	482	996
311	464	501
312	313	67
313	409	866
314	50	441
315	782	339
316	970	16
317	881	987
318	934	82
319	539	840
320	127	811
321	88	486
322	536	681
323	899	41
324	811	215
325	398	987
326	510	405
327	292	244
328	426	432
329	391	535
330	175	831
331	163	769
332	937	78
333	661	542
334	92	435
335	789	302
336	899	801
337	533	158
338	9	874
339	712	595
340	430	54
341	237	24
342	272	206
343	604	885
344	191	734
345	927	895
346	154	854
347	838	968
348	753	257
349	559	421
350	685	515
351	781	525
352	104	637
353	342	700
354	345	406
355	419	883
356	577	266
357	644	211
358	526	674
359	515	541
360	529	457
361	496	506
362	367	91
363	193	660
364	261	823
365	493	446
366	362	200
367	517	845
368	954	710
369	880	704
370	783	443
371	446	356
372	910	99
373	637	406
374	704	756
375	672	574
376	216	955
377	383	720
378	320	798
379	424	210
380	470	75
381	496	698
382	998	621
383	127	786
384	478	190
385	290	471
386	764	662
387	234	567
388	793	543
389	105	998
390	979	804
391	688	922
392	186	605
393	484	876
394	484	835
395	536	577
396	519	627
397	875	343
398	254	368
399	347	350
400	222	154
401	549	277
402	309	910
403	513	526
404	877	851
405	99	473
406	29	667
407	854	752
408	435	484
409	252	382
410	741	251
411	345	884
412	298	578
413	364	519
414	310	685
415	311	960
416	23	104
417	490	701
418	975	4
419	618	316
420	722	653
421	411	150
422	995	262
423	315	734
424	228	911
425	168	620
426	490	180
427	907	436
428	732	402
429	912	101
430	766	600
431	837	442
432	776	542
433	801	333
434	815	361
435	281	576
436	298	483
437	434	548
438	185	63
439	852	590
440	925	374
441	147	164
442	811	930
443	971	49
444	715	634
445	100	203
446	100	897
447	517	515
448	417	650
449	216	20
450	333	419
451	623	767
452	45	444
453	500	786
454	358	958
455	919	648
456	246	736
457	249	718
458	198	429
459	865	441
460	544	592
461	806	971
462	414	20
463	720	347
464	983	560
465	564	246
466	453	537
467	574	492
468	432	229
469	455	404
470	341	42
471	759	814
472	980	603
473	221	370
474	479	291
475	56	110
476	581	944
477	425	905
478	489	419
479	9	486
480	202	723
481	420	867
482	175	394
483	810	562
484	643	849
485	817	912
486	725	615
487	953	277
488	258	298
489	110	661
490	924	374
491	949	173
492	576	450
493	887	909
494	317	779
495	401	550
496	711	994
497	745	241
498	130	589
499	118	762
500	392	939
501	654	412
DEMAND_SECTION
1	0
2	8
3	5
4	8
5	5
6	1
7	1
8	9
9	5
10	2
11	2
12	8
13	7
14	4
15	3
16	2
17	6
18	5
19	3
20	3
21	8
22	7
23	4
24	6
25	8
26	4
27	3
28	9
29	9
30	3
31	3
32	8
33	2
34	2
35	6
36	9
37	8
38	8
39	4
40	9
41	7
42	4
43	7
44	5
45	6
46	7
47	9
48	9
49	4
50	8
51	2
52	9
53	1
54	3
55	4
56	5
57	9
58	2
59	7
60	2
61	6
62	9
63	7
64	9
65	8
66	8
67	6
68	9
69	2
70	3
71	9
72	9
73	9
74	5
75	8
76	6
77	4
78	3
79	8
80	6
81	1
82	4
83	5
84	3
85	5
86	6
87	8
88	7
89	4
90	6
91	3
92	2
93	3
94	7
95	9
96	8
97	4
98	9
99	2
100	9
101	9
102	8
103	6
104	8
105	9
106	6
107	5
108	6
109	3
110	8
111	6
112	4
113	5
114	7
115	6
116	6
117	3
118	1
119	4
120	7
121	4
122	3
123	1
124	8
125	1
126	5
127	5
128	9
129	6
130	9
131	7
132	2
133	8
134	1
135	3
136	1
137	7
138	3
139	2
140	2
141	9
142	1
143	7
144	7
145	9
146	4
147	7
148	9
149	4
150	2
151	4
152	9
153	5
154	6
155	9
156	7
157	4
158	3
159	7
160	1
161	4
162	9
163	5
164	9
165	1
166	6
167	2
168	2
169	4
170	9
171	5
172	9
173	2
174	1
175	3
176	2
177	1
178	7
179	4
180	9
181	2
182	7
183	9
184	5
185	3
186	5
187	9
188	1
189	9
190	3
191	9
192	3
193	7
194	1
195	8
196	6
197	9
198	5
199	8
200	3
201	4
202	4
203	3
204	2
205	7
206	1
207	6
208	8
209	6
210	6
211	3
212	6
213	7
214	1
215	8
216	7
217	6
218	5
219	7
220	9
221	5
222	4
223	6
224	8
225	6
226	9
227	2
228	6
229	2
230	2
231	1
232	1
233	2
234	4
235	4
236	7
237	2
238	3
239	9
240	1
241	2
242	7
243	2
244	4
245	1
246	1
247	9
248	3
249	4
250	2
251	6
252	9
253	6
254	3
255	6
256	5
257	2
258	1
259	5
260	7
261	7
262	6
263	5
264	6
265	7
266	5
267	5
268	7
269	3
270	3
271	4
272	8
273	7
274	1
275	2
276	5
277	6
278	3
279	5
280	5
281	4
282	5
283	1
284	5
285	6
286	1
287	6
288	3
289	4
290	1
291	8
292	2
293	8
294	2
295	9
296	7
297	1
298	8
299	8
300	4
301	4
302	1
303	7
304	5
305	3
306	4
307	7
308	7
309	8
310	4
311	4
312	8
313	1
314	9
315	5
316	9
317	9
318	1
319	9
320	8
321	2
322	7
323	4
324	3
325	9
326	3
327	3
328	6
329	4
330	1
331	1
332	3
333	4
334	8
335	8
336	5
337	4
338	8
339	5
340	2
341	2
342	2
343	6
344	4
345	8
346	3
347	3
348	9
349	8
350	6
351	3
352	9
353	8
354	9
355	1
356	3
357	4
358	4
359	2
360	4
361	6
362	5
363	9
364	2
365	6
366	9
367	3
368	9
369	5
370	4
371	5
372	3
373	5
374	9
375	5
376	3
377	1
378	7
379	3
380	4
381	5
382	5
383	1
384	6
385	8
386	4
387	9
388	8
389	1
390	7
391	3
392	2
393	4
394	7
395	7
396	5
397	4
398	2
399	9
400	1
401	8
402	9
403	3
404	6
405	3
406	1
407	2
408	3
409	8
410	5
411	9
412	2
413	8
414	6
415	3
416	2
417	3
418	6
419	1
420	8
421	3
422	9
423	8
424	3
425	6
426	5
427	5
428	9
429	3
430	8
431	3
432	6
433	4
434	9
435	5
436	6
437	4
438	4
439	6
440	4
441	7
442	7
443	9
444	2
445	4
446	4
447	5
448	5
449	5
450	4
451	8
452	9
453	1
454	8
455	2
456	4
457	4
458	1
459	3
460	6
461	1
462	6
463	9
464	5
465	1
466	6
467	5
468	3
469	9
470	2
471	1
472	8
473	8
474	8
475	6
476	2
477	5
478	7
479	9
480	3
481	6
482	5
483	8
484	3
485	4
486	4
487	7
488	6
489	7
490	3
491	4
492	9
493	1
494	6
495	7
496	7
497	8
498	3
499	4
500	4
501	2
DEPOT_SECTION
1
-1
EOF
