NAME : n501-0029
COMMENT : "Generated by pyvrp_manuel (OVRPL)"
TYPE : OVRPL
DIMENSION : 501
EDGE_WEIGHT_TYPE : EUC_2D
CAPACITY : 100
VEHICLES : 500
OPEN_ROUTE : YES
DISTANCE : 3000
NODE_COORD_SECTION
1	488	266
2	520	96
3	555	790
4	385	138
5	711	553
6	533	77
7	690	966
8	915	884
9	471	202
10	783	294
11	530	20
12	974	839
13	158	730
14	857	168
15	969	596
16	486	96
17	358	285
18	77	740
19	556	121
20	612	548
21	541	685
22	243	932
23	519	538
24	247	321
25	880	185
26	187	744
27	896	757
28	276	690
29	951	511
30	802	851
31	883	268
32	737	372
33	976	502
34	397	316
35	207	755
36	800	594
37	569	548
38	960	220
39	239	909
40	229	27
41	634	174
42	920	703
43	41	168
44	873	228
45	150	821
46	961	360
47	954	338
48	897	646
49	790	42
50	150	455
51	120	655
52	348	227
53	199	558
54	740	42
55	880	726
56	951	648
57	663	356
58	715	336
59	269	34
60	297	94
61	477	960
62	808	660
63	491	982
64	562	731
65	231	823
66	677	710
67	457	935
68	374	44
69	255	606
70	592	437
71	195	571
72	693	11
73	31	507
74	740	998
75	619	829
76	906	522
77	932	603
78	997	433
79	862	260
80	477	941
81	886	756
82	765	655
83	87	477
84	48	989
85	926	49
86	819	508
87	786	544
88	44	577
89	928	972
90	329	929
91	281	154
92	925	384
93	670	849
94	391	521
95	802	333
96	634	467
97	231	622
98	299	487
99	442	878
100	139	315
101	816	13
102	889	641
103	985	33
104	670	385
105	511	688
106	361	748
107	904	148
108	10	494
109	846	8
110	270	269
111	798	713
112	577	435
113	474	987
114	668	651
115	784	587
116	556	616
117	971	779
118	105	557
119	2	587
120	137	666
121	264	643
122	262	139
123	501	566
124	444	72
125	432	298
126	845	889
127	805	137
128	994	798
129	735	396
130	373	208
131	946	354
132	589	933
133	998	271
134	990	828
135	722	234
136	38	983
137	130	606
138	761	607
139	370	345
140	63	74
141	841	990
142	7	524
143	909	915
144	939	72
145	207	905
146	408	888
147	899	823
148	65	569
149	39	52
150	953	614
151	798	894
152	920	343
153	654	492
154	140	534
155	809	853
156	718	113
157	374	48
158	351	547
159	316	846
160	142	443
161	963	697
162	715	274
163	86	275
164	338	445
165	975	721
166	579	413
167	446	828
168	560	792
169	553	230
170	399	857
171	717	187
172	773	971
173	870	131
174	715	868
175	611	991
176	88	488
177	242	822
178	120	461
179	987	636
180	279	804
181	394	320
182	415	661
183	177	48
184	99	555
185	599	42
186	295	195
187	974	838
188	804	915
189	492	355
190	326	360
191	128	815
192	642	610
193	856	487
194	37	969
195	40	566
196	280	383
197	125	168
198	980	429
199	98	724
200	874	16
201	876	234
202	121	625
203	775	74
204	92	760
205	680	530
206	795	330
207	611	190
208	269	63
209	144	852
210	236	738
211	369	483
212	873	231
213	933	207
214	248	219
215	566	713
216	912	137
217	57	17
218	231	108
219	801	951
220	163	178
221	980	195
222	956	419
223	293	365
224	602	666
225	791	386
226	985	155
227	82	928
228	107	366
229	709	497
230	899	399
231	90	734
232	972	225
233	352	659
234	399	25
235	126	224
236	634	799
237	494	526
238	762	620
239	748	715
240	192	77
241	777	58
242	388	235
243	470	130
244	619	93
245	649	377
246	147	485
247	750	925
248	942	671
249	818	60
250	2	107
251	618	298
252	995	325
253	732	62
254	111	140
255	511	939
256	171	555
257	322	570
258	17	660
259	80	678
260	115	114
261	83	7
262	827	873
263	952	985
264	333	354
265	319	501
266	271	455
267	563	960
268	397	293
269	802	407
270	977	899
271	437	360
272	750	49
273	343	142
274	436	755
275	950	360
276	593	360
277	555	422
278	795	759
279	283	811
280	766	578
281	283	605
282	728	562
283	511	729
284	368	224
285	191	565
286	705	125
287	4	806
288	283	56
289	429	848
290	362	972
291	910	552
292	636	706
293	254	679
294	996	53
295	63	570
296	618	570
297	877	38
298	669	775
299	727	33
300	674	901
301	829	285
302	154	681
303	705	675
304	79	956
305	576	905
306	493	900
307	659	503
308	269	654
309	619	387
310	942	100
311	377	214
312	793	610
313	882	305
314	941	881
315	840	754
316	868	524
317	50	23
318	524	965
319	676	127
320	85	833
321	656	832
322	217	249
323	946	294
324	416	716
325	51	357
326	877	762
327	502	218
328	871	472
329	731	111
330	712	949
331	950	305
332	660	954
333	633	534
334	353	326
335	990	654
336	447	943
337	980	365
338	475	774
339	39	192
340	834	711
341	324	907
342	789	505
343	315	218
344	743	804
345	748	798
346	221	50
347	801	261
348	943	878
349	446	508
350	262	578
351	601	386
352	44	189
353	240	820
354	131	984
355	247	792
356	574	569
357	477	427
358	439	308
359	775	22
360	279	995
361	81	322
362	918	279
363	497	59
364	229	667
365	273	628
366	199	926
367	888	374
368	629	966
369	458	680
370	89	760
371	428	24
372	37	723
373	536	276
374	679	560
375	3	917
376	757	259
377	379	324
378	644	521
379	930	398
380	746	631
381	352	948
382	96	485
383	225	706
384	352	120
385	619	644
386	482	604
387	748	772
388	690	638
389	102	11
390	640	662
391	612	486
392	206	497
393	226	327
394	450	446
395	410	323
396	118	254
397	83	530
398	909	378
399	450	506
400	416	175
401	783	785
402	719	632
403	949	61
404	145	703
405	648	232
406	203	622
407	432	769
408	112	975
409	155	839
410	401	709
411	320	612
412	998	911
413	407	237
414	150	426
415	391	428
416	129	844
417	482	366
418	619	266
419	944	144
420	508	482
421	663	576
422	93	407
423	616	611
424	178	80
425	558	304
426	845	990
427	411	880
428	596	380
429	108	459
430	185	853
431	357	777
432	354	851
433	919	783
434	605	914
435	100	422
436	302	171
437	962	736
438	746	360
439	927	391
440	433	876
441	209	934
442	170	368
443	768	908
444	945	959
445	364	356
446	636	164
447	247	913
448	690	679
449	636	180
450	685	985
451	482	134
452	276	809
453	767	178
454	654	613
455	257	487
456	837	592
457	989	949
458	446	666
459	324	407
460	824	762
461	896	568
462	269	703
463	633	924
464	144	212
465	73	835
466	626	950
467	436	482
468	947	49
469	85	531
470	127	726
471	563	884
472	711	164
473	104	96
474	18	803
475	688	694
476	339	273
477	21	68
478	869	594
479	524	640
480	377	959
481	969	717
482	486	295
483	967	398
484	177	884
485	583	963
486	579	298
487	107	781
488	24	134
489	707	446
490	91	718
491	542	68
492	382	67
493	450	55
494	247	463
495	318	503
496	447	760
497	95	116
498	45	198
499	547	141
500	585	970
501	419	620
DEMAND_SECTION
1	0
2	9
3	7
4	4
5	9
6	7
7	5
8	5
9	6
10	2
11	6
12	2
13	1
14	2
15	5
16	4
17	7
18	8
19	9
20	3
21	5
22	3
23	6
24	5
25	1
26	8
27	2
28	6
29	2
30	7
31	9
32	4
33	6
34	2
35	9
36	8
37	2
38	3
39	5
40	3
41	8
42	5
43	8
44	6
45	3
46	5
47	3
48	8
49	1
50	9
51	8
52	4
53	8
54	5
55	9
56	3
57	3
58	6
59	1
60	2
61	8
62	1
63	8
64	7
65	6
66	5
67	4
68	8
69	4
70	3
71	3
72	3
73	6
74	5
75	4
76	3
77	8
78	1
79	2
80	5
81	7
82	8
83	6
84	1
85	2
86	1
87	8
88	7
89	5
90	2
91	1
92	7
93	7
94	7
95	7
96	8
97	4
98	4
99	1
100	4
101	7
102	8
103	6
104	2
105	6
106	3
107	6
108	1
109	7
110	7
111	5
112	8
113	5
114	8
115	3
116	7
117	5
118	1
119	6
120	8
121	7
122	7
123	5
124	1
125	6
126	7
127	6
128	4
129	5
130	9
131	1
132	7
133	2
134	1
135	7
136	6
137	9
138	4
139	9
140	9
141	8
142	3
143	3
144	6
145	7
146	1
147	9
148	7
149	9
150	5
151	4
152	2
153	2
154	8
155	1
156	1
157	8
158	8
159	7
160	5
161	5
162	7
163	1
164	8
165	8
166	1
167	4
168	2
169	6
170	6
171	4
172	7
173	9
174	6
175	5
176	6
177	1
178	5
179	6
180	2
181	1
182	8
183	6
184	2
185	4
186	5
187	3
188	9
189	2
190	9
191	6
192	5
193	4
194	7
195	3
196	4
197	3
198	2
199	1
200	2
201	7
202	6
203	1
204	6
205	2
206	4
207	7
208	9
209	9
210	9
211	7
212	5
213	4
214	9
215	7
216	8
217	4
218	1
219	7
220	9
221	8
222	1
223	2
224	1
225	3
226	2
227	1
228	9
229	6
230	2
231	4
232	5
233	7
234	6
235	7
236	3
237	1
238	9
239	6
240	4
241	1
242	9
243	7
244	3
245	6
246	5
247	1
248	9
249	5
250	5
251	6
252	6
253	5
254	5
255	4
256	3
257	9
258	5
259	7
260	6
261	5
262	9
263	6
264	9
265	6
266	3
267	3
268	3
269	6
270	2
271	8
272	3
273	4
274	5
275	3
276	1
277	6
278	4
279	6
280	2
281	7
282	4
283	6
284	2
285	9
286	2
287	4
288	8
289	1
290	2
291	8
292	3
293	9
294	2
295	7
296	1
297	5
298	2
299	3
300	7
301	7
302	5
303	3
304	7
305	2
306	1
307	5
308	2
309	1
310	5
311	9
312	8
313	9
314	9
315	4
316	7
317	9
318	7
319	2
320	4
321	2
322	9
323	3
324	5
325	2
326	2
327	8
328	8
329	7
330	5
331	9
332	7
333	2
334	2
335	5
336	1
337	6
338	2
339	7
340	2
341	7
342	9
343	9
344	7
345	7
346	1
347	4
348	7
349	3
350	1
351	1
352	2
353	6
354	9
355	9
356	1
357	3
358	9
359	4
360	1
361	8
362	4
363	1
364	3
365	7
366	6
367	3
368	7
369	3
370	1
371	7
372	6
373	7
374	9
375	4
376	2
377	4
378	2
379	6
380	8
381	2
382	2
383	1
384	7
385	4
386	1
387	4
388	6
389	3
390	5
391	5
392	8
393	8
394	6
395	9
396	6
397	2
398	1
399	4
400	3
401	6
402	8
403	9
404	1
405	8
406	2
407	6
408	5
409	7
410	6
411	2
412	8
413	2
414	7
415	6
416	5
417	8
418	5
419	9
420	9
421	5
422	8
423	6
424	4
425	9
426	3
427	2
428	1
429	7
430	9
431	6
432	5
433	5
434	7
435	7
436	8
437	7
438	8
439	5
440	4
441	6
442	9
443	9
444	3
445	4
446	2
447	1
448	1
449	7
450	5
451	2
452	7
453	2
454	5
455	4
456	4
457	7
458	4
459	5
460	4
461	3
462	9
463	4
464	2
465	3
466	8
467	1
468	4
469	4
470	3
471	3
472	8
473	5
474	9
475	6
476	7
477	4
478	8
479	5
480	6
481	6
482	2
483	4
484	4
485	7
486	2
487	9
488	2
489	3
490	5
491	3
492	2
493	7
494	2
495	6
496	2
497	7
498	2
499	5
500	6
501	3
DEPOT_SECTION
1
-1
EOF
