NAME : n501-0018
COMMENT : "Generated by pyvrp_manuel (OVRPL)"
TYPE : OVRPL
DIMENSION : 501
EDGE_WEIGHT_TYPE : EUC_2D
CAPACITY : 100
VEHICLES : 500
OPEN_ROUTE : YES
DISTANCE : 3000
NODE_COORD_SECTION
1	354	995
2	695	805
3	115	465
4	812	311
5	44	418
6	998	729
7	635	633
8	274	691
9	363	211
10	104	501
11	452	257
12	182	821
13	630	546
14	965	776
15	559	808
16	605	974
17	402	288
18	271	66
19	347	819
20	982	821
21	114	365
22	610	566
23	592	172
24	866	517
25	340	727
26	131	653
27	622	299
28	385	565
29	338	984
30	500	797
31	416	742
32	751	358
33	583	545
34	506	666
35	980	349
36	973	143
37	366	60
38	106	82
39	873	986
40	426	520
41	3	767
42	160	488
43	944	470
44	586	978
45	947	493
46	956	366
47	433	294
48	343	829
49	962	640
50	753	440
51	2	243
52	497	99
53	311	431
54	853	594
55	659	846
56	662	937
57	478	586
58	908	380
59	693	782
60	541	947
61	129	681
62	229	872
63	211	567
64	847	589
65	187	346
66	596	924
67	767	851
68	581	258
69	602	594
70	439	492
71	889	801
72	655	389
73	489	564
74	235	52
75	411	350
76	857	619
77	970	879
78	778	209
79	440	868
80	205	211
81	125	297
82	611	201
83	327	855
84	455	517
85	599	458
86	953	595
87	118	785
88	189	342
89	859	388
90	535	111
91	848	556
92	615	150
93	894	64
94	366	802
95	315	6
96	436	93
97	225	500
98	635	426
99	772	977
100	67	246
101	251	790
102	530	27
103	885	295
104	124	746
105	720	77
106	119	879
107	109	429
108	312	435
109	739	506
110	199	455
111	795	910
112	110	709
113	886	779
114	808	834
115	141	323
116	31	239
117	938	401
118	922	29
119	124	182
120	198	402
121	889	385
122	134	933
123	861	536
124	764	515
125	166	608
126	512	569
127	657	157
128	66	220
129	84	866
130	106	262
131	223	20
132	488	349
133	252	49
134	183	867
135	216	20
136	266	624
137	418	639
138	855	164
139	682	201
140	433	198
141	395	514
142	279	718
143	315	53
144	9	675
145	917	144
146	146	592
147	694	280
148	681	256
149	873	484
150	960	488
151	482	323
152	681	948
153	715	819
154	254	920
155	670	880
156	102	621
157	989	322
158	85	382
159	363	79
160	60	449
161	106	591
162	952	553
163	1	397
164	127	838
165	873	385
166	585	671
167	427	640
168	304	572
169	687	22
170	82	291
171	60	867
172	182	833
173	983	809
174	906	235
175	780	370
176	682	750
177	955	618
178	358	987
179	95	497
180	504	209
181	871	31
182	382	654
183	157	177
184	868	904
185	92	270
186	547	183
187	46	392
188	667	221
189	911	677
190	317	803
191	38	870
192	390	326
193	76	906
194	762	925
195	793	166
196	611	148
197	499	122
198	323	427
199	973	608
200	717	756
201	905	931
202	402	756
203	678	726
204	818	738
205	594	445
206	701	297
207	140	193
208	525	536
209	909	659
210	584	107
211	924	619
212	144	316
213	159	804
214	946	311
215	414	775
216	16	340
217	338	219
218	688	69
219	464	658
220	340	187
221	811	648
222	943	73
223	568	522
224	372	478
225	905	842
226	750	830
227	149	283
228	264	72
229	45	817
230	886	953
231	504	73
232	1	967
233	569	108
234	597	193
235	327	668
236	523	269
237	961	223
238	798	91
239	69	314
240	731	176
241	290	633
242	657	172
243	278	634
244	695	52
245	769	146
246	158	459
247	676	657
248	389	193
249	822	931
250	666	172
251	288	139
252	647	570
253	292	991
254	609	13
255	455	618
256	34	942
257	245	281
258	786	300
259	421	450
260	819	985
261	618	545
262	909	886
263	223	557
264	297	363
265	626	748
266	244	873
267	167	139
268	101	418
269	189	571
270	960	29
271	452	805
272	553	177
273	33	821
274	700	872
275	148	965
276	898	995
277	253	326
278	280	195
279	520	391
280	528	185
281	727	986
282	409	822
283	921	394
284	454	152
285	330	666
286	709	672
287	810	638
288	826	682
289	358	380
290	5	9
291	62	422
292	301	834
293	519	531
294	163	266
295	390	269
296	587	529
297	419	861
298	331	822
299	278	408
300	305	628
301	244	590
302	430	740
303	772	799
304	297	318
305	228	413
306	55	624
307	260	875
308	331	995
309	595	88
310	930	968
311	85	462
312	429	611
313	10	389
314	621	637
315	540	515
316	210	339
317	793	120
318	310	145
319	471	288
320	46	274
321	845	60
322	892	446
323	868	330
324	844	894
325	713	900
326	103	182
327	491	735
328	322	563
329	593	254
330	373	863
331	22	288
332	6	519
333	734	360
334	650	984
335	38	223
336	740	725
337	819	826
338	502	199
339	399	28
340	436	384
341	764	559
342	87	364
343	574	189
344	143	435
345	378	699
346	220	594
347	349	625
348	415	265
349	851	655
350	990	814
351	745	987
352	35	912
353	112	90
354	170	265
355	587	567
356	610	3
357	491	596
358	633	654
359	545	29
360	93	629
361	92	804
362	358	818
363	930	724
364	962	553
365	114	549
366	16	511
367	572	430
368	892	39
369	639	601
370	283	296
371	976	9
372	69	977
373	434	789
374	50	405
375	734	824
376	988	522
377	365	310
378	178	92
379	570	600
380	378	690
381	993	567
382	873	232
383	610	670
384	423	283
385	596	870
386	843	313
387	277	129
388	854	454
389	589	436
390	214	680
391	401	680
392	463	512
393	162	897
394	81	137
395	787	13
396	847	720
397	213	749
398	624	248
399	37	130
400	39	327
401	230	568
402	950	608
403	570	599
404	605	892
405	624	67
406	393	821
407	768	583
408	738	380
409	699	671
410	412	837
411	192	290
412	713	94
413	111	500
414	378	225
415	427	926
416	450	355
417	541	253
418	499	150
419	298	223
420	732	855
421	632	945
422	581	698
423	616	421
424	950	534
425	768	976
426	525	553
427	643	298
428	247	220
429	712	287
430	465	708
431	932	322
432	270	292
433	643	20
434	833	575
435	725	411
436	315	430
437	655	716
438	986	668
439	955	662
440	116	804
441	39	805
442	203	774
443	231	908
444	329	795
445	50	748
446	508	396
447	224	193
448	820	341
449	985	329
450	769	238
451	839	216
452	547	443
453	410	386
454	864	523
455	270	335
456	879	422
457	0	12
458	885	80
459	781	790
460	724	415
461	918	351
462	822	100
463	54	271
464	564	405
465	377	311
466	514	613
467	530	186
468	881	937
469	19	537
470	205	634
471	429	70
472	207	374
473	618	981
474	308	818
475	424	52
476	255	503
477	957	580
478	544	897
479	728	647
480	44	877
481	329	478
482	98	662
483	353	534
484	91	950
485	811	848
486	243	639
487	684	323
488	19	909
489	147	740
490	975	142
491	17	602
492	219	878
493	280	844
494	63	599
495	219	903
496	165	309
497	547	405
498	388	204
499	704	507
500	303	904
501	173	89
DEMAND_SECTION
1	0
2	4
3	8
4	1
5	4
6	5
7	6
8	4
9	7
10	1
11	6
12	6
13	6
14	5
15	4
16	3
17	4
18	3
19	7
20	1
21	4
22	2
23	4
24	5
25	4
26	1
27	7
28	1
29	7
30	6
31	6
32	1
33	9
34	5
35	8
36	2
37	8
38	7
39	6
40	2
41	8
42	4
43	9
44	2
45	4
46	5
47	8
48	7
49	1
50	4
51	2
52	5
53	6
54	6
55	6
56	1
57	6
58	6
59	2
60	8
61	8
62	7
63	9
64	9
65	6
66	8
67	6
68	9
69	6
70	7
71	7
72	4
73	6
74	4
75	3
76	8
77	4
78	4
79	6
80	2
81	4
82	3
83	3
84	1
85	6
86	8
87	1
88	8
89	1
90	2
91	4
92	1
93	9
94	4
95	8
96	7
97	3
98	8
99	6
100	3
101	2
102	9
103	2
104	3
105	2
106	1
107	7
108	1
109	9
110	5
111	5
112	1
113	2
114	1
115	3
116	3
117	6
118	2
119	9
120	1
121	5
122	9
123	6
124	2
125	6
126	5
127	4
128	3
129	4
130	2
131	6
132	3
133	3
134	7
135	1
136	1
137	5
138	2
139	6
140	5
141	1
142	6
143	8
144	3
145	1
146	2
147	2
148	1
149	2
150	5
151	8
152	7
153	1
154	3
155	7
156	2
157	7
158	2
159	3
160	5
161	2
162	2
163	2
164	5
165	9
166	2
167	9
168	7
169	2
170	4
171	7
172	7
173	5
174	9
175	2
176	2
177	8
178	5
179	4
180	7
181	7
182	4
183	5
184	8
185	1
186	5
187	8
188	2
189	9
190	3
191	8
192	9
193	8
194	6
195	8
196	4
197	9
198	1
199	4
200	6
201	4
202	3
203	2
204	4
205	9
206	8
207	3
208	6
209	6
210	2
211	5
212	2
213	9
214	3
215	1
216	6
217	8
218	8
219	2
220	8
221	4
222	4
223	2
224	9
225	6
226	4
227	1
228	1
229	5
230	8
231	6
232	7
233	5
234	7
235	2
236	7
237	5
238	6
239	1
240	4
241	6
242	6
243	3
244	9
245	7
246	2
247	1
248	1
249	6
250	7
251	1
252	6
253	5
254	8
255	5
256	9
257	2
258	5
259	4
260	9
261	8
262	8
263	2
264	6
265	9
266	7
267	5
268	3
269	1
270	4
271	4
272	6
273	5
274	2
275	4
276	2
277	6
278	2
279	1
280	9
281	8
282	1
283	7
284	3
285	8
286	2
287	2
288	8
289	2
290	4
291	2
292	2
293	2
294	6
295	8
296	7
297	1
298	8
299	9
300	9
301	5
302	8
303	2
304	5
305	2
306	9
307	3
308	6
309	1
310	8
311	6
312	9
313	5
314	1
315	6
316	1
317	6
318	9
319	1
320	8
321	9
322	7
323	9
324	2
325	2
326	1
327	9
328	6
329	1
330	7
331	7
332	8
333	7
334	1
335	2
336	2
337	6
338	9
339	3
340	7
341	3
342	3
343	8
344	7
345	6
346	1
347	8
348	3
349	3
350	8
351	6
352	7
353	1
354	7
355	1
356	3
357	2
358	1
359	9
360	1
361	6
362	8
363	6
364	4
365	4
366	7
367	8
368	2
369	9
370	1
371	9
372	9
373	2
374	5
375	1
376	7
377	7
378	5
379	8
380	8
381	6
382	9
383	1
384	1
385	9
386	1
387	4
388	4
389	9
390	9
391	5
392	8
393	8
394	6
395	7
396	8
397	7
398	9
399	5
400	8
401	6
402	5
403	1
404	7
405	7
406	5
407	7
408	9
409	5
410	1
411	4
412	2
413	3
414	9
415	7
416	8
417	7
418	9
419	5
420	3
421	8
422	6
423	5
424	8
425	9
426	9
427	4
428	3
429	9
430	8
431	6
432	6
433	2
434	3
435	7
436	3
437	1
438	3
439	3
440	3
441	3
442	6
443	3
444	2
445	3
446	4
447	9
448	8
449	5
450	4
451	5
452	9
453	1
454	1
455	8
456	6
457	7
458	6
459	4
460	9
461	8
462	5
463	9
464	4
465	6
466	9
467	2
468	8
469	5
470	1
471	9
472	4
473	1
474	3
475	2
476	4
477	1
478	9
479	9
480	7
481	3
482	6
483	3
484	9
485	2
486	7
487	8
488	8
489	4
490	5
491	9
492	7
493	2
494	1
495	8
496	4
497	3
498	7
499	2
500	4
501	2
DEPOT_SECTION
1
-1
EOF
