NAME : n501-0031
COMMENT : "Generated by pyvrp_manuel (OVRPL)"
TYPE : OVRPL
DIMENSION : 501
EDGE_WEIGHT_TYPE : EUC_2D
CAPACITY : 100
VEHICLES : 500
OPEN_ROUTE : YES
DISTANCE : 3000
NODE_COORD_SECTION
1	99	918
2	986	662
3	462	563
4	531	936
5	574	904
6	775	428
7	349	107
8	226	459
9	159	138
10	280	134
11	218	600
12	337	978
13	701	573
14	658	135
15	556	708
16	63	152
17	59	642
18	383	640
19	758	438
20	421	923
21	751	941
22	799	596
23	326	306
24	843	392
25	900	420
26	734	971
27	665	377
28	473	497
29	13	852
30	63	921
31	697	697
32	683	559
33	849	726
34	888	599
35	410	550
36	626	196
37	446	741
38	400	688
39	19	612
40	504	580
41	506	959
42	799	478
43	861	901
44	991	740
45	857	945
46	273	101
47	288	888
48	867	102
49	397	772
50	630	271
51	753	230
52	845	46
53	221	423
54	363	861
55	218	977
56	113	880
57	464	487
58	854	438
59	501	772
60	682	398
61	378	213
62	766	517
63	429	347
64	819	853
65	828	609
66	824	553
67	727	641
68	645	316
69	157	304
70	116	836
71	151	306
72	611	432
73	341	139
74	796	160
75	554	13
76	36	412
77	154	927
78	854	347
79	181	494
80	478	207
81	103	396
82	787	585
83	176	646
84	573	941
85	712	737
86	452	549
87	232	62
88	57	742
89	692	984
90	897	229
91	929	205
92	956	998
93	388	3
94	173	391
95	562	453
96	928	167
97	533	716
98	947	698
99	6	183
100	92	445
101	246	132
102	110	350
103	414	899
104	76	661
105	43	939
106	620	541
107	4	543
108	70	557
109	1000	576
110	411	319
111	738	546
112	480	74
113	665	158
114	811	632
115	946	551
116	50	449
117	761	339
118	903	806
119	690	93
120	455	857
121	134	998
122	971	701
123	899	525
124	893	421
125	898	867
126	653	257
127	635	147
128	166	106
129	177	11
130	965	858
131	517	952
132	911	283
133	944	600
134	611	67
135	974	567
136	372	827
137	518	639
138	76	534
139	908	521
140	359	313
141	604	478
142	311	774
143	493	971
144	132	215
145	698	478
146	798	188
147	133	311
148	542	224
149	997	411
150	101	830
151	821	729
152	798	75
153	887	484
154	583	861
155	33	61
156	805	275
157	786	400
158	361	610
159	46	264
160	259	509
161	430	932
162	959	112
163	737	193
164	87	290
165	29	540
166	602	570
167	431	254
168	8	843
169	273	313
170	63	788
171	648	681
172	465	136
173	777	238
174	916	566
175	453	1
176	252	904
177	417	664
178	532	815
179	872	408
180	354	478
181	933	254
182	402	165
183	836	842
184	622	793
185	340	727
186	221	559
187	625	657
188	827	995
189	852	158
190	312	374
191	721	575
192	752	87
193	157	997
194	445	132
195	86	822
196	434	979
197	447	444
198	167	766
199	824	92
200	134	964
201	933	935
202	98	124
203	358	86
204	789	364
205	285	277
206	499	467
207	444	559
208	876	279
209	284	36
210	622	720
211	958	63
212	521	656
213	603	68
214	721	939
215	427	894
216	752	246
217	436	997
218	211	191
219	254	935
220	26	226
221	128	628
222	603	198
223	777	164
224	202	896
225	897	528
226	345	818
227	160	104
228	685	946
229	745	178
230	277	946
231	843	993
232	815	930
233	934	165
234	720	63
235	602	363
236	436	842
237	955	808
238	796	657
239	26	506
240	967	666
241	847	42
242	594	835
243	876	556
244	376	21
245	270	452
246	551	173
247	430	261
248	799	455
249	52	244
250	676	604
251	220	443
252	6	54
253	260	141
254	926	132
255	17	896
256	447	763
257	87	886
258	397	852
259	82	990
260	320	273
261	575	695
262	590	835
263	564	250
264	27	522
265	264	766
266	748	250
267	746	526
268	753	804
269	676	236
270	230	361
271	699	580
272	828	441
273	776	110
274	669	343
275	570	990
276	451	984
277	501	166
278	626	15
279	856	906
280	917	896
281	637	986
282	175	821
283	724	603
284	156	233
285	2	674
286	299	962
287	577	860
288	319	658
289	690	667
290	736	516
291	428	467
292	992	616
293	205	857
294	365	40
295	587	511
296	466	18
297	769	292
298	819	558
299	601	232
300	241	47
301	59	214
302	229	984
303	392	740
304	273	692
305	425	138
306	328	751
307	984	640
308	813	608
309	328	69
310	972	93
311	516	5
312	995	335
313	162	654
314	476	781
315	954	873
316	577	102
317	168	266
318	155	211
319	215	442
320	591	796
321	253	468
322	409	827
323	947	495
324	103	849
325	631	81
326	809	382
327	993	484
328	506	862
329	216	685
330	216	561
331	87	11
332	245	141
333	326	713
334	716	445
335	447	71
336	566	881
337	967	725
338	905	589
339	944	571
340	3	429
341	45	359
342	322	926
343	552	412
344	246	885
345	689	8
346	453	886
347	6	769
348	596	951
349	369	298
350	751	241
351	681	262
352	595	867
353	631	537
354	872	349
355	165	863
356	700	643
357	344	621
358	316	267
359	789	683
360	645	779
361	882	396
362	488	11
363	557	43
364	603	694
365	61	453
366	695	114
367	549	46
368	583	835
369	34	50
370	757	717
371	95	403
372	882	878
373	524	813
374	97	442
375	477	915
376	766	990
377	96	437
378	598	229
379	270	977
380	470	225
381	87	934
382	185	972
383	559	779
384	362	45
385	821	222
386	401	163
387	55	161
388	539	951
389	383	844
390	922	550
391	139	881
392	632	448
393	681	750
394	303	4
395	22	37
396	159	142
397	210	382
398	376	668
399	192	920
400	444	884
401	931	48
402	624	271
403	897	981
404	192	332
405	975	830
406	288	97
407	192	681
408	966	24
409	534	257
410	825	684
411	44	195
412	853	644
413	698	310
414	7	470
415	86	193
416	76	753
417	755	37
418	451	444
419	831	98
420	301	571
421	294	432
422	290	766
423	372	24
424	751	122
425	395	837
426	875	65
427	485	550
428	693	718
429	594	704
430	269	672
431	333	691
432	986	75
433	671	712
434	547	712
435	144	699
436	405	645
437	609	79
438	910	131
439	587	47
440	826	612
441	10	941
442	255	840
443	330	366
444	732	404
445	912	22
446	125	814
447	776	376
448	351	648
449	977	449
450	296	480
451	730	953
452	421	646
453	568	976
454	199	110
455	538	314
456	661	39
457	594	968
458	807	145
459	515	762
460	666	738
461	226	66
462	652	528
463	355	229
464	957	312
465	506	922
466	128	636
467	71	408
468	618	18
469	707	585
470	71	326
471	315	918
472	648	551
473	663	469
474	553	169
475	170	914
476	279	589
477	202	76
478	816	782
479	259	221
480	790	157
481	317	402
482	324	506
483	493	150
484	257	630
485	395	737
486	115	426
487	849	191
488	366	284
489	551	987
490	521	226
491	309	277
492	744	117
493	126	39
494	25	167
495	310	691
496	21	851
497	491	190
498	678	643
499	570	981
500	882	990
501	267	223
DEMAND_SECTION
1	0
2	8
3	7
4	6
5	4
6	9
7	3
8	5
9	2
10	6
11	2
12	2
13	6
14	2
15	4
16	4
17	7
18	6
19	3
20	1
21	5
22	1
23	6
24	9
25	6
26	1
27	2
28	4
29	2
30	4
31	5
32	7
33	2
34	3
35	9
36	2
37	2
38	2
39	3
40	4
41	8
42	4
43	3
44	7
45	5
46	4
47	6
48	3
49	9
50	4
51	5
52	6
53	5
54	1
55	5
56	6
57	2
58	4
59	4
60	1
61	4
62	7
63	8
64	8
65	2
66	7
67	9
68	4
69	3
70	8
71	4
72	1
73	5
74	8
75	5
76	4
77	8
78	7
79	1
80	2
81	7
82	4
83	9
84	9
85	7
86	4
87	1
88	3
89	6
90	8
91	5
92	7
93	8
94	8
95	3
96	5
97	3
98	9
99	1
100	6
101	5
102	3
103	8
104	1
105	5
106	9
107	6
108	2
109	5
110	6
111	4
112	5
113	7
114	3
115	3
116	1
117	6
118	6
119	8
120	2
121	2
122	2
123	8
124	2
125	4
126	6
127	4
128	9
129	3
130	3
131	5
132	3
133	6
134	6
135	3
136	6
137	8
138	4
139	7
140	7
141	1
142	7
143	5
144	7
145	2
146	5
147	1
148	3
149	2
150	7
151	4
152	3
153	8
154	8
155	7
156	9
157	8
158	4
159	3
160	7
161	8
162	1
163	6
164	2
165	7
166	4
167	8
168	2
169	2
170	6
171	8
172	9
173	5
174	7
175	2
176	5
177	1
178	4
179	5
180	3
181	2
182	5
183	5
184	5
185	4
186	1
187	6
188	6
189	6
190	8
191	6
192	5
193	9
194	2
195	4
196	2
197	1
198	8
199	8
200	8
201	6
202	3
203	1
204	5
205	2
206	5
207	9
208	5
209	9
210	2
211	8
212	4
213	2
214	8
215	6
216	3
217	3
218	3
219	4
220	3
221	6
222	4
223	8
224	2
225	7
226	4
227	7
228	8
229	5
230	5
231	4
232	5
233	7
234	3
235	2
236	3
237	9
238	2
239	6
240	4
241	6
242	3
243	9
244	6
245	4
246	2
247	9
248	8
249	3
250	2
251	9
252	3
253	9
254	9
255	7
256	5
257	3
258	4
259	5
260	1
261	2
262	2
263	2
264	7
265	2
266	4
267	2
268	9
269	4
270	1
271	8
272	7
273	5
274	2
275	2
276	8
277	2
278	3
279	6
280	9
281	7
282	8
283	6
284	9
285	1
286	2
287	8
288	9
289	6
290	5
291	6
292	7
293	5
294	4
295	8
296	1
297	7
298	4
299	3
300	4
301	9
302	8
303	5
304	1
305	6
306	4
307	8
308	6
309	5
310	1
311	1
312	7
313	2
314	7
315	7
316	7
317	6
318	3
319	5
320	1
321	2
322	3
323	4
324	1
325	1
326	1
327	5
328	4
329	9
330	5
331	4
332	8
333	4
334	7
335	4
336	3
337	6
338	5
339	5
340	3
341	1
342	9
343	6
344	6
345	1
346	9
347	7
348	4
349	8
350	5
351	5
352	3
353	6
354	4
355	6
356	9
357	3
358	7
359	1
360	2
361	9
362	8
363	6
364	8
365	3
366	7
367	6
368	2
369	1
370	7
371	5
372	5
373	4
374	6
375	5
376	2
377	3
378	3
379	9
380	5
381	8
382	3
383	2
384	3
385	6
386	7
387	8
388	4
389	9
390	3
391	3
392	5
393	5
394	9
395	3
396	3
397	7
398	9
399	6
400	9
401	9
402	8
403	5
404	8
405	5
406	1
407	8
408	9
409	7
410	6
411	6
412	4
413	2
414	1
415	3
416	3
417	4
418	2
419	8
420	7
421	6
422	6
423	4
424	6
425	5
426	8
427	9
428	4
429	7
430	7
431	2
432	2
433	6
434	1
435	1
436	3
437	1
438	6
439	2
440	1
441	8
442	1
443	5
444	2
445	4
446	1
447	8
448	1
449	1
450	7
451	6
452	4
453	6
454	6
455	5
456	4
457	3
458	3
459	3
460	9
461	1
462	1
463	6
464	7
465	6
466	8
467	3
468	5
469	3
470	9
471	4
472	6
473	7
474	5
475	6
476	9
477	2
478	1
479	8
480	4
481	9
482	2
483	6
484	3
485	2
486	7
487	4
488	5
489	6
490	4
491	7
492	5
493	7
494	4
495	6
496	5
497	8
498	6
499	5
500	2
501	3
DEPOT_SECTION
1
-1
EOF
