NAME : n501-0024
COMMENT : "Generated by pyvrp_manuel (OVRPL)"
TYPE : OVRPL
DIMENSION : 501
EDGE_WEIGHT_TYPE : EUC_2D
CAPACITY : 100
VEHICLES : 500
OPEN_ROUTE : YES
DISTANCE : 3000
NODE_COORD_SECTION
1	477	578
2	473	43
3	751	335
4	880	826
5	147	9
6	484	313
7	491	244
8	475	468
9	317	54
10	127	390
11	805	432
12	58	881
13	820	703
14	100	163
15	206	405
16	89	418
17	476	847
18	7	164
19	595	169
20	128	102
21	841	764
22	121	147
23	429	694
24	26	185
25	994	817
26	867	684
27	190	880
28	659	288
29	674	895
30	293	639
31	244	331
32	204	353
33	159	326
34	846	192
35	337	515
36	927	848
37	736	855
38	833	477
39	700	334
40	425	277
41	574	257
42	377	267
43	908	648
44	240	825
45	665	584
46	278	675
47	975	858
48	99	801
49	244	972
50	814	729
51	21	111
52	94	141
53	247	641
54	219	879
55	968	602
56	806	320
57	183	273
58	414	110
59	203	835
60	722	615
61	914	931
62	657	58
63	6	747
64	584	978
65	825	137
66	759	448
67	145	98
68	458	27
69	250	407
70	944	983
71	591	155
72	25	67
73	493	714
74	834	787
75	311	437
76	724	236
77	360	405
78	739	297
79	360	781
80	65	871
81	21	636
82	834	796
83	579	615
84	255	310
85	385	456
86	950	563
87	628	593
88	139	184
89	820	602
90	460	981
91	656	121
92	259	989
93	649	503
94	75	273
95	687	367
96	55	491
97	477	420
98	149	758
99	15	463
100	450	490
101	756	837
102	782	363
103	222	7
104	527	753
105	910	452
106	242	467
107	877	138
108	837	597
109	177	858
110	844	346
111	295	585
112	573	98
113	689	504
114	691	498
115	472	532
116	608	311
117	570	661
118	898	705
119	689	149
120	3	931
121	147	583
122	834	76
123	164	950
124	581	77
125	814	518
126	953	724
127	570	253
128	732	988
129	150	513
130	51	480
131	704	365
132	982	102
133	343	926
134	450	620
135	876	539
136	574	377
137	224	160
138	915	651
139	312	547
140	503	130
141	949	489
142	686	449
143	520	670
144	477	947
145	558	429
146	297	643
147	171	992
148	61	868
149	863	922
150	457	134
151	654	17
152	209	391
153	946	120
154	188	533
155	953	26
156	497	266
157	249	233
158	765	435
159	607	322
160	800	25
161	177	282
162	602	398
163	914	949
164	563	32
165	262	305
166	253	348
167	6	669
168	737	695
169	926	180
170	913	383
171	240	661
172	230	658
173	104	806
174	83	704
175	89	386
176	544	719
177	973	416
178	418	631
179	439	117
180	2	897
181	914	536
182	114	841
183	334	736
184	844	913
185	543	321
186	222	629
187	963	632
188	529	711
189	592	393
190	554	43
191	825	508
192	528	311
193	180	530
194	193	739
195	849	148
196	740	310
197	508	42
198	809	272
199	775	927
200	980	461
201	734	416
202	37	750
203	604	543
204	833	474
205	25	838
206	848	214
207	652	46
208	327	194
209	350	154
210	139	366
211	301	356
212	680	180
213	384	29
214	109	857
215	555	271
216	28	213
217	214	191
218	316	519
219	71	957
220	589	786
221	306	324
222	940	743
223	754	237
224	7	297
225	573	222
226	266	534
227	731	963
228	809	979
229	971	515
230	530	709
231	64	519
232	950	630
233	186	608
234	406	467
235	776	688
236	618	673
237	989	944
238	908	987
239	81	967
240	738	329
241	663	530
242	529	477
243	901	609
244	89	891
245	519	607
246	377	909
247	911	199
248	575	472
249	317	664
250	199	499
251	388	217
252	591	634
253	824	875
254	70	423
255	814	250
256	608	693
257	60	9
258	443	61
259	154	895
260	902	437
261	650	780
262	482	3
263	616	555
264	874	517
265	897	334
266	250	558
267	679	880
268	832	767
269	785	251
270	290	819
271	766	825
272	426	271
273	960	360
274	387	618
275	705	76
276	695	442
277	987	453
278	985	709
279	215	599
280	617	398
281	36	405
282	533	852
283	992	819
284	864	434
285	664	396
286	507	884
287	82	396
288	392	969
289	944	405
290	335	847
291	931	336
292	770	111
293	345	664
294	666	632
295	173	515
296	80	335
297	11	502
298	764	867
299	400	384
300	446	689
301	903	348
302	728	923
303	571	170
304	704	478
305	363	810
306	378	954
307	567	266
308	913	733
309	53	244
310	269	629
311	845	501
312	713	872
313	475	957
314	111	152
315	175	991
316	679	121
317	742	375
318	307	733
319	324	113
320	530	355
321	403	709
322	311	200
323	139	216
324	79	389
325	980	271
326	316	385
327	519	836
328	55	55
329	363	704
330	989	544
331	441	324
332	681	961
333	433	415
334	535	646
335	766	669
336	766	398
337	424	166
338	452	869
339	640	106
340	823	825
341	227	23
342	509	456
343	456	587
344	393	191
345	103	143
346	190	104
347	144	619
348	370	604
349	994	708
350	412	488
351	45	657
352	983	550
353	978	907
354	52	130
355	261	27
356	213	60
357	677	770
358	708	640
359	402	950
360	117	742
361	738	530
362	473	190
363	188	361
364	689	308
365	783	758
366	319	371
367	508	775
368	59	936
369	229	93
370	437	543
371	303	399
372	6	887
373	58	55
374	695	972
375	556	110
376	639	372
377	878	201
378	755	191
379	743	508
380	645	691
381	36	131
382	539	206
383	985	669
384	800	272
385	40	789
386	888	381
387	80	49
388	278	551
389	764	210
390	295	802
391	105	689
392	522	425
393	974	284
394	521	572
395	44	545
396	880	595
397	877	924
398	551	778
399	739	184
400	932	931
401	351	872
402	157	967
403	368	145
404	505	781
405	261	579
406	220	128
407	705	530
408	434	585
409	591	792
410	64	472
411	435	441
412	231	464
413	222	995
414	977	985
415	738	71
416	400	935
417	996	790
418	91	873
419	573	729
420	472	475
421	357	960
422	307	627
423	227	719
424	817	793
425	583	414
426	202	389
427	412	605
428	628	929
429	692	728
430	689	197
431	42	470
432	307	347
433	369	936
434	898	846
435	640	237
436	352	353
437	250	886
438	686	45
439	275	178
440	265	936
441	842	198
442	488	729
443	715	92
444	339	550
445	766	802
446	127	213
447	239	510
448	660	474
449	955	367
450	348	447
451	582	409
452	712	620
453	564	151
454	615	655
455	934	385
456	292	326
457	387	300
458	822	292
459	363	569
460	474	276
461	938	165
462	806	980
463	127	254
464	63	202
465	786	751
466	504	523
467	980	116
468	57	243
469	824	699
470	363	506
471	472	404
472	131	917
473	662	515
474	474	546
475	159	272
476	809	273
477	115	499
478	890	926
479	586	894
480	855	378
481	749	0
482	677	279
483	215	872
484	478	20
485	183	637
486	421	581
487	890	862
488	571	472
489	716	452
490	747	167
491	182	108
492	694	558
493	535	551
494	541	402
495	370	414
496	474	227
497	712	394
498	240	156
499	840	432
500	965	934
501	81	549
DEMAND_SECTION
1	0
2	6
3	4
4	1
5	7
6	2
7	7
8	5
9	8
10	3
11	7
12	4
13	3
14	1
15	1
16	1
17	4
18	8
19	9
20	1
21	6
22	3
23	8
24	2
25	7
26	9
27	5
28	3
29	5
30	9
31	2
32	7
33	3
34	8
35	2
36	6
37	5
38	7
39	8
40	4
41	8
42	1
43	6
44	1
45	3
46	2
47	5
48	3
49	3
50	7
51	4
52	9
53	2
54	9
55	4
56	7
57	7
58	1
59	9
60	7
61	5
62	4
63	2
64	7
65	8
66	5
67	1
68	5
69	3
70	1
71	7
72	5
73	9
74	5
75	8
76	8
77	9
78	3
79	4
80	7
81	4
82	3
83	2
84	2
85	3
86	9
87	3
88	4
89	1
90	5
91	5
92	1
93	4
94	6
95	2
96	1
97	7
98	8
99	3
100	8
101	6
102	1
103	8
104	2
105	8
106	7
107	9
108	1
109	1
110	3
111	5
112	3
113	8
114	6
115	7
116	4
117	6
118	3
119	1
120	9
121	4
122	9
123	8
124	1
125	3
126	2
127	8
128	8
129	6
130	6
131	8
132	4
133	7
134	4
135	5
136	2
137	7
138	2
139	5
140	8
141	1
142	2
143	2
144	2
145	1
146	6
147	7
148	4
149	8
150	7
151	3
152	1
153	6
154	5
155	8
156	5
157	8
158	3
159	2
160	9
161	7
162	9
163	4
164	2
165	2
166	4
167	6
168	7
169	6
170	4
171	4
172	1
173	2
174	1
175	4
176	6
177	9
178	8
179	7
180	5
181	9
182	9
183	1
184	4
185	3
186	8
187	3
188	3
189	3
190	7
191	6
192	7
193	3
194	7
195	6
196	8
197	7
198	6
199	7
200	5
201	3
202	5
203	2
204	9
205	7
206	4
207	9
208	1
209	8
210	2
211	4
212	4
213	2
214	6
215	5
216	9
217	7
218	9
219	5
220	3
221	6
222	2
223	2
224	6
225	3
226	9
227	7
228	4
229	7
230	3
231	9
232	7
233	7
234	9
235	1
236	2
237	1
238	3
239	8
240	2
241	1
242	2
243	9
244	2
245	9
246	3
247	6
248	1
249	2
250	3
251	1
252	3
253	7
254	5
255	3
256	3
257	1
258	3
259	2
260	3
261	3
262	1
263	9
264	1
265	4
266	6
267	7
268	2
269	9
270	1
271	3
272	3
273	4
274	1
275	8
276	2
277	3
278	1
279	7
280	7
281	8
282	9
283	5
284	1
285	2
286	8
287	7
288	6
289	6
290	2
291	7
292	8
293	2
294	3
295	1
296	5
297	2
298	7
299	3
300	7
301	1
302	4
303	2
304	6
305	3
306	5
307	1
308	7
309	1
310	3
311	8
312	5
313	2
314	8
315	9
316	5
317	4
318	7
319	9
320	8
321	7
322	6
323	6
324	3
325	9
326	4
327	2
328	8
329	5
330	8
331	9
332	4
333	4
334	5
335	1
336	7
337	9
338	8
339	8
340	4
341	1
342	1
343	3
344	2
345	9
346	2
347	8
348	3
349	9
350	7
351	8
352	9
353	8
354	3
355	9
356	8
357	9
358	2
359	9
360	8
361	6
362	6
363	9
364	2
365	6
366	2
367	9
368	2
369	3
370	7
371	4
372	8
373	7
374	6
375	7
376	6
377	4
378	3
379	7
380	3
381	2
382	5
383	4
384	3
385	2
386	4
387	5
388	4
389	4
390	4
391	7
392	9
393	5
394	9
395	3
396	4
397	6
398	1
399	1
400	7
401	5
402	6
403	7
404	1
405	3
406	9
407	4
408	8
409	4
410	3
411	8
412	1
413	2
414	6
415	5
416	4
417	2
418	9
419	1
420	8
421	3
422	9
423	7
424	9
425	3
426	5
427	1
428	8
429	7
430	7
431	8
432	6
433	7
434	2
435	8
436	1
437	1
438	9
439	3
440	8
441	4
442	1
443	4
444	3
445	7
446	1
447	6
448	9
449	7
450	8
451	4
452	8
453	7
454	8
455	4
456	8
457	5
458	3
459	4
460	8
461	6
462	4
463	3
464	4
465	8
466	4
467	1
468	5
469	4
470	1
471	2
472	6
473	1
474	7
475	6
476	7
477	5
478	6
479	4
480	6
481	3
482	5
483	8
484	8
485	2
486	7
487	4
488	9
489	3
490	6
491	4
492	9
493	6
494	2
495	2
496	7
497	4
498	6
499	7
500	7
501	8
DEPOT_SECTION
1
-1
EOF
