NAME : n201-0020
COMMENT : "Generated by pyvrp_manuel (OVRPBLTW)"
TYPE : OVRPBLTW
DIMENSION : 201
EDGE_WEIGHT_TYPE : EUC_2D
CAPACITY : 80
VEHICLES : 200
OPEN_ROUTE : YES
DISTANCE : 3000
SERVICE_TIME : 200
NODE_COORD_SECTION
1	723	742
2	165	242
3	208	424
4	681	403
5	600	382
6	19	564
7	522	160
8	19	623
9	362	600
10	391	377
11	299	980
12	55	376
13	364	324
14	754	945
15	912	257
16	282	698
17	768	81
18	273	264
19	451	324
20	113	416
21	384	538
22	309	267
23	946	356
24	798	173
25	283	703
26	599	123
27	887	364
28	500	432
29	882	621
30	733	391
31	999	695
32	747	403
33	86	861
34	55	6
35	547	403
36	140	885
37	550	268
38	822	677
39	110	417
40	69	221
41	590	639
42	307	324
43	73	191
44	468	518
45	781	832
46	936	597
47	130	359
48	60	462
49	762	557
50	728	922
51	760	396
52	956	777
53	129	572
54	741	660
55	981	172
56	570	985
57	186	231
58	839	752
59	893	413
60	796	70
61	212	580
62	145	491
63	313	994
64	351	674
65	596	982
66	505	784
67	161	139
68	759	811
69	247	901
70	665	217
71	741	997
72	372	888
73	346	31
74	105	332
75	973	710
76	931	753
77	493	170
78	46	333
79	279	950
80	379	440
81	591	910
82	449	762
83	155	24
84	423	729
85	813	682
86	879	206
87	612	916
88	191	846
89	95	825
90	761	937
91	446	473
92	200	958
93	483	370
94	533	760
95	246	102
96	378	651
97	550	367
98	565	459
99	887	206
100	982	505
101	851	701
102	124	859
103	325	164
104	719	595
105	249	265
106	937	0
107	572	510
108	101	717
109	51	485
110	394	781
111	392	37
112	462	894
113	212	921
114	778	443
115	484	914
116	508	568
117	541	538
118	66	211
119	961	798
120	526	973
121	305	714
122	238	887
123	776	672
124	470	841
125	772	759
126	314	514
127	381	208
128	621	930
129	794	360
130	786	463
131	973	5
132	635	58
133	738	859
134	883	336
135	544	631
136	329	968
137	842	747
138	296	850
139	245	93
140	343	454
141	815	706
142	680	348
143	888	977
144	69	950
145	598	674
146	695	791
147	508	371
148	328	179
149	481	219
150	798	142
151	935	58
152	916	557
153	29	650
154	178	104
155	526	358
156	623	895
157	41	997
158	223	401
159	824	291
160	248	383
161	695	478
162	955	716
163	44	140
164	539	481
165	348	664
166	710	210
167	400	679
168	681	455
169	751	679
170	31	22
171	517	671
172	144	243
173	22	595
174	862	943
175	93	886
176	300	60
177	821	920
178	474	356
179	562	735
180	731	248
181	517	638
182	572	604
183	614	633
184	771	246
185	914	372
186	93	832
187	182	6
188	458	981
189	121	608
190	112	704
191	839	419
192	55	126
193	193	313
194	261	720
195	613	100
196	564	36
197	858	465
198	968	891
199	213	887
200	73	37
201	835	243
DEMAND_SECTION
1	0
2	5
3	3
4	2
5	9
6	5
7	2
8	7
9	2
10	3
11	4
12	1
13	5
14	6
15	4
16	9
17	8
18	9
19	9
20	3
21	6
22	4
23	8
24	7
25	4
26	6
27	6
28	5
29	4
30	3
31	2
32	7
33	1
34	1
35	7
36	4
37	9
38	4
39	4
40	8
41	5
42	9
43	7
44	7
45	8
46	3
47	6
48	5
49	1
50	6
51	7
52	7
53	9
54	6
55	3
56	4
57	8
58	4
59	6
60	2
61	2
62	1
63	5
64	4
65	4
66	5
67	4
68	6
69	9
70	2
71	4
72	1
73	7
74	5
75	8
76	7
77	6
78	7
79	1
80	8
81	8
82	2
83	1
84	3
85	7
86	7
87	8
88	5
89	4
90	4
91	6
92	2
93	1
94	2
95	3
96	6
97	5
98	3
99	7
100	5
101	2
102	1
103	8
104	9
105	3
106	9
107	6
108	4
109	3
110	3
111	7
112	9
113	2
114	5
115	2
116	4
117	8
118	4
119	1
120	8
121	4
122	1
123	9
124	4
125	8
126	5
127	2
128	7
129	5
130	4
131	7
132	7
133	5
134	3
135	8
136	4
137	2
138	1
139	7
140	2
141	6
142	5
143	7
144	4
145	2
146	8
147	8
148	9
149	1
150	1
151	3
152	7
153	2
154	6
155	2
156	8
157	4
158	4
159	3
160	5
161	6
162	5
163	7
164	9
165	1
166	7
167	8
168	7
169	6
170	5
171	8
172	4
173	7
174	4
175	8
176	9
177	5
178	9
179	3
180	7
181	7
182	6
183	8
184	9
185	3
186	3
187	1
188	9
189	2
190	8
191	6
192	8
193	6
194	7
195	3
196	8
197	8
198	5
199	4
200	4
201	6
TIME_WINDOW_SECTION
1	0	3000
2	1323	2440
3	0	1321
4	252	1810
5	1594	3000
6	1486	1986
7	1192	1412
8	1580	2397
9	1204	3000
10	544	2093
11	1503	2702
12	1049	1869
13	0	1454
14	1974	2213
15	293	1744
16	1382	3000
17	440	2383
18	0	1649
19	1647	2483
20	1238	2837
21	732	2360
22	954	1886
23	781	1096
24	1027	1734
25	333	686
26	447	1371
27	1004	2623
28	1613	2451
29	236	924
30	314	1965
31	815	1914
32	1331	1747
33	293	1829
34	1347	1810
35	488	971
36	61	1543
37	263	754
38	611	927
39	794	1657
40	1005	2383
41	851	2427
42	1499	2208
43	671	2536
44	380	1315
45	0	1323
46	1588	2398
47	1779	2364
48	691	1128
49	1788	2155
50	797	2772
51	869	1103
52	786	1421
53	479	2172
54	0	205
55	1149	2917
56	1598	2057
57	1114	1773
58	775	2558
59	0	877
60	568	2134
61	224	2156
62	1172	1968
63	495	1983
64	1225	2825
65	732	1369
66	1051	2385
67	1420	2118
68	0	875
69	541	2077
70	783	1412
71	1416	2051
72	451	2183
73	1404	2346
74	958	1672
75	855	2234
76	831	2375
77	967	1332
78	1657	2014
79	425	1296
80	744	1186
81	405	2107
82	152	1412
83	1640	1854
84	0	1228
85	1099	2352
86	1062	2707
87	536	2243
88	976	1764
89	261	2197
90	1433	1676
91	523	1744
92	286	2144
93	694	2380
94	1352	3000
95	1765	2158
96	389	612
97	1578	2279
98	1074	2222
99	426	1524
100	1263	2785
101	1925	2307
102	995	1614
103	978	1781
104	0	520
105	1995	2243
106	563	2282
107	1514	2860
108	0	1525
109	971	2486
110	226	1233
111	1769	2025
112	54	621
113	1333	2687
114	615	2594
115	1221	2139
116	1201	1672
117	616	1061
118	984	2695
119	816	1341
120	0	1719
121	356	1454
122	799	2740
123	613	2075
124	1703	3000
125	1615	3000
126	1288	2842
127	789	1343
128	0	1195
129	1335	2340
130	0	1588
131	1107	2018
132	1165	1710
133	2089	3000
134	1458	2053
135	1018	2314
136	1161	1935
137	0	876
138	505	1001
139	418	1944
140	869	1668
141	794	1996
142	1194	1994
143	267	1252
144	1811	2104
145	1948	2641
146	2183	2803
147	1316	2197
148	1333	2144
149	1424	2926
150	479	1110
151	421	1343
152	1309	2643
153	1482	2515
154	1004	1991
155	391	677
156	871	1446
157	1023	2649
158	1382	1648
159	22	1224
160	396	876
161	880	2426
162	1285	2496
163	913	2120
164	1279	1692
165	0	1275
166	1113	2965
167	1342	3000
168	1301	1610
169	2446	2806
170	422	1586
171	1375	2078
172	704	2005
173	1213	2782
174	1210	3000
175	390	1445
176	1339	1930
177	1860	2917
178	1919	2191
179	1226	3000
180	0	1873
181	562	812
182	789	1747
183	189	1210
184	0	1695
185	948	1237
186	1214	1546
187	680	1832
188	121	748
189	768	1248
190	1007	2162
191	0	1265
192	865	2049
193	1003	1372
194	1086	2471
195	8	1695
196	0	1784
197	306	619
198	1801	2255
199	1855	2281
200	1132	2425
201	886	1384
BACKHAUL_SECTION
24	29	33	42	44	46	50	56	62	69	71	74	88	99	100	106	110	112	113	119	124	128	129	134	136	147	151	156	158	162	166	170	174	180	181	182	184	187	190	192	-1
DEPOT_SECTION
1
-1
EOF
