NAME : n201-0041
COMMENT : "Generated by pyvrp_manuel (OVRPL)"
TYPE : OVRPL
DIMENSION : 201
EDGE_WEIGHT_TYPE : EUC_2D
CAPACITY : 80
VEHICLES : 200
OPEN_ROUTE : YES
DISTANCE : 3000
NODE_COORD_SECTION
1	34	944
2	424	523
3	113	470
4	202	725
5	313	835
6	128	596
7	603	551
8	117	160
9	940	624
10	255	695
11	840	653
12	342	649
13	54	768
14	220	129
15	463	194
16	284	260
17	597	394
18	901	207
19	895	539
20	457	924
21	764	140
22	753	833
23	501	805
24	672	869
25	157	36
26	497	516
27	60	99
28	859	112
29	774	851
30	356	265
31	345	887
32	793	63
33	87	719
34	114	372
35	397	921
36	127	424
37	892	852
38	13	115
39	747	304
40	856	645
41	860	278
42	571	135
43	71	331
44	964	868
45	858	879
46	29	848
47	893	373
48	83	363
49	895	249
50	277	209
51	251	363
52	553	785
53	512	70
54	877	508
55	314	115
56	580	666
57	85	111
58	771	666
59	407	442
60	308	619
61	575	631
62	646	640
63	644	298
64	990	707
65	402	512
66	25	319
67	337	720
68	1000	342
69	928	618
70	219	229
71	460	520
72	353	749
73	983	647
74	863	557
75	318	879
76	969	199
77	258	911
78	718	960
79	830	975
80	469	529
81	149	583
82	809	413
83	568	194
84	906	45
85	439	948
86	368	243
87	417	249
88	225	884
89	668	732
90	65	664
91	289	205
92	249	895
93	143	262
94	63	840
95	916	664
96	912	543
97	452	966
98	926	915
99	895	901
100	774	316
101	247	531
102	313	165
103	720	982
104	59	117
105	797	30
106	45	676
107	11	697
108	133	578
109	29	990
110	454	947
111	475	652
112	720	214
113	320	496
114	924	461
115	994	954
116	754	33
117	345	74
118	27	480
119	983	852
120	601	176
121	131	272
122	704	485
123	156	742
124	73	571
125	357	990
126	36	922
127	407	129
128	360	423
129	476	655
130	925	593
131	836	114
132	253	111
133	642	967
134	71	396
135	451	210
136	117	810
137	344	214
138	432	82
139	967	609
140	378	670
141	837	444
142	717	35
143	912	856
144	322	703
145	657	387
146	999	647
147	137	590
148	358	25
149	870	602
150	103	745
151	267	891
152	449	440
153	120	249
154	860	749
155	279	551
156	394	99
157	674	285
158	827	457
159	650	406
160	543	892
161	65	985
162	643	133
163	45	531
164	251	989
165	253	931
166	806	162
167	348	832
168	218	186
169	218	418
170	763	451
171	604	660
172	463	777
173	870	228
174	736	405
175	479	92
176	926	802
177	736	242
178	574	858
179	594	8
180	819	914
181	608	810
182	842	116
183	391	832
184	386	12
185	6	790
186	542	753
187	72	500
188	98	736
189	183	221
190	175	184
191	447	625
192	847	992
193	359	612
194	287	22
195	372	886
196	677	497
197	86	250
198	632	970
199	475	209
200	726	551
201	732	440
DEMAND_SECTION
1	0
2	8
3	6
4	3
5	5
6	9
7	9
8	3
9	9
10	6
11	7
12	1
13	6
14	7
15	6
16	5
17	7
18	2
19	1
20	9
21	6
22	1
23	3
24	7
25	4
26	9
27	9
28	6
29	5
30	2
31	5
32	8
33	2
34	8
35	9
36	7
37	8
38	6
39	3
40	7
41	8
42	2
43	9
44	5
45	1
46	4
47	9
48	6
49	9
50	1
51	9
52	4
53	6
54	8
55	3
56	7
57	3
58	9
59	4
60	1
61	7
62	5
63	6
64	8
65	9
66	4
67	7
68	9
69	7
70	5
71	5
72	5
73	4
74	5
75	5
76	8
77	4
78	3
79	8
80	7
81	5
82	3
83	9
84	9
85	7
86	9
87	9
88	3
89	9
90	3
91	5
92	3
93	3
94	9
95	2
96	7
97	1
98	1
99	1
100	3
101	4
102	4
103	4
104	1
105	5
106	3
107	4
108	9
109	7
110	5
111	8
112	4
113	5
114	7
115	9
116	3
117	1
118	2
119	7
120	3
121	3
122	9
123	1
124	6
125	3
126	3
127	8
128	8
129	6
130	8
131	3
132	5
133	2
134	7
135	2
136	7
137	8
138	8
139	8
140	5
141	9
142	4
143	4
144	6
145	6
146	7
147	7
148	7
149	9
150	6
151	3
152	1
153	9
154	5
155	2
156	3
157	3
158	7
159	1
160	7
161	4
162	3
163	7
164	7
165	9
166	6
167	8
168	5
169	8
170	8
171	2
172	9
173	5
174	9
175	2
176	2
177	6
178	8
179	3
180	3
181	7
182	9
183	3
184	5
185	6
186	2
187	9
188	3
189	9
190	3
191	6
192	7
193	6
194	4
195	7
196	7
197	8
198	2
199	3
200	9
201	7
DEPOT_SECTION
1
-1
EOF
