NAME : n101-0029
COMMENT : "Generated by pyvrp_manuel (OVRP)"
TYPE : OVRP
DIMENSION : 101
EDGE_WEIGHT_TYPE : EUC_2D
CAPACITY : 50
VEHICLES : 100
OPEN_ROUTE : YES
NODE_COORD_SECTION
1	62	250
2	512	731
3	195	978
4	761	247
5	309	582
6	574	402
7	270	822
8	784	901
9	78	375
10	321	93
11	967	830
12	134	304
13	816	974
14	767	392
15	451	387
16	129	838
17	564	374
18	695	816
19	598	532
20	454	802
21	427	61
22	922	536
23	492	695
24	876	645
25	253	960
26	700	944
27	581	911
28	617	297
29	791	508
30	580	964
31	252	255
32	997	553
33	908	705
34	298	463
35	371	883
36	595	418
37	231	770
38	345	561
39	943	650
40	436	914
41	917	408
42	587	79
43	961	67
44	839	195
45	993	350
46	179	258
47	13	249
48	186	364
49	392	751
50	292	324
51	606	621
52	146	59
53	936	427
54	681	79
55	309	102
56	658	732
57	761	650
58	266	754
59	885	289
60	116	342
61	941	836
62	304	430
63	704	327
64	398	829
65	529	422
66	700	584
67	4	48
68	137	166
69	464	767
70	751	798
71	700	444
72	300	501
73	951	217
74	83	330
75	891	858
76	244	651
77	473	815
78	437	192
79	954	204
80	699	609
81	396	267
82	899	827
83	263	980
84	773	407
85	438	20
86	173	551
87	23	5
88	757	263
89	909	199
90	70	302
91	448	67
92	965	96
93	414	633
94	519	115
95	453	27
96	629	97
97	335	265
98	973	559
99	268	589
100	21	452
101	328	439
DEMAND_SECTION
1	0
2	9
3	4
4	5
5	8
6	5
7	6
8	3
9	7
10	9
11	6
12	7
13	6
14	4
15	5
16	6
17	3
18	8
19	7
20	3
21	4
22	9
23	9
24	4
25	1
26	9
27	7
28	8
29	5
30	1
31	2
32	7
33	3
34	5
35	5
36	1
37	3
38	1
39	4
40	6
41	7
42	5
43	8
44	6
45	7
46	8
47	8
48	5
49	1
50	5
51	8
52	7
53	4
54	8
55	4
56	9
57	4
58	5
59	9
60	9
61	2
62	3
63	6
64	6
65	9
66	8
67	6
68	6
69	7
70	7
71	2
72	9
73	8
74	6
75	6
76	6
77	2
78	3
79	3
80	9
81	1
82	2
83	3
84	2
85	6
86	8
87	2
88	6
89	3
90	9
91	8
92	7
93	5
94	1
95	7
96	2
97	6
98	4
99	4
100	2
101	5
DEPOT_SECTION
1
-1
EOF
