NAME : n101-0025
COMMENT : "Generated by pyvrp_manuel (OVRP)"
TYPE : OVRP
DIMENSION : 101
EDGE_WEIGHT_TYPE : EUC_2D
CAPACITY : 50
VEHICLES : 100
OPEN_ROUTE : YES
NODE_COORD_SECTION
1	790	429
2	284	397
3	775	326
4	31	39
5	174	596
6	52	398
7	2	340
8	318	36
9	932	630
10	264	981
11	917	542
12	444	885
13	547	552
14	448	656
15	770	938
16	170	514
17	615	691
18	804	807
19	16	671
20	505	514
21	66	876
22	671	71
23	917	892
24	51	351
25	14	477
26	457	16
27	191	463
28	996	801
29	973	533
30	90	754
31	390	577
32	992	207
33	510	43
34	333	412
35	587	901
36	983	912
37	548	888
38	316	312
39	325	202
40	365	416
41	235	617
42	662	201
43	26	450
44	494	600
45	779	223
46	372	209
47	372	86
48	986	5
49	695	538
50	510	285
51	806	578
52	407	971
53	28	418
54	26	834
55	212	554
56	47	773
57	391	625
58	999	650
59	866	754
60	472	455
61	88	100
62	736	623
63	547	914
64	0	860
65	745	106
66	607	650
67	89	727
68	331	278
69	466	688
70	765	18
71	519	35
72	619	404
73	437	85
74	776	192
75	435	59
76	857	599
77	547	873
78	561	850
79	126	445
80	232	668
81	25	358
82	533	998
83	306	197
84	197	273
85	430	873
86	481	246
87	498	53
88	494	169
89	931	921
90	210	624
91	364	332
92	941	941
93	881	22
94	608	763
95	734	159
96	719	332
97	543	375
98	557	253
99	721	347
100	347	698
101	692	740
DEMAND_SECTION
1	0
2	2
3	6
4	4
5	9
6	1
7	6
8	8
9	3
10	5
11	9
12	2
13	3
14	7
15	7
16	6
17	3
18	5
19	8
20	7
21	2
22	3
23	3
24	6
25	3
26	8
27	8
28	8
29	3
30	5
31	1
32	4
33	7
34	2
35	2
36	8
37	8
38	4
39	4
40	9
41	9
42	9
43	3
44	6
45	2
46	5
47	7
48	2
49	9
50	2
51	4
52	9
53	4
54	5
55	9
56	5
57	5
58	8
59	9
60	2
61	6
62	6
63	7
64	3
65	2
66	7
67	9
68	5
69	2
70	8
71	1
72	2
73	6
74	6
75	8
76	9
77	4
78	5
79	9
80	2
81	9
82	1
83	3
84	9
85	6
86	1
87	7
88	8
89	8
90	5
91	2
92	8
93	3
94	9
95	9
96	6
97	4
98	3
99	4
100	1
101	8
DEPOT_SECTION
1
-1
EOF
