NAME : n101-0019
COMMENT : "Generated by pyvrp_manuel (OVRP)"
TYPE : OVRP
DIMENSION : 101
EDGE_WEIGHT_TYPE : EUC_2D
CAPACITY : 50
VEHICLES : 100
OPEN_ROUTE : YES
NODE_COORD_SECTION
1	511	366
2	46	320
3	557	831
4	264	79
5	51	492
6	187	390
7	177	725
8	333	151
9	658	481
10	812	527
11	707	667
12	220	900
13	591	426
14	571	952
15	869	923
16	216	378
17	611	432
18	406	876
19	232	270
20	572	271
21	216	100
22	837	251
23	437	825
24	21	493
25	269	140
26	562	654
27	824	999
28	664	491
29	236	359
30	45	42
31	117	850
32	712	959
33	845	848
34	603	753
35	679	102
36	104	901
37	813	371
38	215	149
39	116	340
40	542	515
41	684	561
42	629	875
43	612	467
44	746	673
45	715	365
46	1	324
47	905	329
48	249	286
49	807	962
50	24	327
51	896	611
52	818	105
53	799	250
54	189	301
55	135	649
56	836	174
57	679	129
58	775	457
59	534	105
60	683	690
61	323	284
62	891	856
63	245	678
64	287	29
65	478	75
66	264	463
67	180	791
68	352	109
69	584	623
70	366	122
71	723	331
72	295	905
73	218	785
74	505	392
75	188	984
76	549	571
77	102	854
78	495	723
79	839	619
80	793	267
81	709	704
82	752	334
83	780	937
84	256	447
85	452	752
86	440	614
87	309	657
88	796	600
89	985	945
90	145	153
91	101	397
92	763	293
93	378	268
94	641	603
95	93	249
96	424	961
97	27	36
98	711	661
99	456	103
100	253	846
101	966	593
DEMAND_SECTION
1	0
2	5
3	6
4	2
5	2
6	1
7	5
8	5
9	1
10	3
11	4
12	1
13	9
14	3
15	9
16	9
17	6
18	3
19	7
20	1
21	5
22	7
23	6
24	8
25	7
26	9
27	2
28	1
29	9
30	5
31	5
32	6
33	5
34	2
35	4
36	6
37	4
38	8
39	9
40	2
41	2
42	3
43	3
44	8
45	6
46	7
47	1
48	9
49	6
50	5
51	6
52	3
53	7
54	6
55	7
56	7
57	2
58	3
59	4
60	3
61	6
62	3
63	3
64	4
65	1
66	1
67	6
68	8
69	4
70	1
71	6
72	5
73	2
74	1
75	1
76	1
77	5
78	5
79	1
80	9
81	8
82	2
83	9
84	7
85	5
86	9
87	7
88	5
89	8
90	1
91	5
92	4
93	5
94	7
95	2
96	4
97	3
98	9
99	6
100	1
101	7
DEPOT_SECTION
1
-1
EOF
