NAME : n101-0002
COMMENT : "Generated by pyvrp_manuel (OVRP)"
TYPE : OVRP
DIMENSION : 101
EDGE_WEIGHT_TYPE : EUC_2D
CAPACITY : 50
VEHICLES : 100
OPEN_ROUTE : YES
NODE_COORD_SECTION
1	271	22
2	5	232
3	421	921
4	399	99
5	54	509
6	537	622
7	360	667
8	552	369
9	756	139
10	241	624
11	357	488
12	321	785
13	971	928
14	630	183
15	325	272
16	404	251
17	798	26
18	522	861
19	103	412
20	774	325
21	263	766
22	154	999
23	949	522
24	581	245
25	616	122
26	370	900
27	646	862
28	830	978
29	627	134
30	47	810
31	906	992
32	160	957
33	322	630
34	846	114
35	20	832
36	35	742
37	789	866
38	512	372
39	565	431
40	29	618
41	207	870
42	265	402
43	112	961
44	790	938
45	792	192
46	973	433
47	960	570
48	817	302
49	696	497
50	101	887
51	228	169
52	901	41
53	673	907
54	420	27
55	95	475
56	421	847
57	900	191
58	368	107
59	611	866
60	329	517
61	461	66
62	987	608
63	969	65
64	354	368
65	665	373
66	212	909
67	893	997
68	801	829
69	170	537
70	343	455
71	541	620
72	204	419
73	269	371
74	178	239
75	151	149
76	467	75
77	23	851
78	140	850
79	535	427
80	887	110
81	740	834
82	899	33
83	524	436
84	129	841
85	412	838
86	231	278
87	688	564
88	787	713
89	900	131
90	613	871
91	273	188
92	992	81
93	137	77
94	624	621
95	61	806
96	643	669
97	11	43
98	89	295
99	56	753
100	432	303
101	934	566
DEMAND_SECTION
1	0
2	1
3	4
4	8
5	5
6	7
7	9
8	3
9	2
10	3
11	9
12	4
13	7
14	2
15	8
16	4
17	1
18	6
19	9
20	8
21	6
22	7
23	9
24	4
25	7
26	1
27	6
28	2
29	4
30	1
31	4
32	3
33	2
34	2
35	2
36	8
37	9
38	5
39	3
40	4
41	9
42	8
43	2
44	9
45	7
46	9
47	1
48	4
49	2
50	2
51	2
52	3
53	3
54	5
55	3
56	8
57	5
58	1
59	8
60	8
61	5
62	2
63	7
64	9
65	1
66	5
67	6
68	9
69	7
70	1
71	1
72	8
73	2
74	1
75	6
76	9
77	2
78	5
79	2
80	9
81	1
82	3
83	9
84	5
85	1
86	8
87	8
88	4
89	7
90	2
91	9
92	5
93	6
94	4
95	2
96	9
97	6
98	8
99	5
100	4
101	8
DEPOT_SECTION
1
-1
EOF
