NAME : n101-0026
COMMENT : "Generated by pyvrp_manuel (OVRP)"
TYPE : OVRP
DIMENSION : 101
EDGE_WEIGHT_TYPE : EUC_2D
CAPACITY : 50
VEHICLES : 100
OPEN_ROUTE : YES
NODE_COORD_SECTION
1	67	710
2	662	265
3	402	752
4	4	774
5	834	634
6	823	969
7	396	226
8	179	695
9	195	542
10	429	144
11	630	235
12	586	745
13	354	364
14	423	467
15	613	831
16	29	941
17	999	226
18	769	623
19	155	523
20	378	909
21	288	402
22	907	225
23	41	917
24	561	687
25	591	290
26	634	709
27	514	747
28	127	631
29	922	462
30	966	423
31	277	522
32	820	517
33	156	803
34	659	150
35	573	547
36	604	448
37	887	107
38	467	591
39	280	464
40	18	500
41	521	413
42	12	720
43	296	974
44	974	932
45	905	891
46	504	726
47	353	492
48	144	438
49	535	420
50	38	594
51	447	295
52	296	293
53	800	619
54	442	316
55	504	171
56	999	143
57	723	66
58	143	9
59	238	70
60	218	393
61	661	282
62	796	144
63	80	102
64	88	684
65	862	687
66	544	918
67	437	782
68	262	584
69	442	916
70	293	807
71	461	158
72	287	44
73	832	694
74	123	218
75	785	861
76	816	814
77	349	959
78	31	333
79	719	727
80	377	250
81	680	768
82	722	529
83	623	100
84	26	86
85	847	437
86	638	779
87	188	525
88	917	687
89	903	737
90	139	66
91	423	84
92	695	860
93	826	981
94	297	890
95	69	269
96	527	834
97	167	26
98	50	597
99	774	957
100	866	987
101	906	23
DEMAND_SECTION
1	0
2	9
3	9
4	7
5	4
6	8
7	2
8	5
9	5
10	3
11	4
12	8
13	6
14	7
15	4
16	2
17	1
18	7
19	1
20	4
21	3
22	4
23	3
24	4
25	9
26	9
27	2
28	1
29	8
30	7
31	6
32	3
33	8
34	1
35	9
36	8
37	9
38	6
39	9
40	1
41	8
42	9
43	6
44	9
45	5
46	2
47	4
48	1
49	9
50	8
51	6
52	8
53	7
54	8
55	3
56	6
57	4
58	2
59	7
60	5
61	2
62	5
63	7
64	6
65	2
66	1
67	3
68	6
69	9
70	8
71	9
72	4
73	5
74	7
75	1
76	7
77	1
78	8
79	5
80	7
81	6
82	9
83	5
84	2
85	6
86	2
87	8
88	2
89	2
90	8
91	9
92	5
93	1
94	9
95	9
96	1
97	3
98	8
99	3
100	5
101	7
DEPOT_SECTION
1
-1
EOF
