NAME : n101-0011
COMMENT : "Generated by pyvrp_manuel (OVRP)"
TYPE : OVRP
DIMENSION : 101
EDGE_WEIGHT_TYPE : EUC_2D
CAPACITY : 50
VEHICLES : 100
OPEN_ROUTE : YES
NODE_COORD_SECTION
1	996	212
2	601	531
3	262	444
4	718	939
5	316	896
6	161	677
7	26	994
8	852	806
9	349	686
10	418	684
11	831	919
12	532	728
13	185	702
14	497	488
15	130	806
16	24	235
17	967	960
18	770	192
19	977	356
20	410	828
21	449	456
22	610	974
23	865	154
24	531	431
25	614	567
26	690	201
27	416	565
28	142	613
29	55	420
30	385	763
31	198	312
32	824	764
33	966	419
34	534	220
35	866	964
36	854	706
37	219	257
38	408	779
39	459	442
40	628	687
41	405	212
42	949	230
43	942	47
44	114	352
45	804	714
46	552	562
47	490	115
48	347	613
49	269	976
50	415	383
51	227	755
52	983	942
53	46	456
54	391	375
55	49	999
56	905	148
57	815	353
58	956	485
59	761	469
60	351	37
61	125	972
62	964	980
63	863	49
64	180	609
65	38	481
66	663	344
67	586	535
68	308	560
69	605	82
70	961	996
71	89	380
72	486	496
73	324	533
74	648	650
75	782	595
76	670	433
77	369	731
78	894	505
79	112	661
80	107	662
81	977	162
82	431	968
83	702	978
84	264	444
85	158	229
86	607	905
87	947	314
88	924	143
89	32	566
90	966	882
91	135	396
92	942	761
93	511	277
94	817	922
95	823	710
96	274	14
97	951	617
98	563	687
99	311	138
100	773	440
101	22	406
DEMAND_SECTION
1	0
2	6
3	1
4	6
5	3
6	2
7	2
8	2
9	8
10	3
11	1
12	6
13	6
14	3
15	5
16	7
17	7
18	4
19	6
20	9
21	3
22	4
23	4
24	3
25	1
26	4
27	4
28	5
29	6
30	1
31	1
32	5
33	6
34	5
35	3
36	8
37	8
38	6
39	1
40	4
41	2
42	1
43	6
44	3
45	5
46	1
47	4
48	1
49	6
50	9
51	2
52	7
53	8
54	5
55	4
56	8
57	4
58	6
59	5
60	1
61	1
62	7
63	2
64	8
65	2
66	6
67	7
68	4
69	2
70	2
71	7
72	9
73	5
74	5
75	4
76	3
77	9
78	2
79	7
80	4
81	8
82	3
83	3
84	9
85	9
86	4
87	6
88	4
89	4
90	2
91	9
92	6
93	4
94	6
95	7
96	7
97	4
98	4
99	5
100	8
101	4
DEPOT_SECTION
1
-1
EOF
