NAME : n501-0046
COMMENT : "Generated by pyvrp_manuel (VRPL)"
TYPE : VRPL
DIMENSION : 501
EDGE_WEIGHT_TYPE : EUC_2D
CAPACITY : 100
VEHICLES : 500
DISTANCE : 3000
NODE_COORD_SECTION
1	549	172
2	970	894
3	171	162
4	566	254
5	287	638
6	775	601
7	430	217
8	773	121
9	393	359
10	571	834
11	173	599
12	905	438
13	123	111
14	54	620
15	972	237
16	550	178
17	678	772
18	623	206
19	987	890
20	421	494
21	890	634
22	587	578
23	419	232
24	686	853
25	844	542
26	710	382
27	568	31
28	247	410
29	767	912
30	236	338
31	886	797
32	451	415
33	608	654
34	66	851
35	977	608
36	604	272
37	318	580
38	841	915
39	878	655
40	871	880
41	879	81
42	948	220
43	462	993
44	768	180
45	649	356
46	677	728
47	705	403
48	607	564
49	578	691
50	775	426
51	418	596
52	325	730
53	852	699
54	930	204
55	812	831
56	993	82
57	950	95
58	141	641
59	306	764
60	904	463
61	506	607
62	392	129
63	364	103
64	22	58
65	460	61
66	285	359
67	878	983
68	299	202
69	927	223
70	621	357
71	326	886
72	213	509
73	314	302
74	482	68
75	984	719
76	973	609
77	877	568
78	75	956
79	277	186
80	200	297
81	441	724
82	153	372
83	804	582
84	478	133
85	151	345
86	613	939
87	871	238
88	29	655
89	250	443
90	263	738
91	85	630
92	55	311
93	411	509
94	362	997
95	560	699
96	114	826
97	420	770
98	873	104
99	398	909
100	504	690
101	420	577
102	153	871
103	135	967
104	67	807
105	144	10
106	714	225
107	957	541
108	888	75
109	313	816
110	710	841
111	143	765
112	649	384
113	933	129
114	289	595
115	677	399
116	103	566
117	907	828
118	437	438
119	54	46
120	727	106
121	92	350
122	647	883
123	721	25
124	666	586
125	86	152
126	782	620
127	163	244
128	669	196
129	270	295
130	63	38
131	900	774
132	19	647
133	489	121
134	811	941
135	367	949
136	550	67
137	576	411
138	51	0
139	704	298
140	690	197
141	240	13
142	333	979
143	308	494
144	851	716
145	150	491
146	292	538
147	353	620
148	783	125
149	974	679
150	176	758
151	767	666
152	677	385
153	855	105
154	65	950
155	428	373
156	366	871
157	279	382
158	137	496
159	41	90
160	887	361
161	39	371
162	161	390
163	523	945
164	643	977
165	521	494
166	810	242
167	184	185
168	787	607
169	808	932
170	460	998
171	211	67
172	275	701
173	231	697
174	308	711
175	20	500
176	557	290
177	56	154
178	984	119
179	810	844
180	675	337
181	601	10
182	337	369
183	442	483
184	579	447
185	907	468
186	868	620
187	590	622
188	627	152
189	764	494
190	962	84
191	142	321
192	507	630
193	561	133
194	580	317
195	876	111
196	56	605
197	258	408
198	293	625
199	951	819
200	779	333
201	109	608
202	794	47
203	49	703
204	67	469
205	8	318
206	601	63
207	211	304
208	66	423
209	969	720
210	588	396
211	326	186
212	976	135
213	335	912
214	582	938
215	819	383
216	107	933
217	228	515
218	588	163
219	266	965
220	728	335
221	49	207
222	629	667
223	197	774
224	520	17
225	178	787
226	753	475
227	454	432
228	946	240
229	417	493
230	468	660
231	422	275
232	737	847
233	215	932
234	932	367
235	84	647
236	290	366
237	254	464
238	414	174
239	338	347
240	519	669
241	243	263
242	487	383
243	914	535
244	881	996
245	675	68
246	282	683
247	501	72
248	297	293
249	551	682
250	653	817
251	592	986
252	698	825
253	554	288
254	260	760
255	223	743
256	441	131
257	329	581
258	920	168
259	259	185
260	48	883
261	359	409
262	643	584
263	387	694
264	76	68
265	185	969
266	311	893
267	627	312
268	597	699
269	476	216
270	166	259
271	123	14
272	873	100
273	318	586
274	132	963
275	793	473
276	651	188
277	813	373
278	399	710
279	223	622
280	718	843
281	605	678
282	154	399
283	704	499
284	33	318
285	735	315
286	892	298
287	12	603
288	243	226
289	55	259
290	414	775
291	680	666
292	807	64
293	385	761
294	916	298
295	362	727
296	347	45
297	653	89
298	897	746
299	897	460
300	684	796
301	900	541
302	997	87
303	821	193
304	767	179
305	592	45
306	179	439
307	805	896
308	315	350
309	875	311
310	272	701
311	711	261
312	933	759
313	20	673
314	701	446
315	293	232
316	956	182
317	725	837
318	365	299
319	822	516
320	495	233
321	375	551
322	688	20
323	317	783
324	532	664
325	690	843
326	632	421
327	221	206
328	172	534
329	446	50
330	910	692
331	155	21
332	699	6
333	692	682
334	100	702
335	330	279
336	731	787
337	825	852
338	881	263
339	809	962
340	779	15
341	974	642
342	938	678
343	874	171
344	504	288
345	689	714
346	878	726
347	295	286
348	846	210
349	86	259
350	718	797
351	21	586
352	565	548
353	563	769
354	277	795
355	407	686
356	219	505
357	174	500
358	967	190
359	416	658
360	592	707
361	853	128
362	5	958
363	542	224
364	214	510
365	44	113
366	629	518
367	644	444
368	189	702
369	56	243
370	403	624
371	785	835
372	557	351
373	884	772
374	359	62
375	517	338
376	527	598
377	26	251
378	143	705
379	72	576
380	226	144
381	961	325
382	110	800
383	987	123
384	250	79
385	316	533
386	433	404
387	531	932
388	992	217
389	244	841
390	173	627
391	969	733
392	4	946
393	484	725
394	682	866
395	623	155
396	280	676
397	647	184
398	889	923
399	124	799
400	379	775
401	957	688
402	834	507
403	946	834
404	501	726
405	303	976
406	883	39
407	432	446
408	483	324
409	559	568
410	243	81
411	205	837
412	716	567
413	789	196
414	188	546
415	692	631
416	162	259
417	845	604
418	744	300
419	910	912
420	787	532
421	225	134
422	643	444
423	2	675
424	539	856
425	587	794
426	857	303
427	143	361
428	204	633
429	196	788
430	945	236
431	869	687
432	188	226
433	81	2
434	749	217
435	156	616
436	453	352
437	843	243
438	579	470
439	998	427
440	156	749
441	101	684
442	612	580
443	76	226
444	852	517
445	944	341
446	906	740
447	595	354
448	81	794
449	628	478
450	559	387
451	882	661
452	801	788
453	821	760
454	710	75
455	419	931
456	90	14
457	401	660
458	584	644
459	991	589
460	858	590
461	308	812
462	2	370
463	26	328
464	97	84
465	730	367
466	164	253
467	489	736
468	209	376
469	491	54
470	81	501
471	494	560
472	295	525
473	958	488
474	775	750
475	654	380
476	955	291
477	525	345
478	977	207
479	982	534
480	39	766
481	664	645
482	631	203
483	644	783
484	862	893
485	631	649
486	561	787
487	629	988
488	344	136
489	952	886
490	718	880
491	481	27
492	417	137
493	261	820
494	307	7
495	685	862
496	717	69
497	635	492
498	259	140
499	581	79
500	687	683
501	522	69
DEMAND_SECTION
1	0
2	4
3	5
4	5
5	9
6	9
7	3
8	5
9	8
10	4
11	5
12	9
13	3
14	1
15	8
16	7
17	2
18	2
19	6
20	9
21	9
22	1
23	2
24	7
25	7
26	8
27	6
28	5
29	1
30	6
31	8
32	9
33	3
34	5
35	3
36	1
37	4
38	1
39	6
40	2
41	9
42	9
43	8
44	1
45	2
46	3
47	5
48	1
49	5
50	9
51	8
52	3
53	6
54	5
55	2
56	7
57	6
58	3
59	5
60	8
61	8
62	1
63	5
64	2
65	9
66	3
67	1
68	1
69	1
70	6
71	6
72	8
73	3
74	4
75	4
76	3
77	4
78	1
79	1
80	3
81	7
82	7
83	8
84	8
85	1
86	9
87	4
88	9
89	7
90	5
91	3
92	1
93	5
94	5
95	7
96	7
97	1
98	1
99	8
100	7
101	8
102	7
103	4
104	2
105	5
106	3
107	3
108	2
109	5
110	1
111	6
112	9
113	3
114	1
115	2
116	6
117	9
118	7
119	8
120	9
121	2
122	6
123	7
124	7
125	8
126	8
127	3
128	7
129	3
130	5
131	7
132	5
133	9
134	6
135	2
136	2
137	4
138	7
139	4
140	2
141	8
142	2
143	1
144	5
145	1
146	3
147	9
148	9
149	5
150	8
151	3
152	1
153	6
154	5
155	7
156	1
157	8
158	1
159	7
160	9
161	1
162	3
163	9
164	7
165	7
166	8
167	4
168	5
169	5
170	3
171	3
172	3
173	7
174	8
175	2
176	8
177	2
178	8
179	2
180	8
181	1
182	3
183	3
184	7
185	5
186	5
187	7
188	7
189	1
190	7
191	1
192	9
193	7
194	6
195	7
196	9
197	9
198	8
199	3
200	9
201	1
202	3
203	4
204	3
205	9
206	9
207	8
208	9
209	3
210	7
211	1
212	8
213	5
214	7
215	3
216	1
217	2
218	3
219	5
220	9
221	9
222	1
223	2
224	5
225	4
226	7
227	4
228	2
229	3
230	2
231	8
232	4
233	2
234	3
235	7
236	8
237	6
238	8
239	6
240	3
241	1
242	4
243	7
244	3
245	4
246	4
247	7
248	6
249	3
250	1
251	2
252	5
253	7
254	3
255	4
256	5
257	5
258	9
259	9
260	3
261	1
262	7
263	5
264	5
265	6
266	5
267	6
268	7
269	6
270	7
271	1
272	5
273	2
274	4
275	3
276	9
277	3
278	9
279	4
280	4
281	3
282	7
283	8
284	6
285	1
286	7
287	3
288	3
289	5
290	1
291	4
292	3
293	1
294	4
295	6
296	3
297	8
298	5
299	6
300	9
301	9
302	8
303	5
304	6
305	8
306	6
307	9
308	5
309	6
310	7
311	7
312	4
313	1
314	6
315	7
316	3
317	5
318	3
319	4
320	3
321	5
322	8
323	9
324	8
325	5
326	3
327	5
328	1
329	7
330	9
331	3
332	9
333	1
334	1
335	9
336	8
337	2
338	4
339	4
340	1
341	5
342	2
343	3
344	3
345	4
346	2
347	9
348	9
349	1
350	4
351	3
352	9
353	1
354	4
355	4
356	4
357	8
358	8
359	4
360	7
361	7
362	8
363	7
364	9
365	4
366	8
367	6
368	1
369	6
370	1
371	6
372	6
373	2
374	6
375	7
376	1
377	1
378	1
379	1
380	9
381	5
382	1
383	6
384	7
385	3
386	1
387	3
388	5
389	3
390	9
391	4
392	5
393	5
394	5
395	4
396	6
397	6
398	9
399	3
400	1
401	1
402	2
403	4
404	9
405	4
406	4
407	8
408	5
409	9
410	2
411	2
412	2
413	2
414	9
415	5
416	1
417	2
418	8
419	1
420	1
421	6
422	8
423	3
424	5
425	8
426	2
427	1
428	3
429	2
430	1
431	9
432	5
433	3
434	1
435	7
436	2
437	2
438	5
439	9
440	1
441	7
442	5
443	4
444	3
445	8
446	5
447	8
448	3
449	4
450	1
451	5
452	2
453	8
454	8
455	8
456	7
457	3
458	2
459	6
460	2
461	9
462	7
463	7
464	9
465	8
466	4
467	9
468	4
469	4
470	7
471	1
472	4
473	8
474	1
475	1
476	2
477	7
478	6
479	5
480	1
481	1
482	7
483	3
484	4
485	3
486	7
487	4
488	8
489	3
490	1
491	5
492	7
493	2
494	7
495	9
496	8
497	8
498	6
499	5
500	3
501	7
DEPOT_SECTION
1
-1
EOF
