NAME : n501-0040
COMMENT : "Generated by pyvrp_manuel (VRPL)"
TYPE : VRPL
DIMENSION : 501
EDGE_WEIGHT_TYPE : EUC_2D
CAPACITY : 100
VEHICLES : 500
DISTANCE : 3000
NODE_COORD_SECTION
1	544	647
2	537	172
3	396	3
4	679	131
5	879	184
6	448	296
7	189	36
8	707	436
9	846	966
10	917	400
11	361	634
12	810	65
13	295	560
14	899	25
15	558	415
16	919	646
17	657	199
18	130	172
19	430	548
20	307	456
21	474	792
22	248	202
23	362	998
24	332	312
25	253	171
26	359	782
27	680	704
28	438	964
29	856	842
30	947	780
31	877	588
32	833	687
33	554	128
34	899	450
35	542	346
36	495	843
37	941	481
38	271	682
39	434	750
40	679	162
41	311	499
42	426	904
43	198	226
44	207	111
45	379	362
46	651	327
47	45	809
48	766	669
49	804	471
50	877	22
51	518	505
52	31	563
53	815	418
54	207	643
55	465	955
56	970	608
57	522	273
58	664	688
59	365	431
60	902	900
61	152	102
62	125	128
63	379	459
64	988	770
65	141	253
66	164	63
67	119	832
68	589	246
69	997	288
70	288	287
71	342	204
72	885	872
73	754	109
74	661	812
75	46	431
76	94	849
77	717	992
78	733	874
79	131	543
80	38	366
81	798	427
82	948	217
83	435	446
84	832	457
85	387	604
86	632	45
87	930	577
88	832	579
89	170	370
90	965	373
91	943	925
92	665	233
93	604	906
94	127	551
95	867	398
96	745	164
97	537	407
98	709	815
99	139	340
100	253	464
101	30	719
102	251	669
103	156	843
104	308	266
105	126	552
106	28	993
107	962	864
108	331	925
109	599	130
110	241	405
111	312	642
112	848	770
113	276	422
114	345	56
115	741	83
116	312	284
117	299	489
118	279	86
119	544	313
120	845	729
121	28	879
122	350	264
123	492	816
124	977	8
125	984	949
126	262	512
127	429	43
128	545	271
129	23	337
130	440	87
131	656	228
132	337	626
133	202	202
134	158	426
135	939	243
136	971	85
137	126	94
138	908	403
139	357	683
140	294	571
141	32	26
142	564	692
143	20	865
144	830	361
145	470	547
146	825	309
147	258	334
148	996	82
149	275	317
150	506	299
151	428	191
152	557	371
153	604	382
154	762	95
155	866	454
156	749	991
157	746	916
158	343	829
159	721	350
160	230	290
161	522	7
162	226	531
163	994	197
164	816	735
165	252	488
166	960	444
167	174	217
168	563	480
169	648	186
170	256	740
171	701	660
172	697	226
173	263	608
174	504	92
175	490	156
176	577	709
177	395	814
178	870	396
179	580	498
180	883	151
181	666	373
182	647	961
183	36	798
184	650	899
185	125	361
186	787	468
187	270	185
188	397	808
189	447	362
190	407	671
191	174	91
192	760	535
193	166	537
194	395	916
195	234	184
196	582	546
197	141	382
198	995	1
199	737	906
200	937	801
201	707	283
202	915	100
203	440	560
204	749	694
205	347	592
206	733	656
207	120	837
208	370	64
209	21	975
210	820	979
211	797	872
212	913	65
213	360	579
214	331	882
215	889	801
216	302	876
217	332	868
218	516	411
219	769	194
220	96	89
221	536	502
222	417	172
223	454	737
224	99	586
225	352	746
226	637	973
227	571	823
228	939	598
229	910	587
230	642	596
231	481	859
232	799	526
233	50	115
234	143	114
235	327	608
236	499	653
237	784	766
238	811	47
239	351	142
240	253	147
241	604	931
242	777	983
243	84	813
244	74	660
245	173	537
246	508	442
247	450	813
248	985	659
249	358	931
250	753	72
251	671	67
252	520	343
253	712	244
254	931	735
255	862	619
256	519	206
257	196	954
258	866	35
259	151	109
260	14	984
261	353	636
262	439	557
263	397	608
264	633	96
265	629	803
266	492	495
267	624	22
268	774	90
269	177	59
270	106	435
271	704	119
272	286	803
273	193	66
274	75	876
275	467	755
276	538	574
277	504	605
278	706	820
279	466	365
280	615	932
281	383	837
282	926	221
283	455	930
284	796	980
285	811	135
286	32	360
287	917	175
288	767	283
289	260	404
290	202	595
291	591	667
292	34	370
293	803	466
294	133	98
295	163	211
296	883	477
297	821	479
298	598	934
299	99	738
300	866	804
301	812	24
302	494	755
303	794	351
304	636	165
305	943	86
306	906	443
307	849	700
308	609	571
309	443	863
310	630	12
311	626	940
312	374	438
313	940	201
314	992	614
315	759	959
316	448	707
317	517	775
318	330	711
319	538	808
320	82	85
321	363	472
322	406	999
323	182	237
324	768	77
325	7	70
326	356	954
327	71	164
328	510	743
329	590	128
330	186	722
331	314	569
332	17	580
333	177	225
334	336	792
335	758	285
336	450	599
337	533	9
338	323	982
339	759	999
340	657	881
341	695	846
342	943	347
343	953	153
344	667	95
345	696	419
346	258	950
347	616	415
348	230	832
349	986	627
350	772	762
351	93	544
352	687	349
353	915	910
354	36	314
355	750	258
356	309	903
357	540	136
358	49	153
359	314	735
360	167	364
361	32	30
362	185	586
363	572	669
364	807	629
365	535	313
366	64	760
367	175	391
368	15	808
369	246	217
370	620	417
371	980	16
372	79	628
373	582	292
374	841	714
375	305	704
376	488	419
377	647	911
378	537	817
379	402	766
380	570	306
381	348	648
382	586	577
383	499	111
384	625	979
385	840	626
386	272	373
387	292	819
388	386	651
389	253	470
390	913	996
391	700	856
392	841	281
393	492	840
394	374	212
395	173	845
396	404	962
397	419	983
398	846	54
399	914	563
400	619	121
401	750	478
402	344	216
403	522	151
404	624	944
405	193	680
406	595	915
407	717	848
408	205	315
409	464	939
410	474	743
411	551	383
412	481	246
413	438	635
414	189	146
415	17	791
416	613	227
417	471	962
418	886	325
419	458	982
420	604	495
421	131	249
422	670	87
423	518	547
424	873	282
425	189	952
426	178	709
427	125	607
428	596	419
429	315	99
430	51	572
431	853	148
432	870	908
433	955	408
434	945	531
435	292	65
436	631	206
437	778	843
438	116	316
439	184	120
440	403	596
441	666	655
442	141	916
443	138	107
444	761	415
445	867	173
446	345	938
447	469	992
448	249	759
449	904	295
450	395	387
451	456	162
452	58	666
453	945	434
454	299	265
455	525	411
456	112	820
457	242	335
458	866	163
459	154	980
460	548	809
461	854	546
462	825	706
463	758	788
464	126	806
465	462	619
466	684	549
467	101	569
468	547	480
469	109	47
470	233	330
471	732	432
472	826	801
473	983	980
474	21	575
475	732	660
476	722	602
477	453	845
478	580	15
479	272	817
480	508	498
481	979	859
482	582	589
483	228	804
484	387	617
485	474	596
486	132	246
487	556	178
488	118	359
489	843	198
490	670	111
491	326	437
492	443	664
493	93	611
494	171	835
495	433	349
496	357	558
497	615	986
498	756	424
499	762	964
500	960	690
501	768	348
DEMAND_SECTION
1	0
2	7
3	2
4	1
5	4
6	3
7	1
8	2
9	7
10	1
11	5
12	3
13	9
14	9
15	7
16	1
17	5
18	1
19	3
20	2
21	5
22	5
23	9
24	7
25	9
26	9
27	3
28	2
29	5
30	1
31	9
32	2
33	6
34	1
35	8
36	9
37	5
38	6
39	2
40	1
41	6
42	7
43	5
44	1
45	4
46	6
47	7
48	4
49	5
50	6
51	4
52	4
53	3
54	5
55	9
56	3
57	2
58	6
59	9
60	6
61	6
62	9
63	1
64	2
65	1
66	7
67	5
68	6
69	4
70	6
71	2
72	5
73	6
74	5
75	4
76	6
77	9
78	1
79	7
80	7
81	1
82	6
83	3
84	3
85	4
86	1
87	4
88	5
89	7
90	3
91	8
92	9
93	3
94	9
95	3
96	3
97	6
98	9
99	5
100	6
101	2
102	9
103	5
104	5
105	2
106	5
107	6
108	4
109	9
110	8
111	6
112	8
113	8
114	4
115	8
116	6
117	2
118	8
119	3
120	7
121	9
122	3
123	1
124	1
125	8
126	3
127	7
128	6
129	8
130	8
131	9
132	1
133	5
134	3
135	3
136	7
137	7
138	5
139	3
140	1
141	7
142	1
143	3
144	5
145	7
146	2
147	7
148	6
149	5
150	9
151	9
152	2
153	8
154	2
155	9
156	4
157	9
158	9
159	8
160	3
161	6
162	5
163	6
164	5
165	3
166	1
167	3
168	3
169	2
170	9
171	3
172	5
173	3
174	6
175	5
176	7
177	1
178	9
179	6
180	6
181	2
182	1
183	9
184	5
185	3
186	4
187	3
188	5
189	2
190	9
191	5
192	8
193	1
194	5
195	6
196	9
197	3
198	7
199	2
200	1
201	2
202	5
203	5
204	8
205	1
206	7
207	4
208	7
209	5
210	4
211	1
212	8
213	8
214	7
215	4
216	8
217	8
218	1
219	9
220	5
221	1
222	2
223	3
224	4
225	6
226	6
227	1
228	3
229	2
230	7
231	2
232	6
233	5
234	9
235	6
236	4
237	7
238	5
239	4
240	9
241	3
242	5
243	4
244	1
245	7
246	2
247	3
248	6
249	8
250	5
251	4
252	1
253	9
254	3
255	7
256	8
257	5
258	7
259	7
260	9
261	4
262	6
263	6
264	9
265	6
266	5
267	6
268	9
269	1
270	9
271	6
272	9
273	2
274	4
275	3
276	4
277	3
278	9
279	1
280	9
281	2
282	9
283	7
284	6
285	2
286	9
287	7
288	3
289	8
290	8
291	7
292	7
293	5
294	9
295	4
296	7
297	7
298	2
299	9
300	2
301	4
302	4
303	5
304	9
305	6
306	7
307	2
308	9
309	2
310	3
311	1
312	7
313	7
314	6
315	9
316	6
317	7
318	9
319	4
320	4
321	3
322	4
323	2
324	1
325	6
326	8
327	8
328	4
329	9
330	9
331	8
332	7
333	4
334	3
335	4
336	6
337	6
338	8
339	2
340	5
341	8
342	4
343	7
344	7
345	1
346	3
347	1
348	8
349	1
350	8
351	7
352	9
353	6
354	2
355	6
356	5
357	1
358	8
359	4
360	3
361	8
362	2
363	1
364	9
365	5
366	7
367	9
368	4
369	9
370	8
371	4
372	6
373	9
374	1
375	5
376	8
377	6
378	2
379	4
380	8
381	9
382	1
383	9
384	1
385	9
386	4
387	6
388	3
389	1
390	7
391	5
392	1
393	5
394	3
395	1
396	1
397	5
398	5
399	2
400	4
401	1
402	9
403	8
404	9
405	5
406	2
407	3
408	7
409	1
410	3
411	6
412	7
413	2
414	8
415	2
416	9
417	1
418	1
419	8
420	6
421	9
422	5
423	4
424	8
425	6
426	6
427	3
428	6
429	3
430	1
431	3
432	7
433	3
434	7
435	5
436	8
437	7
438	9
439	9
440	6
441	1
442	2
443	4
444	9
445	5
446	9
447	8
448	9
449	2
450	9
451	4
452	6
453	1
454	8
455	1
456	6
457	2
458	9
459	2
460	9
461	1
462	9
463	4
464	7
465	3
466	9
467	2
468	3
469	2
470	3
471	4
472	4
473	9
474	9
475	4
476	9
477	4
478	2
479	6
480	2
481	8
482	9
483	4
484	5
485	4
486	2
487	9
488	5
489	8
490	3
491	9
492	3
493	9
494	1
495	8
496	1
497	7
498	8
499	9
500	3
501	5
DEPOT_SECTION
1
-1
EOF
