NAME : n501-0014
COMMENT : "Generated by pyvrp_manuel (VRPL)"
TYPE : VRPL
DIMENSION : 501
EDGE_WEIGHT_TYPE : EUC_2D
CAPACITY : 100
VEHICLES : 500
DISTANCE : 3000
NODE_COORD_SECTION
1	308	628
2	870	496
3	483	633
4	208	151
5	812	972
6	133	252
7	189	774
8	13	496
9	881	758
10	285	810
11	398	831
12	488	253
13	175	433
14	860	589
15	130	813
16	883	17
17	640	896
18	49	348
19	106	836
20	251	504
21	994	449
22	280	981
23	272	623
24	432	727
25	144	307
26	499	247
27	493	732
28	390	15
29	220	474
30	558	985
31	244	132
32	47	357
33	29	22
34	675	894
35	78	452
36	660	747
37	242	17
38	939	490
39	535	130
40	726	931
41	12	290
42	894	644
43	77	826
44	88	793
45	805	118
46	363	848
47	233	452
48	104	209
49	933	484
50	330	101
51	74	368
52	971	112
53	917	439
54	275	160
55	297	368
56	599	163
57	222	873
58	409	561
59	758	407
60	848	709
61	884	554
62	962	745
63	381	504
64	550	595
65	112	489
66	102	560
67	563	393
68	753	957
69	671	193
70	137	49
71	857	231
72	275	971
73	917	361
74	677	306
75	130	52
76	761	168
77	930	640
78	930	492
79	8	902
80	71	343
81	365	707
82	510	704
83	786	494
84	429	632
85	129	405
86	170	52
87	131	982
88	738	289
89	991	424
90	934	414
91	732	491
92	791	524
93	687	871
94	19	497
95	152	771
96	810	96
97	641	784
98	320	760
99	41	299
100	468	328
101	614	820
102	411	416
103	64	778
104	570	773
105	497	75
106	691	681
107	327	513
108	389	182
109	395	704
110	516	223
111	493	929
112	694	528
113	634	478
114	853	668
115	418	841
116	58	288
117	1	70
118	364	385
119	836	651
120	588	868
121	14	820
122	424	700
123	212	626
124	288	580
125	797	205
126	503	714
127	570	469
128	266	370
129	966	778
130	38	950
131	340	252
132	256	502
133	900	617
134	365	8
135	901	591
136	618	878
137	927	86
138	412	908
139	575	868
140	290	303
141	230	228
142	219	259
143	26	909
144	950	328
145	438	909
146	295	164
147	178	349
148	757	517
149	502	354
150	776	659
151	966	664
152	415	309
153	26	720
154	900	703
155	640	630
156	737	912
157	125	374
158	506	308
159	654	49
160	611	453
161	778	497
162	821	131
163	149	455
164	920	98
165	869	676
166	770	297
167	763	655
168	528	61
169	748	677
170	183	866
171	666	758
172	290	152
173	103	393
174	335	365
175	653	253
176	236	222
177	245	514
178	29	971
179	203	919
180	950	810
181	681	0
182	767	769
183	292	87
184	91	418
185	859	573
186	729	866
187	243	425
188	626	752
189	801	44
190	686	516
191	357	180
192	526	760
193	500	148
194	673	32
195	534	536
196	796	850
197	987	118
198	313	718
199	306	148
200	83	651
201	296	154
202	652	124
203	763	187
204	669	410
205	991	568
206	221	187
207	360	503
208	278	994
209	295	238
210	900	173
211	209	415
212	428	869
213	637	268
214	542	225
215	137	751
216	430	659
217	87	517
218	208	436
219	718	968
220	559	987
221	909	335
222	982	206
223	91	140
224	790	466
225	815	131
226	297	556
227	450	746
228	777	797
229	489	397
230	216	14
231	851	425
232	274	213
233	449	611
234	630	359
235	675	358
236	614	511
237	349	883
238	188	700
239	960	703
240	834	249
241	708	625
242	375	553
243	841	418
244	906	869
245	817	218
246	125	546
247	238	517
248	896	435
249	184	659
250	224	743
251	102	164
252	1	936
253	859	512
254	29	646
255	448	251
256	290	161
257	331	31
258	716	400
259	385	789
260	375	737
261	610	385
262	406	712
263	574	654
264	682	287
265	203	579
266	63	186
267	395	669
268	991	661
269	311	34
270	933	824
271	995	846
272	822	838
273	668	682
274	563	917
275	662	719
276	497	983
277	773	312
278	479	199
279	669	100
280	546	984
281	443	289
282	765	72
283	646	547
284	670	62
285	694	503
286	357	312
287	574	626
288	473	422
289	80	721
290	961	787
291	642	227
292	344	149
293	923	54
294	542	399
295	139	92
296	847	58
297	447	864
298	404	309
299	401	42
300	9	121
301	696	996
302	883	383
303	353	880
304	56	582
305	461	989
306	647	332
307	950	637
308	535	226
309	210	441
310	12	225
311	527	680
312	860	977
313	250	590
314	940	620
315	284	846
316	928	285
317	567	905
318	27	836
319	133	214
320	700	685
321	727	410
322	423	53
323	779	399
324	243	610
325	431	46
326	116	683
327	445	777
328	338	81
329	444	80
330	942	38
331	426	480
332	465	622
333	337	771
334	18	62
335	382	453
336	584	900
337	814	643
338	960	954
339	271	917
340	269	183
341	591	726
342	549	695
343	44	518
344	88	441
345	348	464
346	494	46
347	623	255
348	842	775
349	753	879
350	214	687
351	241	281
352	308	369
353	427	647
354	482	356
355	964	527
356	188	319
357	631	89
358	331	163
359	767	693
360	619	151
361	544	653
362	653	821
363	479	846
364	644	631
365	916	284
366	927	514
367	79	654
368	995	852
369	364	794
370	576	290
371	418	965
372	801	105
373	941	294
374	936	645
375	383	364
376	306	120
377	905	975
378	562	827
379	69	678
380	947	470
381	231	157
382	159	795
383	555	330
384	648	319
385	295	929
386	481	348
387	557	611
388	102	58
389	582	236
390	285	34
391	875	629
392	53	856
393	952	542
394	320	45
395	261	817
396	839	981
397	65	963
398	486	870
399	980	383
400	794	260
401	259	823
402	548	958
403	597	514
404	74	130
405	40	9
406	513	300
407	689	85
408	794	206
409	113	809
410	247	596
411	938	722
412	332	360
413	318	891
414	648	2
415	571	383
416	208	991
417	405	279
418	840	345
419	358	470
420	17	271
421	501	693
422	696	900
423	506	637
424	368	686
425	200	610
426	558	443
427	252	326
428	497	975
429	533	2
430	729	924
431	243	239
432	529	74
433	976	763
434	289	675
435	65	6
436	871	604
437	966	814
438	47	464
439	842	377
440	628	23
441	735	647
442	449	525
443	926	558
444	608	885
445	142	742
446	107	653
447	760	375
448	186	895
449	937	467
450	291	76
451	306	67
452	229	201
453	163	551
454	42	790
455	813	533
456	379	709
457	342	775
458	404	808
459	851	201
460	171	573
461	414	200
462	303	831
463	739	462
464	13	715
465	875	351
466	602	524
467	215	169
468	358	552
469	929	2
470	650	476
471	356	102
472	278	54
473	885	545
474	756	304
475	171	605
476	180	850
477	714	266
478	225	653
479	545	994
480	819	925
481	21	456
482	944	266
483	552	105
484	161	486
485	269	647
486	738	610
487	125	149
488	387	911
489	218	988
490	693	319
491	474	531
492	419	214
493	565	669
494	11	673
495	350	851
496	292	253
497	104	130
498	794	925
499	543	803
500	707	105
501	240	598
DEMAND_SECTION
1	0
2	2
3	4
4	9
5	4
6	8
7	9
8	4
9	5
10	2
11	3
12	3
13	3
14	2
15	2
16	2
17	4
18	6
19	9
20	9
21	6
22	8
23	7
24	1
25	3
26	9
27	6
28	8
29	2
30	5
31	6
32	2
33	7
34	8
35	5
36	1
37	8
38	3
39	1
40	8
41	8
42	8
43	3
44	7
45	5
46	2
47	8
48	9
49	8
50	9
51	3
52	3
53	7
54	8
55	9
56	3
57	5
58	8
59	8
60	3
61	1
62	2
63	3
64	4
65	7
66	9
67	7
68	9
69	4
70	7
71	7
72	3
73	6
74	2
75	4
76	4
77	3
78	5
79	7
80	1
81	6
82	1
83	3
84	9
85	7
86	8
87	7
88	8
89	8
90	7
91	1
92	1
93	2
94	4
95	8
96	7
97	4
98	2
99	7
100	9
101	3
102	4
103	2
104	8
105	4
106	2
107	4
108	8
109	9
110	2
111	4
112	9
113	8
114	5
115	4
116	1
117	6
118	8
119	3
120	4
121	8
122	3
123	8
124	6
125	3
126	4
127	5
128	4
129	4
130	7
131	7
132	8
133	5
134	4
135	9
136	1
137	9
138	3
139	8
140	8
141	5
142	6
143	8
144	8
145	1
146	9
147	8
148	5
149	2
150	6
151	4
152	2
153	9
154	9
155	9
156	7
157	3
158	5
159	6
160	7
161	4
162	6
163	9
164	4
165	8
166	3
167	8
168	6
169	3
170	7
171	7
172	5
173	6
174	7
175	4
176	4
177	6
178	3
179	8
180	7
181	4
182	5
183	1
184	9
185	6
186	7
187	1
188	5
189	1
190	3
191	3
192	4
193	7
194	8
195	1
196	7
197	1
198	7
199	6
200	7
201	4
202	3
203	1
204	3
205	5
206	8
207	1
208	3
209	8
210	7
211	8
212	3
213	6
214	3
215	6
216	5
217	4
218	4
219	1
220	1
221	8
222	6
223	1
224	6
225	3
226	9
227	6
228	8
229	7
230	1
231	3
232	6
233	8
234	7
235	9
236	8
237	7
238	4
239	7
240	4
241	4
242	3
243	7
244	4
245	8
246	5
247	3
248	5
249	3
250	3
251	6
252	5
253	7
254	9
255	4
256	9
257	6
258	6
259	6
260	8
261	1
262	5
263	1
264	7
265	1
266	7
267	3
268	1
269	2
270	9
271	5
272	4
273	5
274	7
275	9
276	1
277	6
278	5
279	8
280	6
281	5
282	9
283	2
284	2
285	3
286	7
287	5
288	4
289	7
290	2
291	1
292	7
293	5
294	2
295	3
296	9
297	4
298	3
299	2
300	2
301	3
302	2
303	6
304	2
305	9
306	1
307	8
308	4
309	6
310	8
311	6
312	4
313	9
314	5
315	6
316	9
317	6
318	2
319	5
320	8
321	3
322	1
323	3
324	9
325	8
326	3
327	1
328	2
329	6
330	8
331	4
332	9
333	2
334	9
335	5
336	1
337	6
338	1
339	4
340	2
341	5
342	9
343	5
344	3
345	2
346	4
347	2
348	7
349	6
350	1
351	2
352	4
353	3
354	2
355	7
356	9
357	2
358	4
359	1
360	9
361	8
362	4
363	3
364	9
365	6
366	5
367	8
368	9
369	3
370	7
371	3
372	5
373	2
374	4
375	2
376	6
377	8
378	5
379	4
380	4
381	2
382	6
383	2
384	7
385	4
386	1
387	7
388	4
389	1
390	5
391	3
392	5
393	2
394	3
395	8
396	8
397	9
398	2
399	4
400	2
401	7
402	4
403	8
404	4
405	7
406	4
407	1
408	9
409	8
410	8
411	2
412	8
413	9
414	8
415	5
416	7
417	1
418	3
419	3
420	7
421	6
422	3
423	4
424	2
425	5
426	8
427	1
428	3
429	4
430	5
431	3
432	2
433	9
434	7
435	3
436	2
437	2
438	1
439	2
440	7
441	2
442	5
443	2
444	3
445	4
446	7
447	4
448	7
449	3
450	7
451	8
452	4
453	2
454	2
455	4
456	3
457	2
458	8
459	1
460	7
461	9
462	1
463	2
464	9
465	2
466	7
467	6
468	5
469	6
470	3
471	2
472	4
473	2
474	2
475	9
476	3
477	3
478	1
479	8
480	2
481	9
482	1
483	6
484	8
485	6
486	1
487	1
488	8
489	4
490	1
491	8
492	8
493	3
494	6
495	6
496	7
497	7
498	8
499	8
500	6
501	8
DEPOT_SECTION
1
-1
EOF
