NAME : n501-0025
COMMENT : "Generated by pyvrp_manuel (VRPL)"
TYPE : VRPL
DIMENSION : 501
EDGE_WEIGHT_TYPE : EUC_2D
CAPACITY : 100
VEHICLES : 500
DISTANCE : 3000
NODE_COORD_SECTION
1	746	308
2	37	483
3	189	328
4	3	901
5	962	713
6	214	36
7	163	281
8	374	355
9	610	477
10	94	175
11	59	832
12	39	987
13	19	967
14	237	140
15	188	439
16	520	840
17	881	451
18	530	650
19	379	544
20	43	393
21	516	567
22	749	374
23	792	559
24	476	738
25	719	126
26	171	94
27	70	148
28	989	805
29	349	6
30	331	242
31	705	673
32	248	623
33	422	275
34	859	23
35	378	190
36	643	230
37	785	50
38	766	398
39	434	473
40	674	507
41	528	503
42	738	427
43	681	118
44	250	72
45	195	731
46	694	188
47	430	326
48	201	747
49	467	276
50	787	944
51	45	516
52	266	665
53	316	690
54	329	43
55	587	258
56	823	361
57	900	60
58	568	577
59	652	238
60	973	47
61	261	293
62	459	784
63	783	998
64	672	18
65	851	64
66	972	834
67	756	584
68	993	506
69	394	724
70	528	470
71	234	3
72	907	684
73	195	3
74	185	581
75	201	451
76	102	274
77	518	883
78	109	934
79	267	367
80	69	296
81	853	187
82	160	287
83	351	708
84	134	489
85	126	100
86	22	981
87	211	865
88	390	596
89	321	841
90	672	908
91	63	769
92	419	113
93	839	660
94	152	578
95	185	407
96	333	892
97	3	401
98	519	81
99	684	682
100	744	362
101	811	526
102	902	585
103	728	994
104	24	654
105	834	751
106	454	391
107	868	915
108	954	171
109	7	818
110	982	932
111	615	429
112	500	524
113	886	660
114	968	71
115	597	800
116	636	378
117	560	112
118	436	243
119	776	675
120	194	434
121	786	860
122	687	146
123	654	365
124	124	971
125	390	922
126	136	771
127	626	987
128	974	982
129	530	940
130	425	533
131	751	226
132	755	504
133	717	107
134	52	46
135	907	397
136	798	17
137	944	490
138	449	377
139	187	243
140	656	86
141	783	180
142	443	668
143	606	595
144	543	783
145	877	940
146	84	491
147	516	468
148	353	174
149	461	702
150	865	345
151	21	476
152	684	699
153	394	341
154	728	177
155	320	109
156	265	860
157	674	499
158	55	408
159	355	708
160	989	203
161	753	493
162	99	616
163	812	826
164	238	530
165	862	891
166	587	369
167	350	473
168	339	788
169	15	800
170	240	572
171	591	897
172	897	578
173	186	637
174	561	740
175	355	385
176	463	374
177	793	846
178	786	568
179	670	971
180	545	596
181	563	5
182	832	173
183	938	23
184	164	249
185	24	344
186	810	952
187	912	872
188	416	161
189	577	909
190	916	87
191	227	299
192	51	194
193	932	665
194	154	206
195	235	957
196	137	142
197	979	834
198	730	448
199	504	698
200	796	217
201	252	103
202	85	97
203	11	440
204	681	477
205	399	742
206	525	324
207	115	668
208	864	386
209	289	895
210	906	318
211	675	619
212	435	153
213	508	373
214	914	414
215	177	604
216	493	235
217	669	805
218	409	969
219	718	671
220	944	248
221	640	864
222	447	441
223	751	16
224	897	170
225	186	72
226	711	969
227	770	838
228	734	547
229	827	768
230	999	669
231	332	203
232	219	866
233	137	990
234	401	180
235	504	351
236	727	320
237	894	549
238	261	423
239	678	505
240	674	13
241	743	326
242	303	266
243	348	703
244	996	682
245	56	682
246	236	553
247	301	473
248	507	665
249	99	78
250	728	454
251	600	640
252	184	579
253	637	19
254	834	238
255	778	657
256	243	809
257	59	407
258	159	119
259	221	69
260	589	173
261	316	344
262	969	904
263	90	240
264	493	4
265	866	100
266	494	684
267	112	465
268	437	719
269	316	217
270	817	26
271	681	269
272	247	191
273	279	778
274	211	870
275	37	531
276	410	524
277	199	628
278	130	264
279	139	819
280	340	771
281	689	329
282	348	469
283	101	542
284	734	761
285	511	256
286	119	904
287	666	992
288	620	698
289	783	611
290	506	258
291	690	191
292	577	53
293	945	454
294	632	722
295	825	154
296	75	90
297	536	266
298	612	554
299	658	68
300	105	864
301	917	764
302	611	378
303	851	782
304	504	30
305	960	973
306	387	763
307	324	19
308	787	574
309	196	989
310	454	735
311	933	961
312	759	790
313	492	551
314	548	311
315	143	304
316	336	735
317	287	380
318	474	908
319	238	615
320	56	298
321	636	233
322	580	967
323	507	297
324	842	948
325	728	555
326	213	427
327	885	839
328	694	338
329	929	840
330	965	135
331	434	352
332	215	521
333	452	353
334	696	139
335	63	379
336	203	477
337	767	192
338	887	308
339	353	290
340	19	413
341	811	860
342	287	253
343	62	344
344	979	155
345	200	476
346	209	967
347	71	619
348	114	771
349	136	139
350	955	18
351	123	601
352	684	545
353	789	492
354	889	790
355	761	153
356	382	706
357	979	511
358	188	131
359	118	255
360	717	811
361	435	63
362	387	212
363	390	636
364	412	842
365	132	169
366	717	953
367	475	463
368	620	252
369	4	582
370	790	287
371	358	565
372	814	523
373	350	707
374	251	171
375	483	972
376	794	544
377	652	464
378	801	238
379	650	485
380	396	911
381	883	742
382	947	311
383	751	342
384	240	270
385	533	187
386	687	17
387	289	622
388	229	959
389	889	753
390	284	519
391	754	750
392	955	847
393	802	36
394	116	352
395	674	176
396	84	485
397	819	810
398	534	944
399	124	993
400	863	198
401	976	297
402	690	863
403	625	536
404	410	381
405	866	690
406	736	604
407	429	946
408	336	809
409	280	623
410	221	969
411	154	741
412	189	97
413	87	574
414	687	48
415	729	347
416	995	525
417	197	800
418	668	963
419	112	195
420	629	424
421	706	355
422	13	846
423	26	748
424	961	921
425	658	171
426	312	505
427	773	742
428	216	869
429	940	502
430	995	296
431	567	886
432	831	955
433	294	44
434	963	812
435	43	479
436	322	968
437	642	131
438	631	263
439	953	613
440	115	229
441	582	260
442	944	642
443	734	190
444	540	10
445	905	573
446	807	490
447	616	265
448	801	250
449	206	162
450	582	455
451	880	65
452	434	312
453	343	826
454	736	225
455	655	793
456	196	343
457	773	764
458	529	923
459	35	719
460	481	845
461	276	529
462	346	38
463	14	85
464	573	374
465	797	759
466	922	178
467	999	560
468	339	229
469	46	20
470	118	830
471	271	793
472	404	825
473	567	6
474	17	941
475	620	299
476	498	761
477	580	619
478	187	290
479	613	635
480	227	618
481	891	259
482	368	813
483	921	681
484	93	315
485	690	985
486	655	852
487	830	260
488	38	649
489	229	778
490	49	832
491	776	862
492	547	484
493	798	584
494	717	426
495	888	133
496	906	224
497	862	759
498	98	227
499	849	799
500	30	379
501	836	249
DEMAND_SECTION
1	0
2	1
3	3
4	4
5	7
6	9
7	9
8	5
9	2
10	4
11	5
12	4
13	5
14	4
15	3
16	3
17	2
18	1
19	5
20	1
21	8
22	5
23	1
24	2
25	8
26	8
27	1
28	3
29	7
30	3
31	9
32	2
33	6
34	5
35	9
36	1
37	2
38	1
39	2
40	1
41	9
42	2
43	7
44	7
45	9
46	4
47	1
48	6
49	9
50	6
51	1
52	2
53	2
54	9
55	3
56	3
57	4
58	7
59	3
60	2
61	7
62	8
63	6
64	6
65	3
66	1
67	2
68	1
69	7
70	4
71	2
72	8
73	5
74	5
75	4
76	3
77	6
78	6
79	4
80	9
81	3
82	5
83	8
84	7
85	1
86	6
87	5
88	3
89	3
90	9
91	8
92	8
93	2
94	3
95	4
96	5
97	5
98	1
99	5
100	6
101	1
102	4
103	7
104	4
105	2
106	2
107	1
108	6
109	6
110	2
111	3
112	6
113	8
114	8
115	7
116	9
117	7
118	6
119	8
120	2
121	2
122	4
123	2
124	9
125	1
126	7
127	3
128	4
129	2
130	6
131	2
132	4
133	9
134	4
135	7
136	7
137	9
138	3
139	5
140	4
141	5
142	2
143	1
144	1
145	8
146	4
147	9
148	4
149	5
150	4
151	9
152	2
153	1
154	9
155	9
156	4
157	5
158	2
159	3
160	9
161	1
162	6
163	6
164	7
165	3
166	9
167	9
168	9
169	7
170	4
171	5
172	5
173	7
174	3
175	1
176	5
177	2
178	3
179	7
180	9
181	9
182	5
183	6
184	2
185	9
186	4
187	2
188	7
189	9
190	1
191	5
192	3
193	6
194	3
195	4
196	9
197	3
198	4
199	5
200	3
201	7
202	4
203	1
204	1
205	2
206	5
207	8
208	1
209	3
210	6
211	5
212	3
213	4
214	5
215	2
216	2
217	4
218	5
219	5
220	3
221	9
222	1
223	7
224	9
225	4
226	6
227	7
228	8
229	5
230	3
231	3
232	5
233	2
234	4
235	6
236	4
237	5
238	7
239	6
240	3
241	3
242	9
243	9
244	6
245	4
246	6
247	9
248	1
249	4
250	1
251	5
252	3
253	2
254	7
255	4
256	4
257	5
258	9
259	9
260	4
261	4
262	8
263	1
264	9
265	3
266	3
267	9
268	3
269	7
270	3
271	1
272	8
273	2
274	4
275	5
276	9
277	7
278	7
279	5
280	6
281	7
282	3
283	3
284	7
285	8
286	1
287	3
288	2
289	7
290	3
291	5
292	2
293	3
294	4
295	8
296	1
297	4
298	4
299	9
300	2
301	5
302	1
303	3
304	3
305	4
306	2
307	2
308	5
309	6
310	7
311	9
312	5
313	9
314	5
315	7
316	9
317	4
318	5
319	3
320	8
321	7
322	9
323	7
324	6
325	9
326	1
327	4
328	9
329	7
330	8
331	2
332	5
333	3
334	9
335	7
336	5
337	2
338	9
339	7
340	4
341	8
342	5
343	2
344	5
345	3
346	7
347	6
348	5
349	1
350	8
351	2
352	8
353	6
354	2
355	2
356	4
357	7
358	6
359	8
360	7
361	2
362	8
363	2
364	9
365	2
366	3
367	9
368	2
369	8
370	4
371	6
372	9
373	1
374	8
375	3
376	6
377	9
378	8
379	8
380	2
381	3
382	6
383	1
384	1
385	9
386	7
387	3
388	8
389	4
390	5
391	9
392	2
393	3
394	2
395	4
396	1
397	7
398	9
399	2
400	2
401	1
402	7
403	2
404	2
405	5
406	9
407	6
408	5
409	8
410	5
411	7
412	6
413	6
414	7
415	4
416	4
417	6
418	7
419	8
420	1
421	4
422	3
423	3
424	9
425	2
426	4
427	5
428	7
429	5
430	8
431	4
432	7
433	7
434	6
435	6
436	6
437	6
438	8
439	6
440	5
441	6
442	5
443	8
444	8
445	9
446	2
447	7
448	6
449	8
450	7
451	9
452	6
453	3
454	2
455	6
456	2
457	9
458	6
459	6
460	9
461	7
462	4
463	6
464	5
465	1
466	4
467	5
468	6
469	8
470	2
471	3
472	5
473	8
474	6
475	9
476	2
477	1
478	3
479	4
480	9
481	1
482	8
483	3
484	3
485	2
486	1
487	4
488	5
489	1
490	9
491	7
492	3
493	2
494	7
495	4
496	9
497	5
498	8
499	2
500	6
501	1
DEPOT_SECTION
1
-1
EOF
