NAME : n501-0007
COMMENT : "Generated by pyvrp_manuel (VRPL)"
TYPE : VRPL
DIMENSION : 501
EDGE_WEIGHT_TYPE : EUC_2D
CAPACITY : 100
VEHICLES : 500
DISTANCE : 3000
NODE_COORD_SECTION
1	268	465
2	653	412
3	757	945
4	269	211
5	262	134
6	108	582
7	246	574
8	482	968
9	912	189
10	685	509
11	810	775
12	911	563
13	55	233
14	842	999
15	151	928
16	799	347
17	235	907
18	38	299
19	955	283
20	106	424
21	458	431
22	241	746
23	987	758
24	274	570
25	73	656
26	797	526
27	739	548
28	319	648
29	200	504
30	506	470
31	936	492
32	416	363
33	126	749
34	959	922
35	664	416
36	18	173
37	32	766
38	48	520
39	965	165
40	715	662
41	773	100
42	941	911
43	689	31
44	869	489
45	698	881
46	195	478
47	763	22
48	291	524
49	666	698
50	716	880
51	918	848
52	206	350
53	298	656
54	182	902
55	463	563
56	686	889
57	51	352
58	684	762
59	906	164
60	308	696
61	998	199
62	463	849
63	533	847
64	729	107
65	53	962
66	782	73
67	532	421
68	867	480
69	873	292
70	416	513
71	916	459
72	260	240
73	831	317
74	964	181
75	326	721
76	522	564
77	347	363
78	86	709
79	349	525
80	451	531
81	197	724
82	23	478
83	875	92
84	13	698
85	242	110
86	553	105
87	476	967
88	5	376
89	616	229
90	694	252
91	539	139
92	183	325
93	392	745
94	390	510
95	576	205
96	304	765
97	246	129
98	557	145
99	875	35
100	278	863
101	484	822
102	254	428
103	157	134
104	451	624
105	846	520
106	120	101
107	129	745
108	620	729
109	746	39
110	827	838
111	256	391
112	571	143
113	844	969
114	473	238
115	662	581
116	538	651
117	170	784
118	786	712
119	499	38
120	224	722
121	171	452
122	531	385
123	899	542
124	986	585
125	551	441
126	673	568
127	405	149
128	564	652
129	331	725
130	806	419
131	329	201
132	21	20
133	546	674
134	913	99
135	456	763
136	62	398
137	922	523
138	595	783
139	98	364
140	173	252
141	599	131
142	844	861
143	23	413
144	246	130
145	165	165
146	870	882
147	465	847
148	107	255
149	455	766
150	869	956
151	542	465
152	514	857
153	520	457
154	445	683
155	107	995
156	99	862
157	793	680
158	306	161
159	294	296
160	287	224
161	376	497
162	923	916
163	905	275
164	172	379
165	105	632
166	300	639
167	158	821
168	292	98
169	715	95
170	508	573
171	743	419
172	570	34
173	413	374
174	122	953
175	722	66
176	253	268
177	785	694
178	716	135
179	426	891
180	509	989
181	109	550
182	359	436
183	126	732
184	480	6
185	364	576
186	345	351
187	343	818
188	258	14
189	303	240
190	487	104
191	232	736
192	526	669
193	884	396
194	275	42
195	26	395
196	862	601
197	267	223
198	814	152
199	995	403
200	227	988
201	435	227
202	878	965
203	450	189
204	898	867
205	588	291
206	809	138
207	481	772
208	684	281
209	838	369
210	95	446
211	294	874
212	672	254
213	573	163
214	638	121
215	676	300
216	864	882
217	783	960
218	370	399
219	954	915
220	675	579
221	492	689
222	547	428
223	462	524
224	182	307
225	649	487
226	647	718
227	796	748
228	957	536
229	615	766
230	839	929
231	304	467
232	729	432
233	99	307
234	772	732
235	390	272
236	438	398
237	22	919
238	658	469
239	554	587
240	719	873
241	20	339
242	951	570
243	400	432
244	721	416
245	426	791
246	858	998
247	702	995
248	64	545
249	50	498
250	168	324
251	976	793
252	607	7
253	169	801
254	653	500
255	118	518
256	255	58
257	201	401
258	530	706
259	857	915
260	172	911
261	247	92
262	121	663
263	707	918
264	398	165
265	352	356
266	821	419
267	1	545
268	147	554
269	21	713
270	865	448
271	770	336
272	511	866
273	539	547
274	478	121
275	969	684
276	955	247
277	458	715
278	360	25
279	6	490
280	122	59
281	489	823
282	721	618
283	409	846
284	22	945
285	22	610
286	678	459
287	546	410
288	152	106
289	242	374
290	683	324
291	728	648
292	371	308
293	26	946
294	209	980
295	510	985
296	463	291
297	201	662
298	118	69
299	84	388
300	98	302
301	24	15
302	855	249
303	35	647
304	723	273
305	772	158
306	330	237
307	98	586
308	574	31
309	506	829
310	850	572
311	922	371
312	126	721
313	675	109
314	76	67
315	497	130
316	613	247
317	848	769
318	992	976
319	73	53
320	893	5
321	233	163
322	948	282
323	728	883
324	30	375
325	503	734
326	74	897
327	735	920
328	201	940
329	953	783
330	431	76
331	809	100
332	527	73
333	497	668
334	682	73
335	917	795
336	348	972
337	777	952
338	803	415
339	752	179
340	425	641
341	42	619
342	780	625
343	949	126
344	630	621
345	710	757
346	748	836
347	224	126
348	985	326
349	567	682
350	653	647
351	96	271
352	269	877
353	470	238
354	697	450
355	80	435
356	283	468
357	203	979
358	810	560
359	803	813
360	572	190
361	486	10
362	493	52
363	340	286
364	979	809
365	105	494
366	658	394
367	377	177
368	796	183
369	743	928
370	312	275
371	132	149
372	915	636
373	909	693
374	8	421
375	968	957
376	628	412
377	602	815
378	979	89
379	512	978
380	514	820
381	952	699
382	565	577
383	626	242
384	724	107
385	472	487
386	363	392
387	385	933
388	244	468
389	752	700
390	90	31
391	880	931
392	135	800
393	253	883
394	987	271
395	122	17
396	862	25
397	562	969
398	955	39
399	144	817
400	518	830
401	719	48
402	879	673
403	609	992
404	407	398
405	190	614
406	71	923
407	613	333
408	601	698
409	735	168
410	548	167
411	221	749
412	910	573
413	568	560
414	611	863
415	941	423
416	997	861
417	788	267
418	578	209
419	39	156
420	479	815
421	197	632
422	20	242
423	390	546
424	412	544
425	296	714
426	399	604
427	437	387
428	996	221
429	855	261
430	831	818
431	387	19
432	76	257
433	705	372
434	966	171
435	861	247
436	204	417
437	375	904
438	631	105
439	201	56
440	885	768
441	83	622
442	341	81
443	334	561
444	283	409
445	892	12
446	254	396
447	405	534
448	590	421
449	964	171
450	361	24
451	998	573
452	453	35
453	229	755
454	354	935
455	105	878
456	29	214
457	451	894
458	185	947
459	443	415
460	998	365
461	273	987
462	540	412
463	672	125
464	337	291
465	254	330
466	576	537
467	970	197
468	281	728
469	327	728
470	326	922
471	526	620
472	20	721
473	995	914
474	862	859
475	567	651
476	416	165
477	704	682
478	507	181
479	255	98
480	516	715
481	276	242
482	694	651
483	818	641
484	566	350
485	462	667
486	336	235
487	270	878
488	475	523
489	750	672
490	590	389
491	994	36
492	149	415
493	438	28
494	596	630
495	49	454
496	595	539
497	868	319
498	513	865
499	813	709
500	943	819
501	347	730
DEMAND_SECTION
1	0
2	9
3	2
4	3
5	8
6	2
7	6
8	5
9	6
10	9
11	7
12	9
13	4
14	2
15	8
16	2
17	8
18	7
19	2
20	8
21	2
22	1
23	4
24	8
25	9
26	5
27	4
28	6
29	8
30	6
31	2
32	7
33	3
34	9
35	6
36	5
37	9
38	3
39	2
40	9
41	9
42	1
43	6
44	9
45	7
46	4
47	4
48	9
49	6
50	2
51	3
52	4
53	7
54	9
55	3
56	6
57	2
58	5
59	5
60	7
61	8
62	8
63	7
64	6
65	7
66	6
67	5
68	2
69	4
70	2
71	1
72	7
73	4
74	7
75	5
76	9
77	9
78	9
79	9
80	5
81	1
82	6
83	3
84	8
85	8
86	6
87	4
88	8
89	6
90	9
91	7
92	8
93	1
94	4
95	3
96	9
97	7
98	2
99	3
100	8
101	7
102	1
103	8
104	3
105	4
106	9
107	9
108	1
109	4
110	1
111	5
112	7
113	7
114	4
115	9
116	2
117	1
118	9
119	8
120	9
121	3
122	8
123	2
124	9
125	1
126	2
127	3
128	2
129	6
130	5
131	6
132	2
133	9
134	2
135	3
136	4
137	4
138	8
139	9
140	3
141	7
142	9
143	3
144	1
145	9
146	2
147	9
148	2
149	7
150	6
151	9
152	3
153	4
154	2
155	3
156	6
157	7
158	1
159	9
160	2
161	7
162	9
163	9
164	2
165	7
166	2
167	2
168	6
169	3
170	6
171	1
172	2
173	9
174	7
175	7
176	6
177	5
178	8
179	5
180	3
181	1
182	1
183	5
184	4
185	8
186	4
187	3
188	8
189	1
190	7
191	7
192	9
193	8
194	2
195	9
196	1
197	7
198	8
199	5
200	5
201	2
202	7
203	2
204	6
205	9
206	4
207	3
208	9
209	1
210	1
211	5
212	3
213	3
214	6
215	7
216	5
217	6
218	8
219	6
220	2
221	3
222	9
223	7
224	2
225	2
226	6
227	8
228	5
229	2
230	4
231	1
232	5
233	3
234	7
235	5
236	3
237	1
238	3
239	5
240	6
241	2
242	7
243	6
244	5
245	4
246	4
247	9
248	2
249	8
250	2
251	1
252	2
253	3
254	7
255	7
256	6
257	3
258	8
259	9
260	9
261	9
262	4
263	1
264	8
265	9
266	9
267	5
268	3
269	6
270	4
271	8
272	8
273	2
274	9
275	7
276	2
277	8
278	8
279	2
280	5
281	2
282	5
283	3
284	8
285	1
286	5
287	8
288	9
289	6
290	3
291	7
292	2
293	4
294	3
295	9
296	1
297	6
298	1
299	7
300	9
301	7
302	8
303	5
304	3
305	2
306	2
307	6
308	2
309	9
310	4
311	8
312	9
313	9
314	2
315	8
316	4
317	9
318	7
319	6
320	6
321	5
322	3
323	4
324	1
325	4
326	6
327	3
328	1
329	1
330	1
331	3
332	2
333	6
334	4
335	2
336	2
337	5
338	8
339	5
340	3
341	4
342	2
343	8
344	4
345	2
346	1
347	7
348	9
349	3
350	3
351	2
352	7
353	2
354	2
355	2
356	8
357	6
358	7
359	9
360	1
361	9
362	2
363	7
364	5
365	8
366	7
367	8
368	7
369	6
370	1
371	9
372	3
373	1
374	1
375	4
376	8
377	9
378	7
379	6
380	1
381	7
382	3
383	3
384	7
385	2
386	1
387	5
388	8
389	1
390	4
391	3
392	5
393	9
394	9
395	9
396	1
397	2
398	8
399	4
400	8
401	9
402	9
403	2
404	7
405	9
406	3
407	1
408	9
409	4
410	3
411	5
412	6
413	6
414	4
415	3
416	2
417	2
418	7
419	4
420	4
421	1
422	3
423	7
424	9
425	8
426	1
427	8
428	3
429	9
430	9
431	6
432	5
433	8
434	5
435	5
436	2
437	4
438	6
439	4
440	8
441	8
442	4
443	5
444	8
445	6
446	1
447	9
448	4
449	5
450	4
451	9
452	7
453	5
454	2
455	6
456	1
457	2
458	7
459	9
460	2
461	3
462	3
463	7
464	7
465	4
466	1
467	6
468	2
469	6
470	8
471	2
472	6
473	8
474	7
475	1
476	7
477	1
478	4
479	9
480	5
481	5
482	6
483	9
484	8
485	2
486	9
487	3
488	7
489	6
490	7
491	9
492	9
493	5
494	8
495	8
496	3
497	2
498	7
499	9
500	6
501	8
DEPOT_SECTION
1
-1
EOF
