NAME : n51-0020
COMMENT : "Generated by pyvrp_manuel (OVRPL)"
TYPE : OVRPL
DIMENSION : 51
EDGE_WEIGHT_TYPE : EUC_2D
CAPACITY : 40
VEHICLES : 50
OPEN_ROUTE : YES
DISTANCE : 3000
NODE_COORD_SECTION
1	723	742
2	777	590
3	576	759
4	812	295
5	445	720
6	258	968
7	158	731
8	141	661
9	849	560
10	450	818
11	141	163
12	74	192
13	513	273
14	611	517
15	916	283
16	363	831
17	374	979
18	301	495
19	382	733
20	692	234
21	829	468
22	374	490
23	848	990
24	743	587
25	826	291
26	239	356
27	176	715
28	547	329
29	449	490
30	929	946
31	115	683
32	693	691
33	432	625
34	626	987
35	21	310
36	164	257
37	598	805
38	122	825
39	918	254
40	587	243
41	607	268
42	305	165
43	83	899
44	437	486
45	251	849
46	214	298
47	110	80
48	944	114
49	431	355
50	683	634
51	117	949
DEMAND_SECTION
1	0
2	5
3	5
4	7
5	1
6	2
7	8
8	7
9	6
10	6
11	8
12	4
13	7
14	9
15	9
16	3
17	2
18	1
19	9
20	8
21	8
22	1
23	5
24	9
25	1
26	5
27	6
28	8
29	3
30	5
31	8
32	6
33	1
34	5
35	5
36	1
37	3
38	6
39	6
40	4
41	1
42	1
43	2
44	3
45	2
46	1
47	2
48	7
49	4
50	5
51	4
DEPOT_SECTION
1
-1
EOF
