NAME : n401-0018
COMMENT : "Generated by pyvrp_manuel (VRPL)"
TYPE : VRPL
DIMENSION : 401
EDGE_WEIGHT_TYPE : EUC_2D
CAPACITY : 100
VEHICLES : 400
DISTANCE : 3000
NODE_COORD_SECTION
1	176	261
2	911	327
3	162	768
4	888	392
5	35	774
6	817	720
7	910	872
8	83	140
9	735	516
10	763	856
11	435	8
12	579	731
13	725	495
14	402	890
15	795	957
16	202	307
17	732	964
18	990	93
19	672	634
20	209	441
21	655	380
22	840	408
23	396	618
24	330	158
25	852	572
26	116	911
27	792	429
28	287	307
29	346	924
30	606	558
31	284	966
32	47	68
33	261	917
34	703	46
35	71	441
36	861	546
37	999	82
38	675	349
39	578	409
40	186	83
41	155	197
42	42	591
43	419	498
44	337	117
45	93	326
46	50	745
47	748	159
48	627	159
49	358	362
50	212	707
51	621	584
52	572	35
53	629	842
54	203	98
55	486	724
56	653	746
57	476	468
58	52	16
59	53	78
60	530	365
61	280	89
62	895	497
63	735	36
64	205	741
65	786	120
66	897	772
67	893	132
68	6	88
69	489	631
70	372	329
71	616	181
72	230	36
73	576	126
74	628	464
75	137	936
76	789	911
77	60	153
78	201	532
79	703	41
80	684	964
81	864	427
82	517	501
83	960	943
84	471	107
85	367	812
86	821	755
87	320	507
88	561	704
89	102	597
90	276	414
91	706	729
92	903	776
93	120	465
94	20	487
95	465	508
96	660	623
97	30	393
98	427	844
99	52	556
100	253	360
101	274	463
102	758	240
103	319	956
104	326	625
105	91	812
106	480	375
107	300	950
108	872	192
109	50	666
110	485	533
111	711	45
112	782	238
113	627	412
114	480	808
115	425	597
116	542	983
117	144	964
118	609	531
119	439	404
120	538	357
121	538	955
122	424	690
123	516	386
124	322	526
125	483	520
126	66	430
127	75	38
128	384	518
129	946	512
130	665	834
131	998	740
132	560	483
133	546	780
134	128	968
135	758	742
136	191	974
137	46	872
138	286	853
139	526	244
140	361	644
141	37	503
142	692	339
143	56	699
144	90	984
145	14	351
146	444	464
147	249	224
148	368	720
149	118	0
150	270	351
151	623	400
152	859	261
153	918	408
154	470	425
155	775	114
156	687	972
157	274	144
158	592	831
159	985	977
160	474	426
161	77	224
162	293	300
163	733	417
164	720	960
165	326	492
166	848	50
167	413	957
168	901	863
169	577	531
170	389	964
171	663	784
172	902	545
173	978	375
174	203	879
175	119	492
176	832	275
177	119	655
178	311	651
179	667	783
180	925	668
181	217	422
182	895	772
183	725	253
184	66	189
185	464	327
186	928	860
187	734	379
188	16	714
189	618	61
190	827	881
191	148	162
192	629	776
193	844	128
194	523	16
195	584	221
196	457	165
197	472	810
198	321	161
199	464	986
200	851	641
201	247	684
202	679	350
203	926	15
204	285	618
205	728	776
206	211	828
207	139	960
208	985	341
209	771	102
210	383	611
211	41	225
212	482	940
213	201	478
214	51	209
215	299	289
216	524	860
217	592	639
218	286	61
219	250	564
220	151	831
221	211	260
222	410	41
223	135	705
224	557	190
225	254	26
226	738	938
227	130	677
228	365	857
229	695	483
230	984	763
231	176	129
232	943	702
233	943	361
234	744	550
235	989	647
236	20	322
237	624	279
238	256	120
239	953	102
240	251	534
241	120	528
242	695	971
243	861	568
244	999	253
245	26	20
246	860	867
247	188	349
248	501	562
249	290	534
250	149	918
251	433	78
252	486	478
253	392	419
254	640	870
255	473	932
256	178	499
257	628	987
258	889	72
259	429	708
260	390	154
261	772	843
262	730	303
263	587	882
264	840	338
265	794	233
266	471	910
267	195	253
268	704	570
269	289	157
270	396	27
271	195	275
272	762	422
273	886	66
274	760	711
275	462	406
276	502	90
277	613	26
278	716	651
279	268	308
280	61	202
281	727	194
282	573	79
283	107	617
284	175	223
285	603	294
286	661	159
287	371	730
288	647	874
289	7	111
290	442	154
291	848	822
292	452	48
293	319	335
294	267	4
295	807	780
296	215	569
297	598	794
298	509	890
299	609	627
300	776	448
301	580	17
302	648	465
303	586	622
304	522	291
305	437	882
306	798	585
307	355	8
308	770	887
309	583	64
310	57	380
311	289	298
312	861	251
313	78	424
314	96	776
315	727	729
316	392	273
317	932	813
318	971	919
319	739	896
320	393	33
321	734	336
322	222	63
323	432	856
324	829	76
325	151	226
326	597	692
327	853	42
328	424	688
329	858	257
330	800	259
331	976	72
332	551	213
333	829	400
334	876	621
335	294	813
336	623	44
337	191	264
338	346	71
339	248	53
340	887	109
341	504	697
342	141	342
343	318	71
344	674	970
345	112	203
346	287	773
347	841	665
348	451	150
349	678	84
350	796	625
351	38	731
352	991	345
353	516	834
354	897	158
355	973	284
356	864	492
357	645	54
358	843	13
359	542	27
360	732	476
361	384	275
362	413	41
363	269	130
364	21	737
365	2	542
366	789	721
367	164	358
368	315	784
369	997	649
370	214	909
371	123	0
372	612	601
373	518	366
374	271	518
375	395	302
376	815	573
377	776	920
378	283	43
379	101	74
380	333	962
381	79	50
382	103	610
383	314	342
384	735	712
385	389	88
386	698	386
387	670	544
388	426	429
389	422	11
390	215	701
391	386	620
392	66	814
393	345	697
394	95	971
395	933	817
396	983	88
397	36	559
398	683	354
399	211	341
400	793	274
401	157	693
DEMAND_SECTION
1	0
2	6
3	9
4	1
5	7
6	9
7	6
8	1
9	7
10	1
11	7
12	1
13	1
14	8
15	3
16	5
17	7
18	5
19	2
20	9
21	8
22	1
23	5
24	9
25	9
26	1
27	7
28	2
29	1
30	3
31	7
32	3
33	2
34	7
35	1
36	5
37	5
38	4
39	9
40	1
41	5
42	7
43	7
44	4
45	7
46	5
47	5
48	2
49	5
50	4
51	7
52	7
53	3
54	6
55	2
56	7
57	3
58	6
59	8
60	8
61	5
62	5
63	6
64	1
65	5
66	1
67	4
68	9
69	3
70	6
71	5
72	9
73	2
74	2
75	1
76	3
77	9
78	4
79	7
80	7
81	7
82	8
83	6
84	8
85	1
86	6
87	8
88	6
89	4
90	9
91	3
92	5
93	5
94	3
95	5
96	4
97	4
98	2
99	7
100	4
101	3
102	8
103	4
104	3
105	1
106	8
107	4
108	6
109	7
110	4
111	7
112	1
113	7
114	9
115	9
116	9
117	4
118	2
119	3
120	5
121	2
122	6
123	8
124	1
125	6
126	8
127	5
128	8
129	4
130	4
131	2
132	4
133	5
134	5
135	2
136	7
137	7
138	9
139	8
140	3
141	4
142	2
143	2
144	8
145	7
146	6
147	1
148	8
149	8
150	8
151	8
152	7
153	6
154	9
155	3
156	5
157	7
158	8
159	1
160	2
161	5
162	7
163	4
164	4
165	6
166	3
167	7
168	8
169	3
170	7
171	7
172	9
173	2
174	2
175	4
176	3
177	9
178	1
179	4
180	4
181	8
182	5
183	5
184	7
185	3
186	1
187	7
188	1
189	1
190	2
191	8
192	7
193	2
194	5
195	4
196	6
197	4
198	1
199	5
200	2
201	5
202	3
203	5
204	5
205	6
206	5
207	1
208	8
209	1
210	8
211	9
212	1
213	9
214	9
215	8
216	3
217	4
218	4
219	5
220	5
221	8
222	3
223	1
224	3
225	4
226	2
227	1
228	9
229	9
230	6
231	8
232	5
233	4
234	1
235	4
236	8
237	5
238	3
239	6
240	5
241	1
242	3
243	7
244	8
245	4
246	6
247	5
248	2
249	3
250	9
251	4
252	8
253	9
254	6
255	2
256	2
257	7
258	7
259	9
260	4
261	5
262	5
263	3
264	8
265	1
266	9
267	3
268	6
269	4
270	3
271	2
272	1
273	6
274	9
275	5
276	5
277	2
278	7
279	7
280	8
281	8
282	1
283	8
284	9
285	6
286	1
287	8
288	8
289	6
290	1
291	3
292	5
293	1
294	5
295	1
296	9
297	1
298	4
299	2
300	7
301	6
302	1
303	4
304	8
305	3
306	9
307	9
308	5
309	5
310	3
311	8
312	1
313	1
314	2
315	3
316	1
317	1
318	4
319	4
320	3
321	4
322	3
323	5
324	2
325	6
326	6
327	7
328	2
329	1
330	1
331	4
332	4
333	3
334	2
335	1
336	5
337	3
338	3
339	1
340	8
341	9
342	8
343	5
344	7
345	6
346	6
347	3
348	2
349	2
350	3
351	9
352	1
353	5
354	5
355	7
356	3
357	6
358	8
359	2
360	4
361	3
362	7
363	9
364	6
365	1
366	8
367	6
368	3
369	1
370	5
371	8
372	5
373	4
374	2
375	5
376	6
377	9
378	6
379	5
380	9
381	6
382	4
383	8
384	4
385	3
386	7
387	1
388	2
389	2
390	9
391	5
392	2
393	4
394	2
395	4
396	7
397	5
398	3
399	5
400	6
401	2
DEPOT_SECTION
1
-1
EOF
