NAME : n401-0030
COMMENT : "Generated by pyvrp_manuel (VRPL)"
TYPE : VRPL
DIMENSION : 401
EDGE_WEIGHT_TYPE : EUC_2D
CAPACITY : 100
VEHICLES : 400
DISTANCE : 3000
NODE_COORD_SECTION
1	210	35
2	966	948
3	76	775
4	865	148
5	758	121
6	463	18
7	497	615
8	220	189
9	919	517
10	271	59
11	297	61
12	92	344
13	674	182
14	238	236
15	810	44
16	592	333
17	359	854
18	433	383
19	651	753
20	938	694
21	895	98
22	109	459
23	367	878
24	904	21
25	406	884
26	788	78
27	68	748
28	646	290
29	774	498
30	412	334
31	568	980
32	372	917
33	349	859
34	452	742
35	584	340
36	976	961
37	940	476
38	215	129
39	116	756
40	458	879
41	16	130
42	636	178
43	999	385
44	852	400
45	687	937
46	389	900
47	232	391
48	886	478
49	842	777
50	851	917
51	504	360
52	76	376
53	801	545
54	46	81
55	142	766
56	557	104
57	449	870
58	733	485
59	228	707
60	439	926
61	371	831
62	566	949
63	439	15
64	216	859
65	561	444
66	672	4
67	28	190
68	607	88
69	566	129
70	605	766
71	720	459
72	440	897
73	900	89
74	675	230
75	400	37
76	149	417
77	424	978
78	126	112
79	88	634
80	399	737
81	937	105
82	710	692
83	359	809
84	475	515
85	123	295
86	798	479
87	35	586
88	994	812
89	667	633
90	335	605
91	910	322
92	371	87
93	141	914
94	690	104
95	651	769
96	831	559
97	795	96
98	823	799
99	447	227
100	659	811
101	162	785
102	581	647
103	860	759
104	38	996
105	194	2
106	117	603
107	650	95
108	908	585
109	517	913
110	504	313
111	728	147
112	886	327
113	163	288
114	173	483
115	860	333
116	719	30
117	131	148
118	573	886
119	975	326
120	329	204
121	690	688
122	571	438
123	441	853
124	686	681
125	92	330
126	143	144
127	845	716
128	108	604
129	996	111
130	616	724
131	638	717
132	808	874
133	765	854
134	713	293
135	559	707
136	786	866
137	992	678
138	851	740
139	628	255
140	490	600
141	100	280
142	751	522
143	212	871
144	620	357
145	526	782
146	376	288
147	193	28
148	167	480
149	213	154
150	818	644
151	669	269
152	939	623
153	739	107
154	703	702
155	748	749
156	104	416
157	114	756
158	857	429
159	457	694
160	326	667
161	851	611
162	228	921
163	519	402
164	559	772
165	105	406
166	583	570
167	42	160
168	59	288
169	302	836
170	106	495
171	524	572
172	720	759
173	553	517
174	402	839
175	914	62
176	187	827
177	472	993
178	234	617
179	436	684
180	854	92
181	305	724
182	341	402
183	684	962
184	763	428
185	294	709
186	732	627
187	508	683
188	480	201
189	673	392
190	420	490
191	149	509
192	841	68
193	781	976
194	686	89
195	230	781
196	252	203
197	703	4
198	899	556
199	251	197
200	446	341
201	406	959
202	542	379
203	598	352
204	235	133
205	532	215
206	157	108
207	76	157
208	620	656
209	463	910
210	875	347
211	617	549
212	470	386
213	765	382
214	482	66
215	726	205
216	4	933
217	324	112
218	801	56
219	204	387
220	484	420
221	575	810
222	424	147
223	458	887
224	691	941
225	971	540
226	520	244
227	147	603
228	633	571
229	713	36
230	79	193
231	379	739
232	925	155
233	352	975
234	728	934
235	232	283
236	557	344
237	530	119
238	15	508
239	99	383
240	660	941
241	956	986
242	34	155
243	782	968
244	604	437
245	580	930
246	630	604
247	25	422
248	843	189
249	90	857
250	910	715
251	644	456
252	41	482
253	509	206
254	628	411
255	708	981
256	778	781
257	425	40
258	443	106
259	149	524
260	574	738
261	870	423
262	629	739
263	705	611
264	63	323
265	547	239
266	305	617
267	458	171
268	239	92
269	948	893
270	281	950
271	416	28
272	218	638
273	817	299
274	8	416
275	807	880
276	19	508
277	146	901
278	352	156
279	839	283
280	974	518
281	185	49
282	641	592
283	297	804
284	946	450
285	14	796
286	712	863
287	662	347
288	429	436
289	389	499
290	751	43
291	676	680
292	149	451
293	721	497
294	214	379
295	267	299
296	686	346
297	369	876
298	361	778
299	114	486
300	262	762
301	736	321
302	970	671
303	275	154
304	501	736
305	574	60
306	841	993
307	982	203
308	64	18
309	853	66
310	58	48
311	308	578
312	653	248
313	118	89
314	955	950
315	264	213
316	805	738
317	887	682
318	557	428
319	956	936
320	207	629
321	48	745
322	886	927
323	356	80
324	860	536
325	418	62
326	475	514
327	769	132
328	533	115
329	704	257
330	206	390
331	308	46
332	779	693
333	356	909
334	718	412
335	30	963
336	691	46
337	776	843
338	960	436
339	18	417
340	571	44
341	666	617
342	93	266
343	74	851
344	58	117
345	168	199
346	427	809
347	840	987
348	244	944
349	835	235
350	633	457
351	331	718
352	575	87
353	396	277
354	903	205
355	483	456
356	515	937
357	385	830
358	255	477
359	830	541
360	676	957
361	262	336
362	805	8
363	427	988
364	6	981
365	147	651
366	908	238
367	172	373
368	545	492
369	254	934
370	143	832
371	944	815
372	896	682
373	355	487
374	915	237
375	989	829
376	62	758
377	915	887
378	316	456
379	101	218
380	901	367
381	537	530
382	407	189
383	377	816
384	97	778
385	736	427
386	704	378
387	287	986
388	454	771
389	114	822
390	856	589
391	361	22
392	172	751
393	536	850
394	104	842
395	583	377
396	574	890
397	289	856
398	957	702
399	409	833
400	819	641
401	914	925
DEMAND_SECTION
1	0
2	4
3	3
4	3
5	6
6	5
7	5
8	6
9	3
10	2
11	1
12	7
13	3
14	9
15	2
16	6
17	6
18	9
19	4
20	2
21	6
22	6
23	6
24	2
25	5
26	5
27	9
28	2
29	5
30	7
31	6
32	4
33	7
34	8
35	8
36	6
37	2
38	7
39	3
40	5
41	6
42	6
43	7
44	2
45	3
46	5
47	2
48	1
49	7
50	8
51	1
52	3
53	4
54	1
55	6
56	7
57	8
58	3
59	2
60	7
61	4
62	3
63	1
64	4
65	3
66	9
67	4
68	1
69	1
70	4
71	6
72	7
73	1
74	7
75	5
76	2
77	2
78	9
79	2
80	4
81	9
82	6
83	7
84	9
85	3
86	8
87	8
88	3
89	1
90	1
91	7
92	7
93	5
94	4
95	2
96	9
97	6
98	3
99	9
100	2
101	4
102	5
103	1
104	8
105	3
106	8
107	5
108	3
109	6
110	6
111	5
112	3
113	7
114	2
115	5
116	1
117	2
118	4
119	6
120	1
121	2
122	4
123	3
124	9
125	1
126	8
127	7
128	3
129	2
130	7
131	1
132	2
133	4
134	6
135	9
136	8
137	7
138	8
139	6
140	4
141	7
142	1
143	3
144	7
145	2
146	9
147	3
148	4
149	4
150	6
151	2
152	4
153	2
154	4
155	6
156	5
157	6
158	8
159	5
160	4
161	1
162	4
163	4
164	7
165	1
166	7
167	4
168	2
169	1
170	7
171	2
172	3
173	3
174	2
175	6
176	3
177	6
178	5
179	9
180	4
181	9
182	2
183	4
184	4
185	2
186	7
187	3
188	7
189	4
190	8
191	9
192	2
193	8
194	3
195	1
196	5
197	6
198	8
199	9
200	3
201	9
202	2
203	7
204	6
205	4
206	6
207	5
208	9
209	6
210	5
211	5
212	9
213	2
214	2
215	4
216	1
217	6
218	4
219	1
220	4
221	9
222	8
223	9
224	4
225	8
226	4
227	9
228	9
229	1
230	4
231	3
232	9
233	6
234	7
235	2
236	7
237	6
238	6
239	6
240	6
241	1
242	2
243	3
244	4
245	8
246	6
247	5
248	8
249	9
250	6
251	5
252	8
253	3
254	7
255	3
256	7
257	5
258	1
259	6
260	4
261	4
262	1
263	4
264	2
265	9
266	9
267	1
268	3
269	9
270	2
271	5
272	1
273	6
274	6
275	6
276	2
277	5
278	9
279	8
280	3
281	2
282	7
283	5
284	7
285	3
286	2
287	1
288	3
289	8
290	4
291	2
292	2
293	6
294	5
295	5
296	3
297	8
298	5
299	4
300	1
301	6
302	9
303	2
304	3
305	6
306	7
307	6
308	6
309	5
310	9
311	4
312	8
313	7
314	6
315	1
316	5
317	3
318	4
319	5
320	7
321	3
322	6
323	2
324	5
325	3
326	5
327	2
328	6
329	4
330	5
331	2
332	7
333	1
334	5
335	7
336	7
337	1
338	9
339	7
340	8
341	9
342	2
343	4
344	3
345	9
346	1
347	8
348	5
349	9
350	6
351	6
352	4
353	5
354	5
355	9
356	2
357	8
358	1
359	9
360	8
361	4
362	6
363	2
364	5
365	1
366	6
367	6
368	3
369	3
370	9
371	5
372	8
373	8
374	7
375	4
376	5
377	7
378	7
379	3
380	2
381	3
382	5
383	1
384	7
385	7
386	2
387	3
388	8
389	2
390	5
391	9
392	8
393	1
394	6
395	8
396	7
397	7
398	8
399	7
400	4
401	2
DEPOT_SECTION
1
-1
EOF
