NAME : n401-0039
COMMENT : "Generated by pyvrp_manuel (VRPL)"
TYPE : VRPL
DIMENSION : 401
EDGE_WEIGHT_TYPE : EUC_2D
CAPACITY : 100
VEHICLES : 400
DISTANCE : 3000
NODE_COORD_SECTION
1	540	856
2	665	954
3	24	57
4	926	322
5	341	902
6	311	126
7	318	954
8	739	503
9	38	0
10	550	509
11	787	799
12	275	672
13	49	358
14	61	278
15	230	442
16	928	578
17	12	43
18	658	924
19	248	36
20	948	54
21	456	422
22	388	204
23	526	429
24	134	220
25	943	40
26	89	757
27	138	841
28	754	123
29	824	565
30	283	397
31	501	701
32	481	187
33	392	815
34	154	437
35	733	994
36	207	628
37	898	193
38	980	443
39	411	828
40	341	842
41	153	383
42	52	783
43	63	84
44	494	70
45	109	697
46	477	752
47	174	7
48	542	312
49	930	558
50	782	578
51	969	853
52	410	261
53	683	946
54	106	896
55	925	18
56	801	719
57	911	812
58	799	186
59	478	890
60	73	347
61	351	157
62	823	848
63	270	34
64	935	128
65	465	64
66	73	283
67	406	969
68	276	101
69	710	983
70	62	624
71	427	379
72	939	369
73	989	791
74	487	468
75	952	565
76	888	203
77	290	760
78	641	539
79	66	540
80	72	608
81	457	0
82	577	3
83	980	428
84	307	885
85	219	552
86	10	586
87	145	200
88	761	90
89	923	587
90	959	505
91	161	533
92	90	389
93	768	484
94	73	115
95	544	609
96	696	851
97	837	30
98	193	565
99	787	914
100	167	847
101	115	376
102	861	210
103	609	726
104	34	879
105	48	902
106	381	303
107	771	179
108	229	367
109	938	588
110	213	535
111	245	189
112	584	874
113	574	805
114	817	308
115	311	214
116	63	747
117	343	917
118	364	42
119	879	43
120	957	969
121	907	66
122	472	468
123	397	717
124	476	931
125	177	360
126	299	260
127	56	140
128	691	995
129	244	43
130	102	452
131	462	176
132	284	436
133	593	462
134	443	704
135	588	579
136	868	532
137	681	992
138	546	817
139	455	581
140	902	599
141	367	583
142	379	768
143	204	366
144	478	89
145	162	697
146	745	960
147	937	54
148	738	673
149	186	473
150	254	787
151	412	463
152	219	235
153	243	469
154	825	859
155	344	99
156	228	549
157	790	636
158	859	145
159	767	847
160	645	31
161	377	759
162	978	783
163	669	186
164	38	20
165	234	588
166	128	634
167	328	22
168	629	203
169	972	897
170	369	987
171	821	305
172	820	942
173	740	900
174	13	12
175	253	200
176	277	286
177	345	982
178	480	403
179	904	246
180	58	166
181	162	605
182	243	32
183	109	860
184	644	834
185	648	258
186	946	87
187	4	3
188	938	639
189	794	892
190	838	458
191	380	406
192	814	509
193	79	859
194	552	608
195	906	387
196	835	350
197	192	862
198	391	779
199	460	373
200	514	866
201	402	984
202	133	562
203	591	289
204	267	89
205	613	456
206	218	401
207	314	547
208	464	426
209	346	960
210	691	930
211	124	557
212	918	529
213	279	272
214	641	700
215	202	982
216	21	862
217	471	395
218	244	308
219	126	553
220	823	18
221	269	791
222	572	680
223	689	902
224	910	295
225	273	535
226	345	971
227	369	214
228	571	378
229	107	569
230	285	34
231	448	556
232	368	975
233	855	452
234	924	823
235	917	970
236	120	260
237	434	71
238	15	211
239	878	270
240	710	442
241	847	30
242	894	451
243	929	551
244	398	57
245	715	793
246	14	945
247	562	145
248	248	300
249	873	273
250	892	870
251	897	43
252	109	466
253	504	171
254	435	625
255	533	824
256	461	969
257	210	415
258	151	835
259	902	988
260	880	500
261	210	527
262	482	882
263	302	711
264	191	34
265	375	259
266	299	897
267	329	278
268	652	692
269	529	862
270	277	134
271	845	713
272	853	907
273	27	410
274	394	722
275	716	544
276	243	952
277	694	381
278	782	797
279	690	242
280	944	517
281	352	781
282	244	86
283	525	210
284	354	834
285	358	776
286	294	666
287	808	176
288	743	585
289	804	515
290	543	341
291	218	693
292	43	289
293	837	340
294	220	583
295	13	564
296	988	618
297	714	38
298	311	905
299	534	339
300	466	983
301	888	798
302	773	881
303	4	176
304	280	347
305	514	737
306	209	799
307	763	789
308	957	727
309	933	282
310	632	900
311	665	302
312	949	832
313	316	61
314	964	621
315	291	38
316	489	30
317	659	439
318	958	901
319	668	122
320	392	291
321	867	262
322	311	617
323	87	216
324	396	657
325	692	361
326	46	938
327	626	812
328	360	296
329	217	652
330	27	871
331	109	932
332	997	259
333	33	972
334	512	437
335	477	447
336	897	523
337	56	689
338	308	388
339	156	662
340	989	478
341	224	88
342	463	247
343	108	690
344	893	929
345	516	459
346	829	348
347	598	831
348	940	90
349	145	336
350	87	814
351	347	752
352	317	927
353	421	462
354	913	426
355	612	507
356	3	534
357	866	189
358	563	445
359	9	474
360	140	74
361	182	891
362	480	11
363	704	870
364	720	916
365	971	122
366	721	365
367	729	156
368	72	483
369	785	860
370	326	693
371	964	412
372	731	495
373	462	909
374	644	300
375	296	540
376	252	212
377	590	504
378	484	316
379	49	426
380	7	489
381	451	279
382	851	936
383	773	18
384	202	41
385	778	469
386	789	900
387	763	51
388	528	660
389	880	413
390	355	133
391	567	480
392	669	602
393	395	184
394	202	382
395	728	483
396	443	221
397	784	508
398	22	30
399	591	554
400	202	70
401	32	303
DEMAND_SECTION
1	0
2	9
3	9
4	3
5	2
6	5
7	7
8	2
9	8
10	2
11	2
12	9
13	8
14	1
15	6
16	1
17	3
18	2
19	8
20	7
21	3
22	9
23	3
24	7
25	6
26	9
27	3
28	2
29	8
30	2
31	1
32	7
33	9
34	4
35	9
36	3
37	6
38	9
39	2
40	2
41	8
42	5
43	4
44	2
45	5
46	2
47	5
48	4
49	5
50	6
51	2
52	4
53	2
54	1
55	2
56	8
57	4
58	3
59	8
60	2
61	1
62	8
63	3
64	8
65	8
66	9
67	2
68	6
69	6
70	2
71	4
72	3
73	1
74	9
75	7
76	2
77	6
78	9
79	3
80	4
81	7
82	4
83	3
84	3
85	2
86	7
87	8
88	8
89	4
90	2
91	6
92	4
93	3
94	3
95	6
96	6
97	1
98	5
99	4
100	9
101	2
102	6
103	4
104	9
105	6
106	9
107	1
108	6
109	8
110	3
111	7
112	7
113	8
114	8
115	3
116	4
117	9
118	3
119	4
120	4
121	2
122	7
123	3
124	9
125	1
126	2
127	8
128	8
129	4
130	5
131	9
132	4
133	1
134	5
135	4
136	9
137	2
138	9
139	8
140	9
141	2
142	3
143	1
144	6
145	4
146	5
147	9
148	8
149	8
150	4
151	3
152	8
153	4
154	1
155	5
156	9
157	7
158	7
159	4
160	9
161	4
162	8
163	6
164	9
165	5
166	4
167	1
168	5
169	5
170	8
171	9
172	5
173	6
174	4
175	9
176	9
177	3
178	8
179	7
180	4
181	3
182	3
183	5
184	6
185	3
186	3
187	5
188	6
189	7
190	5
191	1
192	4
193	3
194	8
195	1
196	9
197	9
198	4
199	3
200	7
201	9
202	5
203	8
204	9
205	6
206	6
207	3
208	5
209	7
210	8
211	4
212	6
213	5
214	2
215	8
216	9
217	4
218	7
219	1
220	2
221	2
222	5
223	5
224	9
225	6
226	2
227	7
228	5
229	4
230	2
231	2
232	6
233	5
234	9
235	7
236	2
237	6
238	9
239	3
240	9
241	5
242	4
243	7
244	2
245	9
246	2
247	7
248	6
249	8
250	3
251	2
252	3
253	5
254	6
255	7
256	9
257	7
258	9
259	9
260	9
261	8
262	3
263	7
264	4
265	3
266	2
267	7
268	4
269	3
270	5
271	2
272	2
273	1
274	5
275	8
276	6
277	3
278	2
279	2
280	2
281	5
282	5
283	2
284	6
285	4
286	9
287	4
288	2
289	2
290	8
291	4
292	4
293	7
294	2
295	9
296	3
297	6
298	8
299	3
300	9
301	5
302	3
303	3
304	1
305	2
306	9
307	2
308	2
309	4
310	6
311	4
312	6
313	4
314	1
315	4
316	2
317	6
318	7
319	5
320	4
321	3
322	9
323	6
324	5
325	5
326	3
327	8
328	9
329	4
330	5
331	7
332	1
333	2
334	9
335	8
336	3
337	5
338	5
339	3
340	9
341	3
342	8
343	4
344	7
345	3
346	8
347	5
348	6
349	5
350	9
351	8
352	1
353	1
354	4
355	1
356	9
357	8
358	4
359	4
360	1
361	1
362	1
363	1
364	7
365	4
366	6
367	4
368	8
369	4
370	2
371	2
372	4
373	1
374	1
375	8
376	5
377	9
378	5
379	7
380	6
381	8
382	5
383	7
384	5
385	6
386	2
387	7
388	4
389	8
390	3
391	2
392	1
393	9
394	7
395	3
396	6
397	4
398	3
399	7
400	2
401	8
DEPOT_SECTION
1
-1
EOF
