NAME : n401-0047
COMMENT : "Generated by pyvrp_manuel (VRPL)"
TYPE : VRPL
DIMENSION : 401
EDGE_WEIGHT_TYPE : EUC_2D
CAPACITY : 100
VEHICLES : 400
DISTANCE : 3000
NODE_COORD_SECTION
1	115	147
2	269	877
3	470	238
4	697	450
5	80	435
6	283	468
7	203	979
8	810	560
9	803	813
10	572	190
11	486	10
12	493	52
13	340	286
14	979	809
15	105	494
16	658	394
17	377	177
18	796	183
19	743	928
20	312	275
21	132	149
22	915	636
23	909	693
24	8	421
25	968	957
26	628	412
27	602	815
28	979	89
29	512	978
30	514	820
31	952	699
32	565	577
33	626	242
34	724	107
35	472	487
36	363	392
37	385	933
38	244	468
39	752	700
40	90	31
41	880	931
42	135	800
43	253	883
44	987	271
45	122	17
46	862	25
47	562	969
48	955	39
49	144	817
50	518	830
51	719	48
52	879	673
53	609	992
54	407	398
55	190	614
56	71	923
57	613	333
58	601	698
59	735	168
60	548	167
61	221	749
62	910	573
63	568	560
64	611	863
65	941	423
66	997	861
67	788	267
68	578	209
69	39	156
70	479	815
71	197	632
72	20	242
73	390	546
74	412	544
75	296	714
76	399	604
77	437	387
78	996	221
79	855	261
80	831	818
81	387	19
82	76	257
83	705	372
84	966	171
85	861	247
86	204	417
87	375	904
88	631	105
89	201	56
90	885	768
91	83	622
92	341	81
93	334	561
94	283	409
95	892	12
96	254	396
97	405	534
98	590	421
99	964	171
100	361	24
101	998	573
102	453	35
103	229	755
104	354	935
105	105	878
106	29	214
107	451	894
108	185	947
109	443	415
110	998	365
111	273	987
112	540	412
113	672	125
114	337	291
115	254	330
116	576	537
117	970	197
118	281	728
119	327	728
120	326	922
121	526	620
122	20	721
123	995	914
124	862	859
125	567	651
126	416	165
127	704	682
128	507	181
129	255	98
130	516	715
131	276	242
132	694	651
133	818	641
134	566	350
135	462	667
136	336	235
137	270	878
138	475	523
139	750	672
140	590	389
141	994	36
142	149	415
143	438	28
144	596	630
145	49	454
146	595	539
147	868	319
148	513	865
149	813	709
150	943	819
151	347	730
152	883	89
153	449	290
154	908	889
155	376	470
156	82	156
157	647	656
158	665	858
159	17	975
160	835	840
161	198	437
162	670	308
163	521	654
164	515	889
165	840	555
166	951	992
167	7	375
168	360	259
169	10	193
170	316	472
171	217	807
172	611	878
173	807	331
174	465	905
175	34	55
176	230	849
177	502	163
178	414	127
179	759	691
180	446	187
181	475	834
182	785	228
183	791	441
184	822	731
185	322	244
186	605	482
187	503	24
188	885	216
189	766	754
190	824	824
191	269	386
192	348	881
193	907	859
194	406	507
195	304	658
196	0	228
197	132	973
198	733	474
199	485	891
200	302	626
201	610	417
202	649	528
203	70	582
204	949	733
205	434	928
206	392	76
207	42	210
208	447	555
209	31	127
210	162	184
211	776	97
212	933	864
213	156	724
214	577	900
215	636	84
216	821	511
217	44	501
218	718	781
219	170	816
220	189	449
221	746	43
222	738	692
223	914	348
224	163	11
225	884	52
226	654	790
227	436	668
228	253	240
229	851	969
230	267	32
231	454	677
232	491	955
233	32	339
234	290	808
235	702	34
236	193	38
237	320	157
238	785	426
239	555	314
240	685	850
241	677	790
242	365	532
243	606	599
244	474	658
245	321	737
246	336	800
247	512	878
248	800	561
249	60	512
250	962	617
251	961	621
252	985	52
253	321	96
254	18	100
255	950	143
256	867	855
257	122	803
258	820	977
259	621	83
260	266	314
261	307	240
262	956	405
263	655	840
264	436	703
265	737	701
266	604	5
267	910	831
268	198	104
269	895	232
270	181	189
271	123	203
272	472	158
273	930	415
274	868	622
275	387	921
276	779	385
277	874	690
278	135	975
279	155	23
280	283	134
281	259	106
282	933	346
283	539	556
284	120	24
285	742	525
286	648	836
287	13	513
288	558	89
289	854	753
290	533	187
291	580	593
292	764	662
293	592	373
294	737	606
295	363	539
296	927	640
297	89	876
298	828	894
299	36	85
300	401	25
301	269	351
302	497	775
303	909	880
304	855	848
305	68	765
306	915	517
307	442	26
308	246	947
309	290	154
310	382	906
311	981	837
312	16	236
313	760	458
314	822	972
315	512	488
316	42	679
317	788	116
318	321	123
319	28	690
320	675	458
321	38	817
322	117	432
323	696	374
324	366	919
325	137	825
326	102	845
327	714	416
328	563	372
329	661	974
330	131	268
331	422	678
332	428	949
333	541	710
334	759	428
335	304	57
336	245	81
337	447	677
338	560	779
339	556	183
340	967	382
341	601	456
342	625	678
343	805	988
344	724	217
345	581	650
346	156	34
347	753	139
348	982	265
349	913	615
350	694	905
351	775	662
352	729	453
353	128	945
354	374	631
355	291	178
356	746	292
357	518	598
358	324	203
359	45	776
360	507	741
361	189	692
362	494	372
363	414	500
364	405	66
365	420	423
366	114	794
367	925	339
368	766	267
369	350	91
370	968	395
371	943	113
372	564	565
373	840	680
374	633	85
375	559	113
376	382	887
377	485	322
378	423	922
379	47	607
380	956	115
381	129	192
382	731	302
383	887	56
384	742	878
385	449	902
386	824	205
387	837	378
388	876	255
389	514	820
390	13	313
391	159	384
392	899	150
393	51	457
394	332	849
395	153	973
396	420	16
397	525	574
398	683	622
399	227	784
400	653	403
401	634	494
DEMAND_SECTION
1	0
2	9
3	2
4	7
5	9
6	3
7	1
8	9
9	4
10	3
11	5
12	6
13	6
14	4
15	3
16	2
17	2
18	7
19	4
20	4
21	1
22	3
23	7
24	9
25	8
26	1
27	8
28	3
29	9
30	9
31	6
32	5
33	8
34	5
35	5
36	2
37	4
38	6
39	4
40	8
41	8
42	4
43	5
44	8
45	6
46	1
47	9
48	4
49	5
50	4
51	9
52	7
53	5
54	2
55	6
56	1
57	2
58	7
59	9
60	2
61	3
62	3
63	7
64	7
65	4
66	1
67	6
68	2
69	6
70	8
71	2
72	6
73	8
74	7
75	1
76	7
77	1
78	4
79	9
80	5
81	5
82	6
83	9
84	8
85	2
86	9
87	3
88	7
89	6
90	7
91	9
92	9
93	5
94	8
95	8
96	3
97	2
98	7
99	9
100	6
101	8
102	5
103	5
104	4
105	1
106	8
107	1
108	1
109	3
110	5
111	7
112	5
113	1
114	9
115	6
116	8
117	8
118	5
119	4
120	7
121	4
122	3
123	4
124	5
125	6
126	9
127	7
128	1
129	7
130	7
131	3
132	7
133	9
134	5
135	3
136	8
137	9
138	4
139	9
140	7
141	5
142	6
143	7
144	2
145	6
146	7
147	4
148	6
149	1
150	6
151	8
152	8
153	1
154	7
155	4
156	7
157	6
158	5
159	1
160	4
161	6
162	9
163	1
164	5
165	4
166	9
167	4
168	2
169	1
170	6
171	4
172	9
173	4
174	6
175	2
176	9
177	7
178	6
179	3
180	9
181	9
182	7
183	5
184	5
185	5
186	1
187	3
188	1
189	1
190	2
191	3
192	1
193	4
194	7
195	9
196	2
197	5
198	7
199	9
200	5
201	7
202	7
203	9
204	9
205	7
206	2
207	5
208	4
209	8
210	8
211	2
212	2
213	3
214	2
215	8
216	1
217	3
218	5
219	5
220	5
221	3
222	1
223	3
224	1
225	2
226	4
227	9
228	8
229	4
230	4
231	6
232	5
233	1
234	5
235	2
236	5
237	2
238	8
239	2
240	2
241	3
242	4
243	4
244	4
245	7
246	9
247	8
248	3
249	2
250	9
251	8
252	4
253	4
254	7
255	1
256	6
257	1
258	9
259	9
260	4
261	5
262	8
263	8
264	1
265	9
266	9
267	7
268	8
269	2
270	4
271	6
272	1
273	1
274	9
275	1
276	2
277	7
278	2
279	6
280	8
281	3
282	6
283	6
284	7
285	3
286	4
287	2
288	9
289	9
290	4
291	2
292	2
293	9
294	9
295	2
296	3
297	3
298	6
299	7
300	9
301	1
302	7
303	9
304	7
305	1
306	3
307	2
308	7
309	2
310	1
311	7
312	6
313	7
314	7
315	2
316	4
317	3
318	7
319	7
320	2
321	1
322	5
323	6
324	7
325	7
326	7
327	1
328	8
329	5
330	5
331	6
332	1
333	9
334	7
335	5
336	5
337	1
338	5
339	8
340	6
341	1
342	2
343	7
344	1
345	8
346	2
347	5
348	9
349	3
350	6
351	4
352	8
353	9
354	9
355	3
356	6
357	8
358	4
359	4
360	3
361	5
362	2
363	3
364	1
365	9
366	8
367	3
368	5
369	5
370	3
371	3
372	1
373	7
374	9
375	8
376	8
377	2
378	3
379	8
380	9
381	4
382	7
383	1
384	4
385	8
386	7
387	6
388	2
389	8
390	2
391	3
392	3
393	5
394	8
395	5
396	9
397	4
398	8
399	3
400	4
401	7
DEPOT_SECTION
1
-1
EOF
