NAME : n401-0019
COMMENT : "Generated by pyvrp_manuel (VRPL)"
TYPE : VRPL
DIMENSION : 401
EDGE_WEIGHT_TYPE : EUC_2D
CAPACITY : 100
VEHICLES : 400
DISTANCE : 3000
NODE_COORD_SECTION
1	275	670
2	159	228
3	961	194
4	871	647
5	221	480
6	253	81
7	368	212
8	332	15
9	41	538
10	47	699
11	764	169
12	634	553
13	48	132
14	310	555
15	475	298
16	252	869
17	244	261
18	637	499
19	351	495
20	959	220
21	943	530
22	154	864
23	772	521
24	818	451
25	872	865
26	745	759
27	354	102
28	435	861
29	307	981
30	708	93
31	373	720
32	731	215
33	182	654
34	633	2
35	120	112
36	406	707
37	516	137
38	150	23
39	935	338
40	320	92
41	663	910
42	726	625
43	269	101
44	768	393
45	324	994
46	366	20
47	871	584
48	163	570
49	942	831
50	670	711
51	287	969
52	746	509
53	51	403
54	576	374
55	727	41
56	735	668
57	500	630
58	768	741
59	101	995
60	240	374
61	317	581
62	432	809
63	862	780
64	415	71
65	953	85
66	888	19
67	740	643
68	72	51
69	606	122
70	141	105
71	413	734
72	84	94
73	544	308
74	451	518
75	730	136
76	545	189
77	129	951
78	430	797
79	802	31
80	666	950
81	447	851
82	975	974
83	172	393
84	260	598
85	505	534
86	715	434
87	38	327
88	402	167
89	507	719
90	324	369
91	681	335
92	66	806
93	552	995
94	53	785
95	241	912
96	89	670
97	526	541
98	493	54
99	712	27
100	141	742
101	207	542
102	104	826
103	155	907
104	687	415
105	468	309
106	629	426
107	144	637
108	801	143
109	508	977
110	818	510
111	327	763
112	768	511
113	131	388
114	720	616
115	219	54
116	857	765
117	427	689
118	154	652
119	304	336
120	392	182
121	908	289
122	910	870
123	124	514
124	313	566
125	248	842
126	596	268
127	991	294
128	1000	123
129	726	562
130	620	199
131	259	870
132	187	780
133	379	179
134	279	338
135	971	761
136	655	124
137	799	747
138	103	470
139	707	422
140	61	320
141	162	99
142	1	813
143	97	354
144	762	395
145	376	137
146	974	20
147	264	989
148	171	388
149	281	635
150	335	600
151	786	138
152	915	99
153	469	8
154	636	88
155	550	709
156	883	745
157	944	251
158	178	722
159	383	319
160	416	412
161	77	150
162	745	414
163	824	537
164	772	528
165	700	216
166	714	185
167	332	963
168	383	760
169	633	498
170	462	421
171	275	534
172	981	887
173	641	458
174	602	790
175	806	605
176	555	590
177	459	983
178	605	241
179	222	121
180	809	0
181	330	274
182	426	214
183	258	588
184	396	329
185	932	142
186	273	703
187	455	500
188	974	181
189	230	642
190	146	955
191	765	7
192	511	78
193	189	819
194	940	155
195	729	405
196	288	698
197	350	80
198	87	64
199	897	277
200	883	448
201	843	263
202	972	758
203	928	266
204	401	580
205	783	942
206	292	962
207	365	630
208	629	772
209	959	86
210	243	241
211	315	626
212	101	85
213	617	212
214	494	867
215	374	982
216	771	648
217	725	227
218	131	219
219	458	689
220	264	19
221	366	175
222	855	892
223	645	868
224	331	510
225	736	859
226	113	710
227	667	447
228	766	496
229	369	456
230	89	653
231	118	696
232	214	268
233	231	501
234	335	234
235	489	535
236	290	704
237	629	191
238	225	976
239	234	308
240	932	636
241	423	346
242	640	597
243	435	623
244	257	538
245	375	630
246	156	143
247	971	286
248	231	672
249	605	77
250	302	393
251	30	846
252	532	268
253	362	640
254	560	274
255	620	11
256	175	714
257	27	369
258	335	57
259	683	199
260	659	598
261	913	541
262	726	845
263	950	821
264	840	723
265	259	833
266	937	334
267	625	840
268	919	491
269	404	907
270	909	392
271	386	87
272	987	115
273	465	727
274	692	711
275	645	262
276	361	372
277	222	641
278	748	952
279	812	91
280	510	487
281	266	706
282	771	377
283	346	995
284	241	293
285	127	603
286	921	119
287	276	229
288	474	131
289	9	799
290	198	652
291	586	614
292	356	248
293	459	331
294	188	367
295	412	871
296	798	140
297	403	413
298	232	187
299	419	854
300	518	819
301	656	173
302	517	498
303	9	676
304	330	436
305	174	444
306	102	379
307	117	221
308	389	460
309	251	949
310	793	955
311	61	978
312	729	625
313	739	551
314	29	337
315	512	234
316	743	674
317	253	676
318	312	102
319	565	359
320	645	101
321	283	705
322	479	743
323	144	226
324	421	755
325	582	498
326	827	202
327	348	592
328	735	145
329	971	460
330	537	205
331	697	583
332	108	105
333	916	516
334	796	942
335	602	276
336	865	40
337	68	861
338	530	690
339	306	275
340	660	423
341	228	203
342	6	581
343	271	841
344	877	491
345	842	840
346	33	408
347	139	306
348	658	296
349	279	346
350	851	285
351	977	154
352	790	200
353	448	100
354	883	834
355	817	289
356	719	884
357	773	792
358	682	741
359	516	503
360	291	382
361	427	999
362	741	355
363	749	39
364	521	881
365	549	636
366	876	790
367	440	163
368	988	896
369	435	414
370	219	687
371	168	357
372	721	673
373	50	231
374	136	154
375	34	320
376	854	807
377	688	716
378	241	865
379	105	913
380	342	904
381	909	723
382	365	268
383	662	786
384	477	493
385	605	148
386	925	665
387	731	78
388	286	926
389	243	945
390	933	999
391	485	477
392	118	729
393	223	740
394	119	173
395	559	632
396	132	872
397	884	681
398	334	492
399	275	826
400	898	381
401	808	439
DEMAND_SECTION
1	0
2	3
3	9
4	7
5	5
6	5
7	5
8	5
9	3
10	2
11	7
12	1
13	4
14	1
15	6
16	6
17	8
18	1
19	7
20	7
21	3
22	2
23	5
24	8
25	9
26	5
27	7
28	4
29	2
30	9
31	9
32	7
33	9
34	4
35	6
36	6
37	3
38	6
39	2
40	7
41	3
42	9
43	8
44	3
45	1
46	1
47	5
48	7
49	6
50	4
51	3
52	3
53	7
54	8
55	7
56	8
57	4
58	3
59	5
60	4
61	6
62	4
63	1
64	9
65	8
66	7
67	9
68	5
69	3
70	9
71	7
72	3
73	6
74	4
75	2
76	9
77	2
78	2
79	4
80	8
81	7
82	6
83	1
84	9
85	4
86	9
87	9
88	7
89	3
90	8
91	5
92	7
93	6
94	4
95	1
96	9
97	4
98	5
99	2
100	6
101	1
102	9
103	4
104	2
105	2
106	8
107	8
108	2
109	5
110	9
111	5
112	2
113	7
114	4
115	4
116	2
117	5
118	2
119	3
120	7
121	7
122	4
123	1
124	9
125	1
126	3
127	5
128	1
129	6
130	2
131	3
132	2
133	2
134	1
135	2
136	6
137	2
138	9
139	3
140	7
141	4
142	4
143	6
144	5
145	7
146	2
147	3
148	2
149	6
150	4
151	1
152	2
153	2
154	7
155	5
156	7
157	9
158	5
159	7
160	2
161	9
162	6
163	4
164	3
165	4
166	1
167	2
168	4
169	7
170	2
171	5
172	5
173	6
174	4
175	3
176	3
177	6
178	7
179	7
180	5
181	6
182	2
183	9
184	9
185	6
186	9
187	1
188	7
189	9
190	6
191	6
192	6
193	6
194	3
195	4
196	5
197	8
198	1
199	5
200	1
201	1
202	2
203	1
204	8
205	5
206	9
207	6
208	4
209	3
210	7
211	5
212	8
213	9
214	9
215	3
216	5
217	9
218	5
219	8
220	5
221	8
222	8
223	2
224	8
225	4
226	1
227	8
228	4
229	4
230	8
231	4
232	3
233	4
234	8
235	9
236	2
237	3
238	3
239	1
240	7
241	8
242	2
243	4
244	3
245	5
246	6
247	3
248	5
249	6
250	9
251	3
252	5
253	6
254	9
255	8
256	2
257	4
258	8
259	1
260	8
261	7
262	3
263	9
264	6
265	6
266	1
267	4
268	5
269	7
270	1
271	4
272	1
273	1
274	1
275	1
276	7
277	8
278	9
279	1
280	9
281	5
282	3
283	2
284	3
285	3
286	6
287	5
288	8
289	9
290	5
291	5
292	4
293	5
294	5
295	2
296	1
297	1
298	7
299	1
300	5
301	9
302	1
303	6
304	8
305	9
306	7
307	1
308	3
309	8
310	4
311	4
312	9
313	2
314	8
315	8
316	3
317	3
318	4
319	4
320	8
321	2
322	8
323	8
324	7
325	8
326	7
327	7
328	1
329	7
330	9
331	9
332	9
333	2
334	8
335	2
336	9
337	5
338	7
339	1
340	6
341	3
342	3
343	5
344	2
345	5
346	6
347	4
348	8
349	8
350	3
351	3
352	6
353	4
354	7
355	7
356	3
357	9
358	4
359	8
360	8
361	8
362	8
363	9
364	2
365	1
366	4
367	3
368	3
369	3
370	2
371	5
372	1
373	6
374	9
375	3
376	1
377	8
378	2
379	2
380	2
381	7
382	1
383	9
384	2
385	4
386	9
387	9
388	9
389	5
390	4
391	8
392	8
393	2
394	1
395	3
396	5
397	4
398	9
399	4
400	5
401	2
DEPOT_SECTION
1
-1
EOF
