NAME : n201-0037
COMMENT : "Generated by pyvrp_manuel (OVRPTW)"
TYPE : OVRPTW
DIMENSION : 201
EDGE_WEIGHT_TYPE : EUC_2D
CAPACITY : 80
VEHICLES : 200
OPEN_ROUTE : YES
SERVICE_TIME : 200
NODE_COORD_SECTION
1	236	749
2	159	228
3	961	194
4	871	647
5	221	480
6	253	81
7	368	212
8	332	15
9	41	538
10	47	699
11	764	169
12	634	553
13	48	132
14	310	555
15	475	298
16	252	869
17	244	261
18	637	499
19	351	495
20	959	220
21	943	530
22	154	864
23	772	521
24	818	451
25	872	865
26	745	759
27	354	102
28	435	861
29	307	981
30	708	93
31	373	720
32	731	215
33	182	654
34	633	2
35	120	112
36	406	707
37	516	137
38	150	23
39	935	338
40	320	92
41	663	910
42	726	625
43	269	101
44	768	393
45	324	994
46	366	20
47	871	584
48	163	570
49	942	831
50	670	711
51	287	969
52	746	509
53	51	403
54	576	374
55	727	41
56	735	668
57	500	630
58	768	741
59	101	995
60	240	374
61	317	581
62	432	809
63	862	780
64	415	71
65	953	85
66	888	19
67	740	643
68	72	51
69	606	122
70	141	105
71	413	734
72	84	94
73	544	308
74	451	518
75	730	136
76	545	189
77	129	951
78	430	797
79	802	31
80	666	950
81	447	851
82	975	974
83	172	393
84	260	598
85	505	534
86	715	434
87	38	327
88	402	167
89	507	719
90	324	369
91	681	335
92	66	806
93	552	995
94	53	785
95	241	912
96	89	670
97	526	541
98	493	54
99	712	27
100	141	742
101	207	542
102	104	826
103	155	907
104	687	415
105	468	309
106	629	426
107	144	637
108	801	143
109	508	977
110	818	510
111	327	763
112	768	511
113	131	388
114	720	616
115	219	54
116	857	765
117	427	689
118	154	652
119	304	336
120	392	182
121	908	289
122	910	870
123	124	514
124	313	566
125	248	842
126	596	268
127	991	294
128	1000	123
129	726	562
130	620	199
131	259	870
132	187	780
133	379	179
134	279	338
135	971	761
136	655	124
137	799	747
138	103	470
139	707	422
140	61	320
141	162	99
142	1	813
143	97	354
144	762	395
145	376	137
146	974	20
147	264	989
148	171	388
149	281	635
150	335	600
151	786	138
152	915	99
153	469	8
154	636	88
155	550	709
156	883	745
157	944	251
158	178	722
159	383	319
160	416	412
161	77	150
162	745	414
163	824	537
164	772	528
165	700	216
166	714	185
167	332	963
168	383	760
169	633	498
170	462	421
171	275	534
172	981	887
173	641	458
174	602	790
175	806	605
176	555	590
177	459	983
178	605	241
179	222	121
180	809	0
181	330	274
182	426	214
183	258	588
184	396	329
185	932	142
186	273	703
187	455	500
188	974	181
189	230	642
190	146	955
191	765	7
192	511	78
193	189	819
194	940	155
195	729	405
196	288	698
197	350	80
198	87	64
199	897	277
200	883	448
201	843	263
DEMAND_SECTION
1	0
2	3
3	2
4	6
5	3
6	8
7	5
8	4
9	4
10	4
11	8
12	2
13	7
14	7
15	2
16	8
17	5
18	1
19	5
20	5
21	3
22	8
23	8
24	3
25	1
26	8
27	3
28	7
29	7
30	6
31	7
32	2
33	8
34	9
35	4
36	2
37	6
38	8
39	4
40	9
41	6
42	7
43	6
44	2
45	8
46	7
47	2
48	1
49	1
50	5
51	4
52	2
53	2
54	2
55	3
56	2
57	5
58	1
59	4
60	1
61	5
62	6
63	2
64	7
65	4
66	8
67	1
68	8
69	2
70	7
71	4
72	3
73	9
74	2
75	2
76	8
77	5
78	1
79	5
80	7
81	5
82	8
83	6
84	2
85	9
86	2
87	4
88	7
89	2
90	1
91	1
92	5
93	5
94	4
95	1
96	5
97	2
98	2
99	8
100	4
101	2
102	7
103	3
104	5
105	1
106	7
107	2
108	7
109	6
110	2
111	1
112	5
113	8
114	9
115	6
116	3
117	5
118	4
119	6
120	1
121	6
122	1
123	4
124	7
125	5
126	9
127	6
128	4
129	2
130	2
131	8
132	8
133	2
134	5
135	8
136	8
137	1
138	5
139	3
140	7
141	5
142	6
143	8
144	3
145	6
146	8
147	9
148	7
149	7
150	4
151	3
152	8
153	1
154	5
155	6
156	8
157	5
158	5
159	9
160	7
161	1
162	5
163	2
164	8
165	8
166	2
167	8
168	4
169	7
170	4
171	5
172	6
173	1
174	4
175	8
176	6
177	9
178	1
179	2
180	3
181	3
182	7
183	7
184	8
185	7
186	1
187	4
188	2
189	3
190	4
191	3
192	4
193	9
194	7
195	5
196	4
197	8
198	1
199	2
200	1
201	1
TIME_WINDOW_SECTION
1	0	3000
2	379	1210
3	520	1569
4	886	2760
5	177	1130
6	1367	1658
7	281	962
8	1078	2296
9	1692	2021
10	729	2023
11	290	2153
12	318	2243
13	343	1965
14	696	1892
15	1155	2156
16	288	2232
17	450	2222
18	266	1974
19	1685	3000
20	1386	1990
21	903	2728
22	1786	2106
23	1070	1515
24	389	2107
25	908	1604
26	115	1076
27	1359	1740
28	225	1080
29	0	1828
30	596	1118
31	979	2059
32	0	1869
33	1087	2185
34	723	1430
35	1364	1959
36	135	1829
37	414	945
38	441	2100
39	422	1615
40	927	1585
41	442	2365
42	469	1140
43	1766	2519
44	584	940
45	1178	2551
46	1011	2718
47	977	2957
48	883	1291
49	1062	2969
50	1853	2675
51	1122	1699
52	0	1202
53	318	1116
54	1296	2840
55	824	2393
56	1818	2286
57	263	517
58	990	2509
59	1252	3000
60	234	1416
61	1041	1823
62	885	2001
63	908	1189
64	0	1859
65	1092	2483
66	1070	2548
67	1935	2480
68	853	1589
69	0	1716
70	1284	2937
71	455	2386
72	171	1595
73	921	2638
74	36	623
75	1085	2318
76	1262	2263
77	461	1896
78	2106	2874
79	1144	1614
80	1566	2347
81	633	1210
82	1283	2626
83	1022	2064
84	673	1582
85	368	1289
86	1080	2228
87	1843	2658
88	1253	2675
89	2128	2801
90	3	1398
91	428	987
92	0	793
93	1083	1503
94	1776	2336
95	1677	2667
96	0	1836
97	718	1796
98	1604	1872
99	1266	2155
100	734	1004
101	1345	2227
102	781	1008
103	723	2630
104	299	1720
105	728	2556
106	679	2647
107	148	1968
108	1494	1784
109	1516	3000
110	1842	2281
111	1724	2184
112	957	2738
113	189	744
114	473	998
115	1496	1738
116	1311	2193
117	204	2055
118	524	2046
119	511	1946
120	1390	2838
121	495	2062
122	1011	1289
123	936	2206
124	1060	1882
125	1225	1713
126	498	1713
127	744	1479
128	757	1431
129	1844	2582
130	711	1623
131	0	1310
132	1059	1421
133	792	1296
134	618	2261
135	98	1911
136	834	1223
137	1184	2766
138	488	2163
139	1326	2985
140	868	2646
141	133	1768
142	805	1955
143	491	2206
144	1549	1875
145	134	1387
146	984	1422
147	861	1742
148	339	1642
149	609	951
150	395	992
151	509	1816
152	1306	1733
153	1201	1959
154	949	2705
155	2132	2378
156	1197	2919
157	280	2238
158	1931	3000
159	384	2142
160	1324	2858
161	58	1867
162	720	1040
163	700	2077
164	1380	2410
165	667	1666
166	932	2715
167	0	1568
168	1237	1902
169	1226	2281
170	1702	2535
171	214	709
172	818	2795
173	937	2014
174	1151	2147
175	460	2300
176	1561	2024
177	2016	2661
178	1441	2481
179	245	1908
180	574	1530
181	443	1375
182	1099	1723
183	1297	2106
184	812	1745
185	410	1739
186	101	776
187	431	1340
188	1009	2355
189	0	628
190	314	646
191	504	1351
192	456	2296
193	149	573
194	1402	1911
195	906	1297
196	831	2766
197	75	1921
198	1016	2294
199	779	2733
200	152	1669
201	695	2063
DEPOT_SECTION
1
-1
EOF
