NAME : n201-0003
COMMENT : "Generated by pyvrp_manuel (OVRPTW)"
TYPE : OVRPTW
DIMENSION : 201
EDGE_WEIGHT_TYPE : EUC_2D
CAPACITY : 80
VEHICLES : 200
OPEN_ROUTE : YES
SERVICE_TIME : 200
NODE_COORD_SECTION
1	881	362
2	89	748
3	664	648
4	124	2
5	519	901
6	82	389
7	731	78
8	827	928
9	693	483
10	799	390
11	700	968
12	892	276
13	761	964
14	613	0
15	978	108
16	62	644
17	765	696
18	792	955
19	15	249
20	74	633
21	490	297
22	978	191
23	335	385
24	488	829
25	132	242
26	734	149
27	734	659
28	431	261
29	408	72
30	915	907
31	928	682
32	664	321
33	165	942
34	234	292
35	125	197
36	194	653
37	186	999
38	603	382
39	656	87
40	605	770
41	204	60
42	757	369
43	536	630
44	838	183
45	752	685
46	786	221
47	540	591
48	119	887
49	564	42
50	835	759
51	310	224
52	964	254
53	267	378
54	511	106
55	639	207
56	438	935
57	782	615
58	234	298
59	938	873
60	767	611
61	940	659
62	984	628
63	880	651
64	307	409
65	65	566
66	808	244
67	109	658
68	253	822
69	908	344
70	983	178
71	306	432
72	203	548
73	382	608
74	723	588
75	786	89
76	155	725
77	827	456
78	174	615
79	284	747
80	205	670
81	622	518
82	801	600
83	599	854
84	187	955
85	728	869
86	966	59
87	67	240
88	525	305
89	939	885
90	684	954
91	839	923
92	326	516
93	77	14
94	134	879
95	930	22
96	449	198
97	314	750
98	365	172
99	433	23
100	898	452
101	359	689
102	569	854
103	13	154
104	813	260
105	386	198
106	694	973
107	442	117
108	206	471
109	384	830
110	974	359
111	11	501
112	32	520
113	331	903
114	665	727
115	768	160
116	905	13
117	59	421
118	808	910
119	186	707
120	538	478
121	104	355
122	398	382
123	953	873
124	78	173
125	157	636
126	119	427
127	813	317
128	575	540
129	188	860
130	157	815
131	704	839
132	370	150
133	597	137
134	464	28
135	981	1
136	791	816
137	436	605
138	463	294
139	596	115
140	676	90
141	964	816
142	83	3
143	88	491
144	191	215
145	966	304
146	254	201
147	398	779
148	41	740
149	466	900
150	603	800
151	145	656
152	61	58
153	191	820
154	997	143
155	537	626
156	422	457
157	772	400
158	257	336
159	644	243
160	399	262
161	779	903
162	336	422
163	914	292
164	46	786
165	856	152
166	787	332
167	22	70
168	919	240
169	652	740
170	100	811
171	945	517
172	632	832
173	320	152
174	234	974
175	911	492
176	36	185
177	218	85
178	837	549
179	560	168
180	705	942
181	467	228
182	598	597
183	171	754
184	258	611
185	50	46
186	689	780
187	226	206
188	881	149
189	836	57
190	762	944
191	960	13
192	499	557
193	833	557
194	865	696
195	223	662
196	934	589
197	188	869
198	282	617
199	120	985
200	723	970
201	469	593
DEMAND_SECTION
1	0
2	2
3	7
4	5
5	3
6	6
7	9
8	9
9	4
10	8
11	5
12	1
13	9
14	9
15	1
16	8
17	1
18	4
19	8
20	6
21	4
22	3
23	6
24	6
25	2
26	4
27	3
28	8
29	1
30	2
31	3
32	3
33	3
34	6
35	5
36	7
37	5
38	8
39	2
40	6
41	7
42	5
43	2
44	5
45	7
46	3
47	7
48	3
49	9
50	3
51	4
52	7
53	4
54	6
55	6
56	2
57	9
58	5
59	3
60	9
61	4
62	2
63	4
64	9
65	2
66	1
67	5
68	7
69	4
70	7
71	4
72	9
73	9
74	3
75	7
76	1
77	2
78	4
79	4
80	6
81	1
82	6
83	5
84	3
85	7
86	6
87	3
88	7
89	7
90	1
91	2
92	7
93	5
94	9
95	5
96	1
97	1
98	5
99	2
100	1
101	7
102	9
103	8
104	2
105	8
106	7
107	2
108	3
109	3
110	1
111	9
112	1
113	4
114	4
115	1
116	3
117	2
118	9
119	6
120	9
121	6
122	6
123	2
124	3
125	6
126	4
127	2
128	7
129	4
130	4
131	5
132	7
133	7
134	2
135	3
136	6
137	1
138	4
139	7
140	1
141	1
142	8
143	8
144	8
145	6
146	8
147	1
148	9
149	9
150	1
151	1
152	3
153	6
154	1
155	6
156	3
157	3
158	7
159	4
160	2
161	4
162	8
163	4
164	5
165	3
166	7
167	7
168	9
169	2
170	5
171	2
172	8
173	4
174	8
175	7
176	5
177	3
178	8
179	4
180	8
181	4
182	6
183	8
184	7
185	9
186	7
187	2
188	7
189	2
190	8
191	1
192	7
193	8
194	1
195	8
196	6
197	3
198	3
199	5
200	4
201	7
TIME_WINDOW_SECTION
1	0	3000
2	900	1704
3	1010	1293
4	0	1909
5	1052	2949
6	932	1266
7	1435	2855
8	404	1790
9	1389	1765
10	179	1619
11	0	1568
12	1198	2625
13	1419	1702
14	1711	2381
15	1330	2425
16	423	2355
17	767	2766
18	1637	2647
19	1102	2187
20	1644	2227
21	1351	1913
22	0	986
23	1368	2159
24	564	2475
25	151	1506
26	1254	3000
27	1088	2587
28	0	1360
29	988	2193
30	1930	2259
31	1371	2331
32	795	2774
33	273	2197
34	1186	2002
35	889	1227
36	0	1540
37	187	2123
38	1052	1346
39	408	2312
40	102	1282
41	746	1986
42	333	1636
43	500	2133
44	1065	2119
45	0	1187
46	1464	3000
47	597	2201
48	1499	1802
49	616	2544
50	429	2270
51	1857	2494
52	458	2210
53	1656	2141
54	1413	2056
55	561	2339
56	841	1358
57	1838	2820
58	1320	2812
59	1590	2876
60	1339	2438
61	350	1089
62	0	994
63	175	1839
64	1209	2504
65	1619	2153
66	0	1606
67	639	1852
68	1412	2093
69	1035	1245
70	0	1239
71	1492	2362
72	1108	1492
73	0	1497
74	212	448
75	218	1422
76	193	1453
77	2059	2568
78	425	1812
79	1358	1842
80	898	2624
81	1760	3000
82	0	1423
83	624	1215
84	146	2033
85	1201	3000
86	706	1817
87	282	2155
88	0	1596
89	1058	1803
90	618	1759
91	1450	2096
92	1205	2891
93	237	2224
94	840	1864
95	1720	3000
96	2131	2458
97	436	1431
98	756	1349
99	1125	2085
100	899	1155
101	441	905
102	625	1887
103	648	2178
104	916	1686
105	1197	1495
106	1231	3000
107	333	719
108	845	1180
109	711	2679
110	877	1435
111	584	1289
112	1100	1461
113	712	1251
114	384	947
115	0	1175
116	0	1002
117	1047	1445
118	1232	3000
119	674	2049
120	1211	2578
121	996	2713
122	536	1055
123	1384	1858
124	256	1769
125	715	2654
126	1361	1678
127	1808	3000
128	0	975
129	0	1836
130	572	2442
131	175	1666
132	1294	2564
133	601	857
134	922	2425
135	1422	3000
136	912	1634
137	1296	1526
138	1236	3000
139	239	1115
140	1538	2769
141	1527	2845
142	1156	1466
143	625	1961
144	1155	1374
145	1460	2037
146	788	1911
147	848	2005
148	904	1190
149	193	1176
150	1764	2166
151	471	2106
152	562	2040
153	1319	1950
154	1675	2522
155	42	1072
156	0	1711
157	408	1435
158	253	2123
159	2059	2964
160	2	1179
161	1059	3000
162	1506	2467
163	0	1253
164	1548	1783
165	283	1513
166	731	2178
167	774	1180
168	1085	2690
169	1209	2215
170	804	2786
171	539	1484
172	154	1894
173	1197	2838
174	1198	1827
175	0	1126
176	1201	1539
177	752	1695
178	1322	1597
179	859	1950
180	173	1883
181	0	1009
182	0	1469
183	904	2204
184	798	1415
185	856	1985
186	0	1732
187	1031	2825
188	1529	2550
189	989	1893
190	495	1242
191	1794	2262
192	360	854
193	264	2210
194	1040	2693
195	438	1421
196	1580	2164
197	1020	1375
198	831	2530
199	1010	1486
200	507	2300
201	589	1911
DEPOT_SECTION
1
-1
EOF
