NAME : n201-0013
COMMENT : "Generated by pyvrp_manuel (OVRPTW)"
TYPE : OVRPTW
DIMENSION : 201
EDGE_WEIGHT_TYPE : EUC_2D
CAPACITY : 80
VEHICLES : 200
OPEN_ROUTE : YES
SERVICE_TIME : 200
NODE_COORD_SECTION
1	158	746
2	899	298
3	679	643
4	923	209
5	769	809
6	726	161
7	91	524
8	788	43
9	179	768
10	380	162
11	118	213
12	690	505
13	707	754
14	501	496
15	679	927
16	427	128
17	892	319
18	50	380
19	911	845
20	602	984
21	418	67
22	856	629
23	498	304
24	653	652
25	321	525
26	174	513
27	761	513
28	605	771
29	612	282
30	886	47
31	347	561
32	696	852
33	588	877
34	979	161
35	83	698
36	347	886
37	663	663
38	409	961
39	337	581
40	554	619
41	773	7
42	932	30
43	764	384
44	326	22
45	462	738
46	584	440
47	51	45
48	406	285
49	265	81
50	753	874
51	733	678
52	915	86
53	446	593
54	11	767
55	212	494
56	536	950
57	351	693
58	19	460
59	760	925
60	650	979
61	508	602
62	643	848
63	714	764
64	958	496
65	20	51
66	233	151
67	566	178
68	402	716
69	683	514
70	51	573
71	19	770
72	690	103
73	44	299
74	635	168
75	265	180
76	35	933
77	252	750
78	227	136
79	909	252
80	389	493
81	443	617
82	693	799
83	915	62
84	731	749
85	926	345
86	324	372
87	626	892
88	327	850
89	911	271
90	642	567
91	870	366
92	490	798
93	386	921
94	109	426
95	476	549
96	482	913
97	496	321
98	870	90
99	567	39
100	779	410
101	531	527
102	47	499
103	631	230
104	869	898
105	201	637
106	167	750
107	312	537
108	105	309
109	892	321
110	341	62
111	802	349
112	710	800
113	719	661
114	283	613
115	980	597
116	601	440
117	735	55
118	206	194
119	497	479
120	480	372
121	773	213
122	650	581
123	289	703
124	544	719
125	39	633
126	550	214
127	414	349
128	885	488
129	785	734
130	636	861
131	822	164
132	916	275
133	473	654
134	667	891
135	778	745
136	433	200
137	762	811
138	741	573
139	236	772
140	966	437
141	908	99
142	84	988
143	334	840
144	724	123
145	99	34
146	698	406
147	952	392
148	131	951
149	640	581
150	538	871
151	76	38
152	788	151
153	421	359
154	745	884
155	490	138
156	699	963
157	949	637
158	173	278
159	252	474
160	538	382
161	702	303
162	576	437
163	609	105
164	615	965
165	501	243
166	970	863
167	614	3
168	226	875
169	18	775
170	431	448
171	245	942
172	59	291
173	351	814
174	830	820
175	560	168
176	609	914
177	304	643
178	332	214
179	568	363
180	526	498
181	638	411
182	584	86
183	610	498
184	948	643
185	113	64
186	280	922
187	168	287
188	114	413
189	502	711
190	517	650
191	736	793
192	876	197
193	976	628
194	883	222
195	600	275
196	733	372
197	770	21
198	922	913
199	501	857
200	328	739
201	647	616
DEMAND_SECTION
1	0
2	7
3	3
4	7
5	5
6	3
7	6
8	4
9	9
10	3
11	6
12	8
13	7
14	7
15	5
16	6
17	7
18	9
19	7
20	2
21	9
22	2
23	1
24	2
25	8
26	9
27	2
28	9
29	5
30	8
31	9
32	4
33	8
34	4
35	8
36	6
37	1
38	1
39	3
40	1
41	9
42	7
43	9
44	1
45	3
46	8
47	1
48	8
49	6
50	7
51	8
52	5
53	1
54	8
55	8
56	6
57	4
58	8
59	9
60	4
61	9
62	4
63	4
64	5
65	2
66	1
67	9
68	4
69	6
70	7
71	4
72	9
73	1
74	4
75	5
76	5
77	9
78	3
79	1
80	3
81	6
82	2
83	7
84	8
85	2
86	4
87	4
88	5
89	5
90	9
91	2
92	4
93	4
94	4
95	2
96	3
97	1
98	5
99	1
100	7
101	7
102	6
103	2
104	1
105	4
106	1
107	4
108	2
109	6
110	8
111	1
112	9
113	9
114	9
115	7
116	7
117	5
118	6
119	1
120	4
121	3
122	9
123	8
124	1
125	9
126	3
127	5
128	6
129	9
130	3
131	2
132	6
133	9
134	1
135	3
136	1
137	8
138	8
139	7
140	7
141	3
142	5
143	7
144	2
145	1
146	8
147	5
148	2
149	2
150	6
151	1
152	7
153	2
154	5
155	2
156	8
157	8
158	1
159	3
160	8
161	1
162	4
163	9
164	3
165	5
166	1
167	3
168	7
169	1
170	8
171	8
172	3
173	5
174	3
175	1
176	4
177	8
178	1
179	4
180	8
181	1
182	4
183	6
184	6
185	5
186	4
187	7
188	6
189	7
190	9
191	2
192	6
193	2
194	3
195	4
196	1
197	9
198	6
199	1
200	7
201	6
TIME_WINDOW_SECTION
1	0	3000
2	1142	2291
3	1407	1637
4	48	1938
5	0	1433
6	1630	1921
7	1472	3000
8	654	2174
9	0	871
10	269	2042
11	396	2173
12	1065	2373
13	815	2015
14	730	2000
15	1411	1713
16	867	2752
17	12	1944
18	634	2111
19	0	1588
20	175	1963
21	1528	2134
22	1581	2430
23	843	1304
24	970	2537
25	1975	2356
26	1185	2276
27	1756	2150
28	0	1200
29	765	2421
30	1516	1843
31	655	2033
32	642	1167
33	930	2249
34	909	1496
35	779	1458
36	353	2186
37	1224	2177
38	339	1697
39	0	1528
40	459	2073
41	1064	1763
42	546	1846
43	1698	2378
44	904	2030
45	1656	2277
46	1703	2000
47	1071	2583
48	429	921
49	447	1294
50	919	1189
51	305	2118
52	370	2015
53	138	523
54	2195	2440
55	0	1355
56	1512	1929
57	150	776
58	415	2199
59	964	1467
60	901	1668
61	112	1436
62	1550	2271
63	71	1660
64	392	1358
65	724	2585
66	1578	2583
67	1229	1945
68	1511	2738
69	1467	2207
70	896	1290
71	0	946
72	1014	2017
73	0	1765
74	1304	1582
75	29	1838
76	1144	2076
77	294	2231
78	1787	2514
79	0	1928
80	1780	2789
81	1295	2426
82	1174	2824
83	825	1337
84	469	1191
85	419	2219
86	1425	2694
87	1538	2340
88	973	1549
89	1441	2298
90	1578	2070
91	745	1960
92	1356	2056
93	1430	2714
94	947	2822
95	1313	1643
96	1748	2603
97	98	1327
98	525	1546
99	1381	1878
100	1253	2467
101	1237	2380
102	145	1391
103	904	1862
104	567	2179
105	1520	3000
106	10	572
107	515	1870
108	413	2017
109	610	2237
110	1174	1836
111	931	1758
112	88	1161
113	930	1439
114	1456	3000
115	1369	2529
116	788	2031
117	15	1826
118	0	1754
119	112	1190
120	1242	1907
121	635	2596
122	1379	3000
123	103	514
124	1998	2743
125	1329	3000
126	1054	2041
127	1678	2018
128	431	1990
129	837	2298
130	1018	1498
131	376	1560
132	119	1968
133	0	1887
134	1274	3000
135	1744	2616
136	567	1967
137	1527	2076
138	1394	2818
139	523	1031
140	279	1695
141	945	1785
142	1186	2417
143	2314	2795
144	1119	2486
145	730	2440
146	0	1510
147	1374	1679
148	0	783
149	1328	3000
150	873	2620
151	319	1711
152	519	1727
153	246	1412
154	1391	2178
155	359	1540
156	325	1269
157	707	2686
158	1721	2278
159	0	1388
160	1000	1704
161	957	1227
162	0	1809
163	692	1456
164	672	2663
165	1038	2883
166	776	2415
167	1635	1913
168	171	600
169	1418	1723
170	758	2563
171	188	635
172	1282	1640
173	794	2065
174	738	1345
175	1277	2211
176	1427	2336
177	975	2844
178	1430	1866
179	1630	2756
180	551	1694
181	406	898
182	1163	2506
183	827	2424
184	328	2252
185	1323	2778
186	1820	2820
187	1046	2992
188	0	1360
189	1249	2556
190	1295	3000
191	905	2122
192	734	2185
193	698	2181
194	672	2651
195	1045	2121
196	1093	2645
197	1091	2531
198	580	1751
199	1355	2308
200	0	1063
201	1427	1728
DEPOT_SECTION
1
-1
EOF
