NAME : n201-0021
COMMENT : "Generated by pyvrp_manuel (OVRPTW)"
TYPE : OVRPTW
DIMENSION : 201
EDGE_WEIGHT_TYPE : EUC_2D
CAPACITY : 80
VEHICLES : 200
OPEN_ROUTE : YES
SERVICE_TIME : 200
NODE_COORD_SECTION
1	744	391
2	426	538
3	130	425
4	271	426
5	538	737
6	63	380
7	531	335
8	456	728
9	558	362
10	934	821
11	470	620
12	612	25
13	294	970
14	222	518
15	783	589
16	311	267
17	75	795
18	926	430
19	588	518
20	410	69
21	2	552
22	792	82
23	384	101
24	171	695
25	807	452
26	379	762
27	836	770
28	372	913
29	282	724
30	925	257
31	756	928
32	137	424
33	782	276
34	63	758
35	3	67
36	857	491
37	604	49
38	338	34
39	275	823
40	98	642
41	82	663
42	387	288
43	648	439
44	195	485
45	906	409
46	767	84
47	983	739
48	783	374
49	614	823
50	636	651
51	131	318
52	877	267
53	193	870
54	877	303
55	776	843
56	394	285
57	511	962
58	393	516
59	948	558
60	234	91
61	248	851
62	336	62
63	266	494
64	530	945
65	775	532
66	25	142
67	521	113
68	914	53
69	722	624
70	55	772
71	288	704
72	869	730
73	877	103
74	703	853
75	445	876
76	471	131
77	301	23
78	701	665
79	109	599
80	950	620
81	310	160
82	762	146
83	828	76
84	571	702
85	167	893
86	613	836
87	261	452
88	794	289
89	512	156
90	657	901
91	730	433
92	999	113
93	762	160
94	620	583
95	933	637
96	40	241
97	325	16
98	872	464
99	99	193
100	167	215
101	860	282
102	839	62
103	324	695
104	450	254
105	549	499
106	544	21
107	708	249
108	375	938
109	590	7
110	178	43
111	943	502
112	6	716
113	702	493
114	950	810
115	24	389
116	189	497
117	670	499
118	120	62
119	407	673
120	419	985
121	896	781
122	738	276
123	712	237
124	86	24
125	144	19
126	770	444
127	380	729
128	823	509
129	695	326
130	485	214
131	207	516
132	790	821
133	737	934
134	404	309
135	480	911
136	60	78
137	142	454
138	999	278
139	677	947
140	992	454
141	874	626
142	427	175
143	757	71
144	864	274
145	584	153
146	604	461
147	199	322
148	422	215
149	196	903
150	394	725
151	804	845
152	145	588
153	438	451
154	528	20
155	278	92
156	871	737
157	154	308
158	294	483
159	826	315
160	337	682
161	959	555
162	130	96
163	727	982
164	898	606
165	576	967
166	395	99
167	808	445
168	955	135
169	835	690
170	84	978
171	764	535
172	51	324
173	586	223
174	825	618
175	598	368
176	568	427
177	101	876
178	73	199
179	848	167
180	585	842
181	656	199
182	923	756
183	463	508
184	329	581
185	745	818
186	690	751
187	237	48
188	265	352
189	336	546
190	115	625
191	63	975
192	397	653
193	239	694
194	892	107
195	786	847
196	434	218
197	665	335
198	441	449
199	929	141
200	835	462
201	726	576
DEMAND_SECTION
1	0
2	4
3	5
4	6
5	8
6	1
7	1
8	8
9	4
10	4
11	5
12	7
13	5
14	2
15	5
16	3
17	3
18	6
19	7
20	1
21	5
22	9
23	2
24	1
25	6
26	9
27	3
28	2
29	5
30	5
31	6
32	6
33	6
34	6
35	3
36	8
37	8
38	2
39	2
40	2
41	3
42	1
43	2
44	5
45	1
46	3
47	1
48	1
49	2
50	1
51	8
52	8
53	9
54	9
55	9
56	4
57	1
58	7
59	2
60	5
61	1
62	1
63	8
64	8
65	9
66	2
67	7
68	7
69	8
70	5
71	3
72	5
73	7
74	2
75	8
76	9
77	5
78	5
79	3
80	3
81	9
82	4
83	2
84	6
85	5
86	8
87	2
88	4
89	6
90	2
91	9
92	6
93	4
94	4
95	3
96	4
97	1
98	3
99	7
100	7
101	4
102	1
103	1
104	1
105	7
106	4
107	5
108	3
109	6
110	3
111	2
112	1
113	5
114	2
115	2
116	2
117	3
118	3
119	8
120	3
121	2
122	8
123	3
124	3
125	9
126	1
127	3
128	8
129	2
130	3
131	3
132	8
133	4
134	1
135	5
136	4
137	9
138	7
139	2
140	3
141	9
142	9
143	2
144	6
145	1
146	3
147	7
148	4
149	2
150	4
151	3
152	2
153	6
154	7
155	8
156	3
157	2
158	3
159	6
160	9
161	9
162	7
163	9
164	7
165	6
166	2
167	5
168	6
169	8
170	1
171	3
172	4
173	9
174	9
175	6
176	7
177	3
178	2
179	1
180	5
181	7
182	9
183	8
184	8
185	4
186	6
187	2
188	3
189	4
190	7
191	3
192	6
193	6
194	9
195	5
196	8
197	7
198	9
199	4
200	7
201	1
TIME_WINDOW_SECTION
1	0	3000
2	0	1497
3	819	1292
4	596	1693
5	964	2413
6	255	1837
7	1189	1458
8	1329	2295
9	2012	2530
10	637	2210
11	1512	3000
12	1249	1541
13	1482	2485
14	319	1620
15	67	1550
16	1590	2247
17	1058	2642
18	630	1535
19	115	1876
20	0	1229
21	1649	1947
22	1060	2209
23	1542	2037
24	1477	2293
25	0	1433
26	902	1579
27	903	2598
28	0	1521
29	689	1640
30	1779	2476
31	1807	2257
32	859	1519
33	2021	2240
34	302	1568
35	1220	2421
36	499	1015
37	508	1599
38	55	1648
39	807	1782
40	865	2718
41	1036	2856
42	0	952
43	0	1514
44	876	1170
45	1734	3000
46	1061	1793
47	1141	1796
48	0	1267
49	32	1530
50	0	950
51	1879	2450
52	1150	1580
53	744	1971
54	559	2120
55	156	965
56	1371	2404
57	0	1563
58	341	1382
59	1139	1977
60	975	2572
61	44	1567
62	186	1966
63	1850	2428
64	908	2377
65	532	1717
66	459	1470
67	1524	2883
68	1834	2241
69	1664	3000
70	1530	1919
71	765	2149
72	1632	2500
73	979	2134
74	617	1445
75	1015	2266
76	1348	1595
77	1080	1906
78	628	1103
79	1158	1428
80	740	1228
81	1972	2175
82	0	1470
83	1855	2745
84	1214	3000
85	1539	2468
86	1495	2344
87	749	1344
88	1058	1899
89	1205	1712
90	359	1898
91	2530	2954
92	1313	1646
93	819	1601
94	1218	3000
95	0	1396
96	111	1792
97	570	2424
98	59	720
99	238	2232
100	533	1196
101	579	2071
102	877	1204
103	301	2144
104	1662	3000
105	2014	2426
106	1751	2215
107	1064	2520
108	994	2523
109	1258	1774
110	589	2403
111	2385	2739
112	1386	2555
113	43	1084
114	764	1373
115	814	1918
116	1697	2239
117	1726	2067
118	717	2583
119	1555	2460
120	1054	1394
121	1761	2280
122	467	2210
123	0	1275
124	1224	1908
125	1022	1236
126	2190	2832
127	407	1444
128	739	1673
129	533	2102
130	0	900
131	1890	2129
132	1500	3000
133	661	2431
134	1730	2938
135	1151	1396
136	66	1866
137	1612	2029
138	686	1136
139	1240	2829
140	0	1185
141	564	1498
142	1673	1929
143	182	1123
144	414	816
145	1396	1989
146	1054	3000
147	1995	2485
148	1800	2780
149	1173	2722
150	614	2234
151	1105	2085
152	1991	2233
153	1842	2628
154	750	2604
155	1049	2020
156	636	1342
157	338	1365
158	1761	2522
159	21	846
160	0	1218
161	1694	2629
162	529	1011
163	0	1739
164	396	2145
165	1456	2732
166	1061	1657
167	1335	3000
168	331	1114
169	1275	2213
170	1007	2657
171	1779	2699
172	890	2244
173	0	1236
174	279	1133
175	1702	3000
176	1053	1740
177	1051	1989
178	685	1271
179	1169	2304
180	1392	1660
181	0	1015
182	0	1141
183	1378	3000
184	0	1638
185	779	1708
186	679	1641
187	1414	2191
188	520	818
189	2062	2590
190	1786	2077
191	812	2373
192	1583	2804
193	1719	2581
194	1890	2817
195	964	1504
196	1396	2508
197	0	1755
198	0	1568
199	1172	2914
200	1523	2448
201	928	1694
DEPOT_SECTION
1
-1
EOF
