NAME : n201-0023
COMMENT : "Generated by pyvrp_manuel (OVRPTW)"
TYPE : OVRPTW
DIMENSION : 201
EDGE_WEIGHT_TYPE : EUC_2D
CAPACITY : 80
VEHICLES : 200
OPEN_ROUTE : YES
SERVICE_TIME : 200
NODE_COORD_SECTION
1	459	759
2	935	342
3	474	131
4	67	284
5	91	820
6	367	381
7	226	461
8	844	577
9	384	176
10	109	356
11	441	31
12	577	9
13	790	771
14	18	464
15	93	966
16	645	979
17	216	575
18	569	295
19	427	42
20	351	655
21	284	474
22	45	44
23	388	758
24	0	572
25	265	162
26	3	220
27	475	840
28	821	677
29	450	503
30	561	929
31	952	155
32	676	838
33	163	639
34	638	838
35	399	792
36	527	653
37	94	463
38	438	195
39	941	805
40	921	753
41	896	768
42	562	814
43	346	420
44	208	410
45	453	366
46	97	917
47	710	936
48	917	594
49	242	757
50	708	267
51	806	70
52	927	262
53	35	121
54	214	995
55	68	962
56	496	623
57	825	290
58	987	821
59	248	851
60	935	854
61	246	219
62	112	21
63	498	865
64	502	714
65	334	157
66	276	10
67	123	664
68	119	376
69	7	910
70	423	943
71	453	732
72	483	185
73	211	341
74	767	97
75	553	808
76	462	595
77	938	653
78	110	953
79	302	13
80	487	163
81	12	360
82	495	967
83	159	784
84	358	325
85	153	307
86	432	663
87	63	406
88	529	569
89	277	870
90	600	216
91	221	636
92	787	249
93	611	104
94	756	14
95	603	906
96	293	187
97	11	481
98	853	863
99	14	575
100	562	798
101	602	774
102	616	88
103	426	486
104	805	886
105	804	990
106	709	428
107	461	290
108	937	696
109	526	187
110	406	841
111	49	959
112	148	286
113	563	270
114	837	759
115	393	652
116	224	679
117	331	127
118	925	498
119	347	999
120	54	722
121	618	563
122	872	561
123	830	678
124	929	687
125	837	169
126	427	927
127	340	875
128	248	409
129	885	920
130	626	148
131	971	416
132	907	837
133	126	9
134	685	980
135	256	581
136	346	574
137	340	404
138	750	123
139	96	837
140	510	958
141	776	667
142	514	859
143	394	796
144	520	169
145	195	832
146	808	232
147	978	719
148	480	636
149	671	267
150	20	405
151	537	160
152	6	927
153	227	685
154	826	166
155	955	622
156	315	216
157	104	520
158	842	181
159	900	358
160	322	161
161	838	277
162	158	150
163	542	56
164	791	814
165	765	987
166	634	210
167	541	382
168	68	68
169	999	118
170	82	654
171	1000	103
172	80	558
173	407	926
174	613	177
175	601	649
176	855	814
177	615	87
178	666	155
179	583	823
180	273	461
181	676	474
182	886	486
183	288	672
184	759	985
185	728	12
186	459	100
187	492	22
188	381	198
189	854	408
190	559	699
191	306	790
192	765	404
193	288	300
194	230	279
195	853	588
196	571	28
197	750	621
198	817	475
199	803	643
200	669	775
201	510	213
DEMAND_SECTION
1	0
2	5
3	7
4	7
5	6
6	9
7	8
8	9
9	9
10	1
11	1
12	6
13	8
14	3
15	9
16	8
17	9
18	2
19	4
20	1
21	7
22	4
23	6
24	9
25	3
26	3
27	6
28	7
29	4
30	2
31	6
32	3
33	3
34	5
35	5
36	6
37	9
38	3
39	6
40	7
41	4
42	7
43	9
44	8
45	9
46	4
47	4
48	4
49	1
50	7
51	9
52	9
53	5
54	7
55	7
56	5
57	4
58	7
59	7
60	5
61	6
62	1
63	9
64	9
65	3
66	6
67	3
68	5
69	5
70	9
71	1
72	5
73	9
74	1
75	2
76	7
77	9
78	7
79	9
80	1
81	5
82	3
83	2
84	2
85	9
86	2
87	8
88	9
89	2
90	3
91	1
92	7
93	2
94	7
95	5
96	3
97	3
98	3
99	4
100	6
101	8
102	9
103	6
104	4
105	3
106	1
107	9
108	2
109	1
110	8
111	8
112	6
113	8
114	5
115	6
116	7
117	1
118	2
119	4
120	3
121	7
122	7
123	2
124	1
125	2
126	9
127	2
128	8
129	6
130	2
131	8
132	9
133	6
134	2
135	8
136	6
137	2
138	4
139	2
140	7
141	5
142	5
143	6
144	4
145	7
146	2
147	6
148	9
149	3
150	7
151	9
152	3
153	1
154	2
155	1
156	9
157	4
158	6
159	3
160	2
161	7
162	3
163	2
164	9
165	1
166	7
167	9
168	2
169	7
170	7
171	8
172	2
173	1
174	7
175	8
176	1
177	3
178	4
179	3
180	1
181	2
182	7
183	4
184	6
185	2
186	1
187	1
188	9
189	1
190	5
191	3
192	3
193	2
194	7
195	3
196	4
197	9
198	3
199	6
200	3
201	8
TIME_WINDOW_SECTION
1	0	3000
2	883	1339
3	574	1829
4	839	1713
5	73	1488
6	1455	2488
7	1544	2319
8	301	621
9	1186	2817
10	979	1627
11	419	2033
12	1099	2974
13	261	1010
14	797	1577
15	903	2888
16	146	1187
17	706	1494
18	1016	1915
19	364	1784
20	0	1814
21	1467	1817
22	1258	2553
23	0	969
24	707	1716
25	729	2222
26	0	1706
27	1422	2169
28	2110	2701
29	782	2571
30	2202	2842
31	975	1884
32	347	1603
33	332	1055
34	805	1046
35	1751	2284
36	182	2051
37	28	1943
38	383	1852
39	1532	2830
40	624	912
41	1413	1815
42	574	1681
43	951	2314
44	1333	1898
45	861	1646
46	1600	2360
47	1515	2820
48	2064	2468
49	1124	1802
50	977	1923
51	419	2216
52	1064	1573
53	1069	2051
54	835	1292
55	2086	2291
56	1012	1717
57	1754	2176
58	880	2818
59	8	1618
60	1269	1536
61	1554	1925
62	920	1297
63	1662	2815
64	1991	2485
65	1004	1931
66	1333	2481
67	558	978
68	1711	2400
69	502	1711
70	765	2755
71	2129	3000
72	2102	2312
73	1342	3000
74	719	1336
75	1767	3000
76	1458	2659
77	1328	2024
78	1256	2769
79	1116	1384
80	179	1940
81	1027	1791
82	355	721
83	483	2047
84	1041	1333
85	337	1524
86	24	1322
87	1571	1885
88	0	1104
89	0	1844
90	515	1303
91	1533	3000
92	1189	1763
93	465	1412
94	1449	1857
95	1291	1681
96	380	886
97	704	1386
98	1479	1964
99	777	1741
100	1323	1782
101	1583	2346
102	592	2409
103	146	920
104	2000	2392
105	1843	2867
106	375	1825
107	976	2097
108	1122	2411
109	1259	2395
110	0	848
111	667	1843
112	1061	1420
113	186	1583
114	2085	2530
115	2188	2514
116	1991	2252
117	1187	2110
118	643	2336
119	1919	2395
120	0	1090
121	619	1252
122	824	2749
123	1926	2398
124	304	2166
125	783	2285
126	1566	2358
127	570	2456
128	1291	3000
129	1064	2777
130	1723	2115
131	1345	1558
132	0	1341
133	951	1287
134	1886	2095
135	1793	2208
136	16	1428
137	1205	3000
138	58	1699
139	509	1727
140	1441	2947
141	772	2112
142	0	1527
143	702	2674
144	1473	2925
145	400	1308
146	1622	2108
147	915	2502
148	203	1613
149	470	2039
150	866	2339
151	1198	2610
152	0	1643
153	417	1244
154	1170	2229
155	738	2598
156	539	1833
157	0	1506
158	363	1371
159	561	1826
160	1882	2141
161	752	2287
162	433	947
163	688	1006
164	1139	1576
165	18	1969
166	575	2453
167	0	1511
168	1238	2737
169	1055	2827
170	0	1396
171	825	2289
172	2091	2611
173	1939	2179
174	631	1616
175	1487	2084
176	105	1855
177	454	2295
178	822	1159
179	1211	1902
180	560	2046
181	1005	2434
182	1330	2295
183	526	2350
184	1342	2654
185	323	1426
186	739	1845
187	907	1454
188	1504	2464
189	646	1809
190	953	1587
191	1698	2125
192	29	1491
193	226	2156
194	775	2543
195	2030	2364
196	55	1596
197	1884	2941
198	0	1234
199	981	1838
200	1899	2835
201	1009	2442
DEPOT_SECTION
1
-1
EOF
