NAME : n201-0027
COMMENT : "Generated by pyvrp_manuel (OVRPTW)"
TYPE : OVRPTW
DIMENSION : 201
EDGE_WEIGHT_TYPE : EUC_2D
CAPACITY : 80
VEHICLES : 200
OPEN_ROUTE : YES
SERVICE_TIME : 200
NODE_COORD_SECTION
1	400	876
2	968	670
3	352	88
4	710	186
5	519	29
6	776	389
7	796	930
8	800	452
9	950	827
10	936	977
11	539	393
12	418	523
13	340	359
14	880	334
15	820	842
16	92	319
17	512	996
18	226	798
19	15	898
20	27	754
21	86	50
22	695	278
23	570	507
24	552	933
25	476	734
26	263	452
27	705	195
28	146	946
29	599	133
30	746	528
31	790	137
32	976	797
33	922	334
34	571	19
35	441	655
36	203	655
37	648	966
38	259	179
39	218	936
40	823	825
41	3	659
42	876	671
43	820	709
44	256	425
45	3	840
46	904	648
47	878	124
48	808	144
49	157	22
50	512	902
51	29	837
52	805	841
53	614	20
54	335	729
55	286	511
56	29	786
57	594	633
58	766	607
59	548	566
60	486	576
61	15	271
62	230	435
63	733	934
64	564	115
65	438	940
66	524	125
67	409	445
68	555	822
69	300	990
70	994	223
71	476	37
72	839	455
73	285	974
74	857	829
75	915	860
76	896	163
77	537	192
78	842	123
79	238	284
80	918	968
81	812	254
82	801	985
83	301	976
84	182	18
85	778	982
86	173	537
87	102	785
88	715	212
89	325	150
90	554	239
91	633	234
92	87	701
93	102	564
94	926	266
95	938	16
96	747	151
97	695	757
98	81	635
99	156	331
100	339	352
101	667	35
102	387	195
103	110	607
104	193	221
105	931	529
106	447	974
107	454	758
108	10	318
109	134	531
110	750	443
111	887	201
112	256	233
113	10	894
114	982	517
115	928	315
116	370	706
117	973	208
118	120	86
119	798	991
120	267	695
121	7	654
122	863	355
123	305	218
124	548	99
125	83	527
126	426	530
127	387	498
128	606	779
129	227	485
130	84	607
131	318	671
132	789	607
133	329	659
134	703	204
135	414	556
136	880	872
137	891	94
138	443	307
139	353	802
140	663	870
141	898	984
142	379	13
143	744	43
144	536	971
145	834	774
146	988	368
147	761	224
148	82	381
149	723	59
150	506	162
151	454	737
152	693	852
153	729	170
154	806	355
155	172	171
156	771	654
157	883	92
158	522	821
159	940	296
160	692	887
161	609	543
162	15	190
163	483	59
164	829	70
165	70	79
166	398	141
167	560	995
168	378	746
169	563	249
170	125	557
171	215	770
172	319	753
173	472	891
174	805	379
175	920	326
176	415	170
177	231	249
178	828	967
179	212	64
180	716	798
181	432	135
182	992	138
183	364	241
184	437	126
185	763	674
186	343	500
187	980	612
188	86	905
189	382	156
190	383	747
191	514	138
192	800	663
193	965	573
194	879	656
195	978	84
196	689	426
197	728	344
198	576	136
199	502	590
200	876	850
201	569	952
DEMAND_SECTION
1	0
2	6
3	5
4	9
5	1
6	9
7	9
8	4
9	3
10	7
11	4
12	3
13	3
14	3
15	2
16	7
17	9
18	8
19	6
20	1
21	2
22	5
23	5
24	4
25	5
26	3
27	4
28	1
29	8
30	4
31	4
32	9
33	6
34	9
35	4
36	5
37	6
38	7
39	7
40	7
41	4
42	3
43	2
44	6
45	5
46	3
47	4
48	3
49	1
50	3
51	2
52	7
53	1
54	4
55	4
56	3
57	4
58	1
59	3
60	5
61	7
62	5
63	6
64	9
65	1
66	2
67	8
68	6
69	2
70	3
71	8
72	7
73	1
74	1
75	8
76	5
77	3
78	3
79	7
80	5
81	4
82	6
83	8
84	1
85	6
86	5
87	6
88	3
89	5
90	7
91	8
92	7
93	6
94	4
95	7
96	5
97	1
98	1
99	1
100	9
101	3
102	7
103	1
104	9
105	2
106	3
107	2
108	6
109	4
110	5
111	5
112	1
113	4
114	7
115	4
116	2
117	4
118	5
119	4
120	3
121	5
122	6
123	3
124	7
125	9
126	8
127	5
128	4
129	9
130	2
131	9
132	8
133	8
134	6
135	9
136	1
137	8
138	3
139	8
140	7
141	8
142	2
143	2
144	3
145	6
146	9
147	1
148	1
149	6
150	4
151	8
152	8
153	2
154	7
155	5
156	7
157	4
158	9
159	9
160	8
161	3
162	7
163	6
164	3
165	3
166	1
167	2
168	8
169	8
170	3
171	8
172	7
173	4
174	7
175	5
176	9
177	1
178	6
179	1
180	6
181	9
182	9
183	1
184	6
185	3
186	6
187	4
188	9
189	2
190	7
191	2
192	3
193	7
194	6
195	4
196	1
197	6
198	9
199	7
200	8
201	6
TIME_WINDOW_SECTION
1	0	3000
2	665	2662
3	653	1479
4	300	1378
5	1364	2177
6	1274	1924
7	207	1263
8	61	1680
9	695	960
10	1080	1342
11	828	2374
12	360	702
13	60	1714
14	841	2765
15	294	2032
16	564	2413
17	902	2173
18	136	816
19	1406	1611
20	492	765
21	1263	1491
22	1120	2420
23	426	882
24	0	626
25	986	2451
26	636	1898
27	639	2080
28	1960	2178
29	1422	2268
30	2007	2413
31	1271	2522
32	0	1370
33	573	1840
34	1145	2358
35	0	1721
36	558	1027
37	0	844
38	1275	2403
39	936	1553
40	849	2262
41	709	2273
42	1635	1935
43	988	1628
44	948	1890
45	1429	2364
46	144	1854
47	975	1257
48	559	2333
49	459	1821
50	1588	2308
51	1642	2176
52	500	1106
53	556	1898
54	531	2419
55	1523	2040
56	15	837
57	1302	2927
58	1655	2360
59	0	1428
60	375	1323
61	437	1812
62	0	1312
63	314	1000
64	882	2631
65	0	537
66	1362	1906
67	983	2621
68	1184	3000
69	1228	2377
70	439	2088
71	832	1564
72	546	1230
73	870	2796
74	1705	2397
75	480	1801
76	740	2233
77	1282	2855
78	664	2268
79	1463	1715
80	1533	1988
81	473	2448
82	1461	2095
83	1576	2437
84	611	1561
85	304	2287
86	1822	2938
87	959	1263
88	1626	1879
89	256	1607
90	1271	2614
91	1333	2618
92	1440	3000
93	1891	2222
94	788	2712
95	1026	1597
96	154	1873
97	363	2023
98	1091	1855
99	594	1383
100	640	1333
101	1357	1604
102	1427	1916
103	917	2055
104	540	1607
105	1172	3000
106	30	700
107	1963	2618
108	719	983
109	53	1984
110	238	1531
111	1099	2612
112	1798	2031
113	1530	3000
114	1712	2043
115	287	2196
116	481	2039
117	582	1767
118	1329	2287
119	495	1405
120	2199	2805
121	248	1633
122	607	2412
123	727	1897
124	1416	2348
125	67	1003
126	288	575
127	1571	2010
128	103	1421
129	15	850
130	0	1919
131	546	1186
132	1047	1677
133	688	1943
134	193	1379
135	1331	1772
136	1764	2670
137	544	1853
138	471	1124
139	1677	2543
140	362	1029
141	281	1384
142	776	1153
143	579	2137
144	1719	2338
145	1047	1355
146	658	1950
147	753	2321
148	657	1903
149	1349	1739
150	818	2010
151	0	778
152	0	1401
153	0	1804
154	1502	1737
155	1235	1602
156	325	1881
157	1356	2363
158	0	990
159	1190	2515
160	72	1536
161	266	1539
162	669	1629
163	1837	2074
164	494	2052
165	1091	1860
166	348	1912
167	639	2352
168	782	1724
169	1629	2610
170	1193	1915
171	1188	3000
172	446	2366
173	1555	2716
174	703	1371
175	808	1173
176	308	1790
177	845	2766
178	1088	1724
179	423	2420
180	1382	1956
181	283	2031
182	881	2597
183	1456	1749
184	1099	2542
185	1375	2252
186	925	2852
187	1617	2115
188	1229	2917
189	191	1397
190	893	2553
191	1100	2260
192	661	1976
193	481	851
194	272	1992
195	971	1465
196	1166	2345
197	593	2350
198	582	1197
199	712	1831
200	1295	2918
201	1526	2733
DEPOT_SECTION
1
-1
EOF
