NAME : n201-0034
COMMENT : "Generated by pyvrp_manuel (OVRPTW)"
TYPE : OVRPTW
DIMENSION : 201
EDGE_WEIGHT_TYPE : EUC_2D
CAPACITY : 80
VEHICLES : 200
OPEN_ROUTE : YES
SERVICE_TIME : 200
NODE_COORD_SECTION
1	208	564
2	600	425
3	56	922
4	220	372
5	404	971
6	8	57
7	25	556
8	307	779
9	352	972
10	121	926
11	258	853
12	362	365
13	949	28
14	796	71
15	36	910
16	480	617
17	368	251
18	738	165
19	484	632
20	332	694
21	566	239
22	456	710
23	357	439
24	17	634
25	901	503
26	276	282
27	671	663
28	751	194
29	801	669
30	695	854
31	140	248
32	692	378
33	299	546
34	671	863
35	756	593
36	274	914
37	472	556
38	330	984
39	354	693
40	37	768
41	21	48
42	685	697
43	6	792
44	896	148
45	213	869
46	380	508
47	631	269
48	341	486
49	715	417
50	294	512
51	204	165
52	974	385
53	29	837
54	573	6
55	274	549
56	78	404
57	641	228
58	952	319
59	533	20
60	432	613
61	263	128
62	627	636
63	120	910
64	353	627
65	256	607
66	321	733
67	991	727
68	430	649
69	899	771
70	458	599
71	627	777
72	610	752
73	253	245
74	436	344
75	861	153
76	96	232
77	799	110
78	920	927
79	922	602
80	676	640
81	899	308
82	970	19
83	72	92
84	877	439
85	110	181
86	427	674
87	972	763
88	571	425
89	798	332
90	386	962
91	192	794
92	167	59
93	659	44
94	889	328
95	38	28
96	906	10
97	722	219
98	627	853
99	368	826
100	302	591
101	172	801
102	556	479
103	826	62
104	709	419
105	263	432
106	465	958
107	49	708
108	771	67
109	391	345
110	850	141
111	808	678
112	904	828
113	482	220
114	962	295
115	438	656
116	767	800
117	213	760
118	267	474
119	10	501
120	366	490
121	864	369
122	647	197
123	862	295
124	683	733
125	774	857
126	92	425
127	417	12
128	416	966
129	298	895
130	397	147
131	829	321
132	909	16
133	430	314
134	6	629
135	27	975
136	725	258
137	314	490
138	873	312
139	912	136
140	562	973
141	713	435
142	660	600
143	607	714
144	952	239
145	867	557
146	948	612
147	569	758
148	772	828
149	174	914
150	891	977
151	55	1
152	158	346
153	798	561
154	307	558
155	296	189
156	967	585
157	887	890
158	274	107
159	115	736
160	155	571
161	485	127
162	546	365
163	393	4
164	283	365
165	110	61
166	150	365
167	54	671
168	174	255
169	222	666
170	742	588
171	750	648
172	446	711
173	63	145
174	985	550
175	60	599
176	51	293
177	387	190
178	19	362
179	461	212
180	537	38
181	890	375
182	950	601
183	47	963
184	819	355
185	752	218
186	171	194
187	808	436
188	501	69
189	696	596
190	17	592
191	489	643
192	183	195
193	497	560
194	835	912
195	588	482
196	438	883
197	37	790
198	174	265
199	278	34
200	614	306
201	405	146
DEMAND_SECTION
1	0
2	6
3	5
4	7
5	7
6	4
7	2
8	1
9	4
10	1
11	1
12	1
13	6
14	8
15	9
16	5
17	8
18	1
19	9
20	9
21	2
22	7
23	5
24	1
25	9
26	5
27	3
28	6
29	9
30	6
31	8
32	7
33	7
34	7
35	6
36	7
37	5
38	1
39	4
40	8
41	9
42	2
43	8
44	7
45	4
46	5
47	9
48	3
49	5
50	1
51	8
52	9
53	2
54	7
55	1
56	1
57	4
58	5
59	7
60	8
61	9
62	2
63	1
64	7
65	8
66	5
67	8
68	1
69	8
70	9
71	6
72	9
73	5
74	9
75	9
76	5
77	6
78	6
79	9
80	6
81	8
82	9
83	4
84	2
85	8
86	4
87	2
88	5
89	7
90	4
91	5
92	4
93	4
94	5
95	5
96	3
97	1
98	7
99	8
100	1
101	7
102	4
103	2
104	6
105	8
106	3
107	8
108	1
109	4
110	4
111	2
112	2
113	1
114	2
115	8
116	7
117	1
118	4
119	6
120	2
121	3
122	4
123	2
124	4
125	3
126	4
127	5
128	2
129	7
130	2
131	8
132	5
133	7
134	1
135	2
136	2
137	7
138	4
139	6
140	8
141	8
142	8
143	6
144	8
145	4
146	5
147	2
148	9
149	2
150	2
151	1
152	3
153	5
154	2
155	7
156	5
157	3
158	2
159	5
160	2
161	8
162	3
163	4
164	7
165	4
166	2
167	2
168	2
169	6
170	4
171	5
172	5
173	8
174	2
175	9
176	8
177	5
178	8
179	5
180	4
181	5
182	5
183	5
184	9
185	4
186	4
187	3
188	4
189	1
190	8
191	1
192	6
193	3
194	3
195	5
196	3
197	1
198	2
199	5
200	9
201	4
TIME_WINDOW_SECTION
1	0	3000
2	781	1688
3	0	1645
4	38	1734
5	746	1305
6	454	1279
7	561	1662
8	110	1898
9	1482	2550
10	885	2426
11	0	1711
12	709	2347
13	293	1571
14	904	1949
15	1822	2551
16	490	947
17	515	869
18	0	1610
19	1340	1699
20	0	1172
21	39	1873
22	1286	3000
23	51	858
24	1523	2250
25	524	871
26	295	1578
27	169	1871
28	849	2214
29	1133	2492
30	1533	2056
31	185	1431
32	673	2671
33	1143	2162
34	0	1567
35	463	1465
36	281	2244
37	1861	2578
38	1184	1627
39	183	1377
40	1412	2025
41	548	1944
42	1056	2136
43	828	1269
44	638	1668
45	982	1998
46	410	1549
47	1130	2911
48	716	972
49	1544	2312
50	2391	2673
51	0	1353
52	1243	2418
53	1672	2385
54	119	1471
55	329	2284
56	1567	3000
57	1028	2145
58	894	2675
59	0	1828
60	114	1234
61	997	1515
62	1045	1748
63	1023	1911
64	1536	2799
65	0	346
66	0	1476
67	1756	2054
68	267	2228
69	1605	2507
70	1025	1804
71	1569	2743
72	434	1450
73	1551	2812
74	307	2033
75	730	2540
76	0	1251
77	155	1482
78	1237	2008
79	22	1439
80	269	959
81	1358	2192
82	1131	2464
83	346	1792
84	495	2448
85	1162	1459
86	514	2138
87	1299	1535
88	1862	2944
89	1527	1754
90	587	1754
91	1730	3000
92	0	1340
93	1482	2289
94	664	2451
95	152	2028
96	151	2000
97	225	1528
98	80	1903
99	1242	2699
100	0	1624
101	1464	3000
102	1054	1515
103	824	2376
104	1073	3000
105	1338	2174
106	575	1274
107	1117	2625
108	553	1164
109	1201	2917
110	200	1607
111	289	1862
112	708	2532
113	692	1637
114	1253	2220
115	0	1235
116	1268	2357
117	106	614
118	1696	2167
119	2093	3000
120	1600	1939
121	1079	2410
122	657	2430
123	832	1535
124	1451	2236
125	0	1713
126	1040	2903
127	367	2246
128	441	1546
129	0	1627
130	228	1125
131	118	1674
132	1220	1694
133	1850	2467
134	1600	1814
135	662	906
136	677	2545
137	255	2158
138	850	1242
139	846	2837
140	1418	2999
141	854	2561
142	1714	2006
143	1386	2879
144	1541	2231
145	1910	2321
146	0	1848
147	151	1476
148	379	1474
149	1870	2549
150	68	1934
151	1420	1806
152	1722	2399
153	842	1187
154	652	2290
155	1582	1891
156	757	1041
157	1386	1977
158	1109	2333
159	694	2557
160	40	584
161	916	2737
162	1722	2772
163	782	2651
164	1567	2672
165	328	1125
166	1720	2493
167	1456	3000
168	246	596
169	1465	2033
170	1158	2532
171	1854	2104
172	49	650
173	1985	2271
174	1123	1677
175	0	929
176	1589	2236
177	0	1283
178	0	1235
179	151	996
180	637	2561
181	616	1503
182	1331	1926
183	882	1756
184	1589	1882
185	1130	2903
186	311	1177
187	439	1321
188	1757	2479
189	1479	2117
190	560	1214
191	128	623
192	723	2319
193	0	1419
194	1745	1972
195	1517	2931
196	1446	2426
197	1220	1992
198	0	796
199	771	1607
200	704	2531
201	231	1742
DEPOT_SECTION
1
-1
EOF
