NAME : n201-0026
COMMENT : "Generated by pyvrp_manuel (OVRPTW)"
TYPE : OVRPTW
DIMENSION : 201
EDGE_WEIGHT_TYPE : EUC_2D
CAPACITY : 80
VEHICLES : 200
OPEN_ROUTE : YES
SERVICE_TIME : 200
NODE_COORD_SECTION
1	229	416
2	318	520
3	463	257
4	357	96
5	89	50
6	315	837
7	203	547
8	649	117
9	293	632
10	722	514
11	475	104
12	704	957
13	824	348
14	185	595
15	421	380
16	314	780
17	277	70
18	685	322
19	584	882
20	194	983
21	888	651
22	985	44
23	81	914
24	975	1
25	247	349
26	26	204
27	206	6
28	666	905
29	966	67
30	866	399
31	440	320
32	767	490
33	158	1
34	801	798
35	934	332
36	69	660
37	377	255
38	730	514
39	921	164
40	196	500
41	813	681
42	197	446
43	917	11
44	563	336
45	366	890
46	334	158
47	686	778
48	158	548
49	113	805
50	374	416
51	104	940
52	335	690
53	952	487
54	456	463
55	183	181
56	62	139
57	683	499
58	502	601
59	449	717
60	560	631
61	635	27
62	207	903
63	728	818
64	367	457
65	47	858
66	500	403
67	296	680
68	776	687
69	757	563
70	697	111
71	895	606
72	13	468
73	803	510
74	903	395
75	624	506
76	582	901
77	431	621
78	111	148
79	686	790
80	207	286
81	779	973
82	754	994
83	96	761
84	382	210
85	247	594
86	980	508
87	538	729
88	57	841
89	141	518
90	569	165
91	387	58
92	22	234
93	430	688
94	788	173
95	378	862
96	857	618
97	610	512
98	24	812
99	956	881
100	589	921
101	845	429
102	896	781
103	151	705
104	786	338
105	648	241
106	577	165
107	718	786
108	90	121
109	291	967
110	434	356
111	553	692
112	677	72
113	261	896
114	552	313
115	747	926
116	277	267
117	128	532
118	494	705
119	798	828
120	133	249
121	732	665
122	979	243
123	988	792
124	741	322
125	257	550
126	730	422
127	202	244
128	837	710
129	775	906
130	125	55
131	958	337
132	970	599
133	815	904
134	307	480
135	893	350
136	194	719
137	741	80
138	868	722
139	982	663
140	153	118
141	428	16
142	973	38
143	26	16
144	162	425
145	989	540
146	913	759
147	548	480
148	739	614
149	724	956
150	462	816
151	956	370
152	227	757
153	528	139
154	844	614
155	359	764
156	188	509
157	436	742
158	674	469
159	140	786
160	383	493
161	417	255
162	393	812
163	911	520
164	72	572
165	545	104
166	490	240
167	12	64
168	71	168
169	186	556
170	896	653
171	548	137
172	248	97
173	751	959
174	154	388
175	821	597
176	30	119
177	258	363
178	660	668
179	117	719
180	958	240
181	612	913
182	139	338
183	864	685
184	796	537
185	700	947
186	910	373
187	784	592
188	902	236
189	661	898
190	583	931
191	528	765
192	146	762
193	276	488
194	223	950
195	439	796
196	933	747
197	657	242
198	219	512
199	868	300
200	151	320
201	181	980
DEMAND_SECTION
1	0
2	3
3	2
4	6
5	3
6	6
7	7
8	7
9	6
10	3
11	7
12	8
13	7
14	6
15	5
16	5
17	4
18	4
19	6
20	3
21	2
22	5
23	8
24	8
25	6
26	3
27	4
28	4
29	5
30	9
31	1
32	8
33	9
34	3
35	5
36	4
37	3
38	8
39	5
40	5
41	5
42	9
43	3
44	4
45	5
46	6
47	1
48	1
49	8
50	1
51	7
52	9
53	8
54	7
55	1
56	9
57	8
58	5
59	9
60	3
61	5
62	3
63	9
64	2
65	4
66	8
67	2
68	8
69	3
70	8
71	4
72	3
73	5
74	6
75	3
76	1
77	5
78	9
79	2
80	3
81	9
82	5
83	5
84	8
85	3
86	5
87	6
88	8
89	5
90	4
91	6
92	6
93	8
94	4
95	5
96	8
97	6
98	3
99	4
100	6
101	5
102	8
103	8
104	6
105	3
106	6
107	5
108	9
109	1
110	1
111	7
112	4
113	4
114	8
115	8
116	2
117	4
118	1
119	4
120	6
121	2
122	4
123	4
124	9
125	5
126	1
127	6
128	9
129	3
130	5
131	6
132	4
133	8
134	4
135	5
136	4
137	1
138	2
139	6
140	8
141	4
142	9
143	6
144	9
145	5
146	9
147	5
148	3
149	1
150	4
151	6
152	9
153	6
154	4
155	2
156	4
157	4
158	7
159	4
160	9
161	7
162	7
163	9
164	9
165	7
166	3
167	8
168	9
169	2
170	7
171	3
172	7
173	9
174	7
175	9
176	8
177	8
178	4
179	6
180	8
181	9
182	6
183	1
184	1
185	2
186	9
187	2
188	4
189	9
190	8
191	3
192	2
193	5
194	1
195	9
196	4
197	6
198	1
199	7
200	2
201	2
TIME_WINDOW_SECTION
1	0	3000
2	0	1251
3	1032	2645
4	0	1153
5	2083	2320
6	743	1233
7	1747	3000
8	1501	2605
9	2314	2551
10	1396	2687
11	531	1255
12	729	1560
13	334	1616
14	717	1486
15	2168	2572
16	1210	3000
17	1336	3000
18	967	1741
19	500	2247
20	0	1600
21	1000	1656
22	539	1218
23	680	1514
24	1076	2004
25	2371	2883
26	1564	2329
27	1068	1603
28	814	2164
29	964	1412
30	686	2041
31	0	1912
32	788	2318
33	109	1726
34	295	1253
35	1059	2764
36	74	598
37	1908	2252
38	0	1159
39	363	1648
40	223	1052
41	967	1375
42	1536	3000
43	825	1798
44	330	1714
45	514	1809
46	1627	3000
47	822	1091
48	1151	2517
49	1223	2637
50	473	1347
51	0	1433
52	135	1036
53	600	2060
54	626	1479
55	1423	2379
56	57	788
57	1813	2407
58	1038	1909
59	914	2224
60	518	1501
61	1299	2907
62	604	1701
63	1261	2128
64	1848	2858
65	920	1881
66	1256	2515
67	1215	2044
68	1736	2318
69	1136	1593
70	342	1405
71	1492	2674
72	2295	2795
73	1157	2829
74	1214	1619
75	1457	2722
76	838	2560
77	889	1927
78	1045	1546
79	1608	2527
80	1450	3000
81	492	1625
82	649	1618
83	232	529
84	1406	3000
85	2067	3000
86	1561	1814
87	302	1115
88	1537	2139
89	665	1641
90	2179	2403
91	0	1461
92	0	1083
93	498	1784
94	702	1812
95	1226	2852
96	1505	2433
97	0	1390
98	376	1813
99	908	2135
100	771	1609
101	1483	2004
102	1218	1685
103	215	1347
104	698	1487
105	913	1549
106	1894	2747
107	424	1583
108	1234	2923
109	346	948
110	198	1064
111	1944	2746
112	524	1214
113	750	1100
114	932	2598
115	803	2356
116	1656	2201
117	1300	3000
118	1213	2925
119	839	1611
120	2217	2911
121	129	1097
122	1511	1731
123	996	2320
124	1061	1261
125	1241	3000
126	1379	2344
127	0	1507
128	1667	2506
129	0	1730
130	488	1890
131	192	1445
132	1323	2012
133	1045	2747
134	891	2391
135	1029	1944
136	0	1608
137	195	1982
138	1597	2101
139	580	2495
140	0	1860
141	182	1179
142	628	1329
143	585	2006
144	751	1031
145	1277	2137
146	423	1348
147	103	1950
148	1804	2518
149	1811	2165
150	1123	1736
151	1178	1933
152	1953	2716
153	101	1133
154	88	1559
155	859	1298
156	943	2183
157	193	764
158	914	2735
159	1054	2293
160	871	2351
161	358	2346
162	1096	2401
163	805	2484
164	88	1003
165	1328	2143
166	831	1644
167	1689	2015
168	2078	2701
169	1986	2680
170	0	1549
171	0	1514
172	965	1633
173	780	2225
174	0	1140
175	1400	2023
176	1127	2653
177	1617	3000
178	1393	3000
179	1367	1817
180	1652	2319
181	1255	2195
182	1136	2509
183	1866	2072
184	540	1218
185	715	2305
186	1845	2152
187	972	2911
188	1374	2042
189	1324	1926
190	1897	2105
191	0	1228
192	1670	2573
193	557	1412
194	1497	2243
195	0	1569
196	1442	1735
197	511	2374
198	110	611
199	255	1859
200	524	1027
201	175	963
DEPOT_SECTION
1
-1
EOF
