NAME : n51-0037
COMMENT : "Generated by pyvrp_manuel (OVRPB)"
TYPE : OVRPB
DIMENSION : 51
EDGE_WEIGHT_TYPE : EUC_2D
CAPACITY : 40
VEHICLES : 50
OPEN_ROUTE : YES
NODE_COORD_SECTION
1	697	914
2	690	272
3	284	211
4	904	380
5	824	897
6	112	873
7	405	979
8	755	16
9	593	676
10	319	879
11	86	341
12	976	988
13	750	202
14	70	93
15	375	783
16	658	439
17	950	893
18	266	283
19	494	604
20	496	693
21	845	410
22	746	568
23	692	706
24	366	277
25	714	180
26	763	179
27	843	701
28	378	786
29	335	607
30	647	551
31	600	490
32	356	779
33	697	686
34	838	238
35	384	486
36	903	102
37	213	381
38	73	105
39	843	523
40	98	417
41	484	322
42	82	772
43	438	988
44	117	226
45	474	152
46	864	887
47	953	184
48	856	847
49	301	555
50	738	858
51	33	998
DEMAND_SECTION
1	0
2	2
3	5
4	8
5	6
6	3
7	7
8	5
9	8
10	4
11	7
12	8
13	1
14	7
15	5
16	3
17	4
18	3
19	1
20	6
21	9
22	2
23	1
24	6
25	3
26	2
27	4
28	1
29	7
30	1
31	8
32	4
33	9
34	5
35	5
36	6
37	2
38	7
39	9
40	7
41	2
42	5
43	5
44	9
45	7
46	3
47	4
48	9
49	1
50	6
51	9
BACKHAUL_SECTION
9	11	16	18	20	23	24	25	27	32	-1
DEPOT_SECTION
1
-1
EOF
