NAME : n51-0010
COMMENT : "Generated by pyvrp_manuel (OVRPB)"
TYPE : OVRPB
DIMENSION : 51
EDGE_WEIGHT_TYPE : EUC_2D
CAPACITY : 40
VEHICLES : 50
OPEN_ROUTE : YES
NODE_COORD_SECTION
1	161	282
2	457	110
3	497	85
4	392	790
5	152	163
6	378	363
7	585	583
8	754	156
9	465	780
10	932	464
11	211	644
12	785	188
13	210	721
14	465	28
15	212	703
16	330	845
17	895	573
18	460	341
19	475	591
20	118	381
21	84	807
22	182	957
23	371	214
24	740	575
25	846	709
26	18	816
27	406	279
28	818	865
29	61	455
30	911	694
31	921	329
32	224	930
33	708	980
34	291	179
35	441	29
36	696	869
37	620	451
38	748	183
39	989	3
40	21	382
41	908	550
42	692	133
43	682	444
44	700	853
45	717	457
46	469	186
47	319	825
48	300	811
49	302	384
50	511	41
51	495	450
DEMAND_SECTION
1	0
2	6
3	3
4	8
5	2
6	3
7	3
8	6
9	7
10	5
11	3
12	3
13	2
14	1
15	1
16	3
17	9
18	4
19	1
20	9
21	9
22	2
23	1
24	6
25	9
26	3
27	4
28	6
29	4
30	9
31	7
32	5
33	7
34	4
35	7
36	3
37	7
38	6
39	6
40	5
41	7
42	6
43	2
44	4
45	4
46	9
47	6
48	6
49	7
50	1
51	8
BACKHAUL_SECTION
9	11	16	18	20	23	24	25	27	32	-1
DEPOT_SECTION
1
-1
EOF
