NAME : n101-0035
COMMENT : "Generated by pyvrp_manuel (OVRPBLTW)"
TYPE : OVRPBLTW
DIMENSION : 101
EDGE_WEIGHT_TYPE : EUC_2D
CAPACITY : 50
VEHICLES : 100
OPEN_ROUTE : YES
DISTANCE : 3000
SERVICE_TIME : 200
NODE_COORD_SECTION
1	810	980
2	487	698
3	773	148
4	68	417
5	428	308
6	632	116
7	986	399
8	221	420
9	104	67
10	645	363
11	229	731
12	891	556
13	251	772
14	328	269
15	403	379
16	983	410
17	50	341
18	683	716
19	165	148
20	358	532
21	89	730
22	406	791
23	649	420
24	455	654
25	240	370
26	729	54
27	400	604
28	242	737
29	748	428
30	339	742
31	528	113
32	788	992
33	928	224
34	964	292
35	121	858
36	147	960
37	990	164
38	831	405
39	370	576
40	689	160
41	990	850
42	211	736
43	589	775
44	488	669
45	640	967
46	570	908
47	583	661
48	444	446
49	124	981
50	229	762
51	615	824
52	27	453
53	21	106
54	677	382
55	834	873
56	501	352
57	847	977
58	560	83
59	709	417
60	132	608
61	512	507
62	997	754
63	816	504
64	401	687
65	126	972
66	562	35
67	211	741
68	615	747
69	7	498
70	798	776
71	527	6
72	937	692
73	695	801
74	796	444
75	831	840
76	624	115
77	849	255
78	926	189
79	466	307
80	226	335
81	822	665
82	454	98
83	223	784
84	266	114
85	226	333
86	278	765
87	494	972
88	40	249
89	666	807
90	295	700
91	225	197
92	773	470
93	134	481
94	940	614
95	400	409
96	202	784
97	508	242
98	529	655
99	521	459
100	30	485
101	340	494
DEMAND_SECTION
1	0
2	5
3	6
4	8
5	5
6	6
7	2
8	5
9	1
10	2
11	4
12	3
13	1
14	8
15	3
16	1
17	2
18	9
19	2
20	2
21	6
22	7
23	7
24	9
25	2
26	6
27	6
28	7
29	1
30	4
31	8
32	3
33	1
34	8
35	8
36	7
37	8
38	1
39	7
40	1
41	3
42	7
43	9
44	9
45	7
46	4
47	3
48	4
49	2
50	5
51	1
52	9
53	3
54	7
55	8
56	8
57	9
58	1
59	3
60	2
61	7
62	4
63	7
64	8
65	5
66	1
67	9
68	3
69	4
70	3
71	9
72	1
73	7
74	7
75	6
76	8
77	4
78	7
79	9
80	6
81	3
82	9
83	2
84	5
85	1
86	5
87	8
88	1
89	2
90	5
91	1
92	1
93	1
94	4
95	9
96	7
97	3
98	1
99	7
100	6
101	7
TIME_WINDOW_SECTION
1	0	3000
2	1167	1396
3	1421	2148
4	23	1892
5	1077	1950
6	1133	2271
7	1288	1956
8	846	2302
9	596	1714
10	0	1752
11	772	2022
12	0	1256
13	988	1821
14	427	2246
15	733	1823
16	978	1969
17	1170	2246
18	958	1183
19	488	2365
20	865	1332
21	50	2046
22	0	1447
23	430	1933
24	571	2137
25	1238	2049
26	225	1695
27	1463	2831
28	1618	2000
29	879	1710
30	562	1401
31	442	1791
32	2194	3000
33	435	1923
34	1538	2418
35	0	1842
36	1080	2972
37	988	1612
38	962	1567
39	1305	1837
40	380	1903
41	0	1207
42	312	1964
43	363	1976
44	0	1020
45	0	876
46	1907	2477
47	304	682
48	553	931
49	706	2089
50	598	1681
51	1152	2577
52	1111	2044
53	382	2344
54	1113	2388
55	472	1656
56	655	1553
57	284	920
58	1143	2325
59	1055	2584
60	1363	1655
61	414	1713
62	1212	2480
63	1029	2645
64	1274	1949
65	859	1452
66	1079	1686
67	1105	2075
68	260	1984
69	1613	1881
70	2302	2792
71	912	1453
72	73	785
73	965	1920
74	636	1263
75	0	1179
76	0	1950
77	789	1907
78	572	2341
79	1826	2209
80	492	2380
81	980	2435
82	986	1841
83	302	1004
84	1422	1623
85	1647	2010
86	176	1122
87	1155	1542
88	1090	2148
89	596	2101
90	869	1957
91	774	1747
92	38	1121
93	1138	2276
94	1172	2806
95	1068	1823
96	598	1358
97	477	1123
98	1305	2740
99	1348	2219
100	1174	1689
101	1238	2756
BACKHAUL_SECTION
9	10	13	14	25	29	32	36	43	46	49	55	57	65	73	85	89	92	97	98	-1
DEPOT_SECTION
1
-1
EOF
