NAME : n101-0041
COMMENT : "Generated by pyvrp_manuel (OVRPBLTW)"
TYPE : OVRPBLTW
DIMENSION : 101
EDGE_WEIGHT_TYPE : EUC_2D
CAPACITY : 50
VEHICLES : 100
OPEN_ROUTE : YES
DISTANCE : 3000
SERVICE_TIME : 200
NODE_COORD_SECTION
1	34	944
2	134	175
3	212	58
4	564	71
5	360	815
6	114	840
7	995	424
8	440	25
9	964	901
10	446	798
11	60	162
12	970	4
13	447	233
14	28	582
15	282	599
16	313	666
17	566	3
18	819	809
19	117	649
20	263	843
21	260	814
22	183	231
23	704	636
24	272	868
25	595	739
26	204	621
27	621	791
28	961	817
29	991	281
30	88	589
31	491	426
32	97	483
33	515	806
34	740	585
35	852	446
36	902	45
37	485	276
38	821	360
39	162	416
40	500	837
41	775	48
42	289	257
43	474	722
44	427	955
45	555	777
46	380	790
47	696	519
48	483	722
49	571	185
50	345	172
51	619	875
52	213	668
53	114	706
54	31	304
55	494	415
56	781	301
57	666	720
58	637	15
59	223	377
60	492	692
61	852	603
62	158	3
63	948	502
64	56	363
65	692	484
66	830	414
67	563	969
68	56	550
69	93	163
70	32	745
71	402	682
72	557	663
73	80	323
74	363	137
75	713	784
76	319	158
77	240	34
78	175	362
79	582	260
80	90	753
81	900	524
82	429	279
83	663	540
84	271	843
85	795	869
86	845	203
87	958	490
88	40	817
89	178	265
90	597	855
91	580	72
92	160	685
93	363	637
94	936	174
95	68	332
96	461	332
97	988	201
98	790	694
99	960	19
100	865	341
101	324	517
DEMAND_SECTION
1	0
2	6
3	7
4	2
5	3
6	1
7	3
8	6
9	3
10	1
11	4
12	9
13	4
14	2
15	1
16	7
17	5
18	7
19	5
20	2
21	4
22	7
23	3
24	9
25	9
26	3
27	4
28	3
29	2
30	2
31	6
32	7
33	2
34	8
35	7
36	3
37	3
38	7
39	9
40	6
41	7
42	6
43	3
44	9
45	6
46	9
47	9
48	1
49	1
50	5
51	5
52	6
53	3
54	8
55	7
56	2
57	8
58	3
59	1
60	7
61	8
62	4
63	4
64	7
65	2
66	2
67	6
68	2
69	2
70	4
71	7
72	6
73	3
74	2
75	4
76	3
77	2
78	1
79	1
80	6
81	5
82	4
83	9
84	3
85	1
86	5
87	9
88	4
89	8
90	6
91	2
92	4
93	1
94	5
95	2
96	4
97	5
98	9
99	9
100	6
101	1
TIME_WINDOW_SECTION
1	0	3000
2	763	1653
3	463	1421
4	1128	2102
5	250	2197
6	617	1480
7	855	2490
8	377	2343
9	781	1673
10	852	1995
11	1024	2800
12	823	1903
13	1523	2235
14	93	2056
15	791	1922
16	1166	1541
17	1466	1790
18	898	2368
19	1003	2439
20	1147	2721
21	940	2727
22	553	2090
23	507	1019
24	1643	2108
25	1398	2792
26	623	1609
27	0	1509
28	1236	2477
29	931	1456
30	379	918
31	556	1811
32	0	1758
33	1405	2536
34	1182	2725
35	554	1441
36	1187	1465
37	1250	2329
38	1059	2331
39	557	1784
40	232	1361
41	747	1639
42	759	1873
43	0	1829
44	869	1145
45	286	1910
46	1801	2021
47	1264	2423
48	0	1104
49	974	1631
50	1162	2658
51	1154	2246
52	577	2010
53	343	2071
54	1701	2235
55	568	1011
56	1435	2128
57	933	1152
58	1207	1852
59	1798	2138
60	358	1666
61	1311	1736
62	1143	2016
63	890	1991
64	1477	1907
65	0	1744
66	1252	2384
67	944	2453
68	1416	1628
69	967	2175
70	1745	2529
71	1043	1506
72	1068	1699
73	179	1634
74	687	1766
75	650	1188
76	1058	2538
77	498	1523
78	847	2624
79	955	1858
80	719	1197
81	971	2009
82	1087	2045
83	933	1274
84	43	1112
85	1091	2536
86	1020	1433
87	279	2030
88	533	1209
89	915	1431
90	400	1509
91	56	2040
92	297	992
93	1105	1635
94	947	2145
95	1172	1667
96	1402	2149
97	781	1682
98	1446	1713
99	628	2159
100	764	1721
101	204	1981
BACKHAUL_SECTION
9	10	13	14	25	29	32	36	43	46	49	55	57	65	73	85	89	92	97	98	-1
DEPOT_SECTION
1
-1
EOF
