NAME : n51-0010
COMMENT : "Generated by pyvrp_manuel (OVRPTW)"
TYPE : OVRPTW
DIMENSION : 51
EDGE_WEIGHT_TYPE : EUC_2D
CAPACITY : 40
VEHICLES : 50
OPEN_ROUTE : YES
SERVICE_TIME : 200
NODE_COORD_SECTION
1	751	610
2	703	627
3	659	629
4	483	341
5	264	404
6	778	187
7	24	414
8	284	62
9	185	416
10	233	842
11	416	386
12	818	50
13	655	420
14	942	557
15	304	150
16	170	270
17	952	881
18	975	315
19	668	156
20	360	938
21	147	6
22	502	605
23	891	690
24	592	999
25	910	229
26	42	49
27	609	637
28	367	860
29	600	571
30	432	800
31	666	142
32	369	721
33	673	401
34	982	908
35	271	890
36	871	845
37	340	739
38	218	771
39	497	776
40	819	664
41	655	256
42	115	119
43	400	96
44	355	474
45	25	971
46	541	807
47	77	813
48	210	624
49	874	907
50	26	303
51	281	696
DEMAND_SECTION
1	0
2	5
3	1
4	2
5	1
6	8
7	2
8	3
9	1
10	8
11	7
12	4
13	8
14	7
15	2
16	8
17	5
18	8
19	1
20	7
21	4
22	4
23	4
24	6
25	6
26	8
27	9
28	2
29	1
30	5
31	6
32	4
33	1
34	7
35	1
36	1
37	7
38	7
39	3
40	2
41	6
42	2
43	2
44	2
45	2
46	3
47	8
48	1
49	8
50	3
51	3
TIME_WINDOW_SECTION
1	0	3000
2	1136	2893
3	672	1705
4	406	1308
5	872	1930
6	332	1451
7	1754	2065
8	922	2395
9	1678	2085
10	0	1542
11	1394	1916
12	946	2601
13	1255	2330
14	297	1005
15	724	1380
16	987	2389
17	1206	3000
18	1876	2082
19	946	2503
20	912	2479
21	1821	2041
22	368	2136
23	1247	1976
24	564	2194
25	128	2046
26	900	2333
27	1332	2468
28	165	1062
29	1860	2534
30	343	881
31	1142	2684
32	652	1562
33	1589	1991
34	1635	2017
35	578	1964
36	0	1043
37	467	2320
38	461	1219
39	984	1663
40	0	899
41	296	1592
42	1354	2164
43	955	1630
44	0	1687
45	1002	1909
46	409	2260
47	186	2125
48	805	2482
49	1363	1903
50	730	1021
51	1645	2058
DEPOT_SECTION
1
-1
EOF
