NAME : n51-0020
COMMENT : "Generated by pyvrp_manuel (OVRPTW)"
TYPE : OVRPTW
DIMENSION : 51
EDGE_WEIGHT_TYPE : EUC_2D
CAPACITY : 40
VEHICLES : 50
OPEN_ROUTE : YES
SERVICE_TIME : 200
NODE_COORD_SECTION
1	329	83
2	183	850
3	724	321
4	829	803
5	398	533
6	449	485
7	335	659
8	341	200
9	477	498
10	393	271
11	21	874
12	326	489
13	860	783
14	987	779
15	290	5
16	595	384
17	639	726
18	79	323
19	288	634
20	719	851
21	137	357
22	127	873
23	962	283
24	988	876
25	582	274
26	890	947
27	956	817
28	867	904
29	100	431
30	996	324
31	619	942
32	714	282
33	318	25
34	805	65
35	248	865
36	45	981
37	604	385
38	348	319
39	970	284
40	62	70
41	879	753
42	125	707
43	853	268
44	583	433
45	139	122
46	477	792
47	557	972
48	60	24
49	217	197
50	686	137
51	512	816
DEMAND_SECTION
1	0
2	6
3	2
4	9
5	2
6	9
7	9
8	1
9	4
10	2
11	5
12	5
13	9
14	7
15	7
16	1
17	7
18	1
19	9
20	7
21	8
22	5
23	1
24	4
25	7
26	8
27	3
28	3
29	8
30	6
31	4
32	6
33	4
34	7
35	7
36	9
37	6
38	7
39	7
40	9
41	6
42	2
43	6
44	3
45	7
46	4
47	5
48	9
49	9
50	1
51	8
TIME_WINDOW_SECTION
1	0	3000
2	1487	1889
3	1654	2392
4	948	1407
5	1645	2448
6	1301	1805
7	462	1466
8	843	2138
9	840	2442
10	1803	2219
11	641	2558
12	0	1324
13	1345	1785
14	340	1986
15	1777	3000
16	137	994
17	524	965
18	745	1198
19	722	1931
20	816	1558
21	1383	1850
22	203	1481
23	1286	2882
24	989	1391
25	2292	2561
26	852	1829
27	1492	1820
28	757	2114
29	1846	2183
30	1390	2353
31	1569	1823
32	1309	3000
33	2171	3000
34	1282	2953
35	604	1852
36	823	1733
37	720	1065
38	618	1704
39	1650	2599
40	2276	2670
41	1395	1696
42	1910	2276
43	1531	1829
44	1324	3000
45	1868	2362
46	1115	1833
47	1108	2438
48	172	1200
49	0	940
50	176	1902
51	1149	1927
DEPOT_SECTION
1
-1
EOF
