NAME : n51-0016
COMMENT : "Generated by pyvrp_manuel (OVRPTW)"
TYPE : OVRPTW
DIMENSION : 51
EDGE_WEIGHT_TYPE : EUC_2D
CAPACITY : 40
VEHICLES : 50
OPEN_ROUTE : YES
SERVICE_TIME : 200
NODE_COORD_SECTION
1	262	282
2	393	327
3	786	57
4	759	842
5	365	744
6	270	13
7	713	213
8	877	783
9	455	365
10	254	473
11	576	170
12	330	701
13	508	981
14	304	543
15	275	229
16	11	300
17	734	816
18	404	686
19	654	470
20	415	259
21	406	368
22	625	366
23	52	823
24	963	926
25	544	733
26	85	905
27	10	174
28	277	695
29	637	606
30	769	845
31	331	17
32	940	28
33	579	128
34	156	66
35	923	56
36	905	165
37	206	960
38	417	315
39	380	99
40	609	340
41	773	868
42	314	924
43	525	473
44	44	557
45	510	163
46	407	283
47	163	304
48	486	73
49	178	243
50	76	642
51	274	523
DEMAND_SECTION
1	0
2	4
3	7
4	1
5	8
6	3
7	5
8	3
9	6
10	6
11	8
12	3
13	1
14	1
15	4
16	2
17	1
18	9
19	9
20	1
21	8
22	6
23	2
24	8
25	6
26	3
27	4
28	8
29	6
30	2
31	9
32	5
33	9
34	5
35	1
36	9
37	3
38	4
39	3
40	9
41	9
42	1
43	6
44	5
45	3
46	2
47	1
48	8
49	1
50	1
51	4
TIME_WINDOW_SECTION
1	0	3000
2	2114	2822
3	103	1946
4	1019	1618
5	656	1441
6	1196	2885
7	204	944
8	675	1047
9	345	1218
10	678	1192
11	1567	3000
12	469	1857
13	1576	2236
14	695	1751
15	1128	2899
16	524	1374
17	702	2645
18	730	1852
19	0	1393
20	485	1187
21	312	1551
22	515	1777
23	1809	2292
24	486	2481
25	708	1962
26	512	2496
27	259	1601
28	504	1353
29	1455	1918
30	240	1832
31	896	2076
32	1393	2298
33	415	1421
34	1255	3000
35	319	2153
36	1047	1535
37	112	2006
38	802	2621
39	570	1347
40	2108	2691
41	1534	2182
42	1093	2872
43	1335	2400
44	1227	2437
45	586	2292
46	0	1948
47	0	959
48	823	2601
49	529	2366
50	0	1530
51	0	1300
DEPOT_SECTION
1
-1
EOF
