NAME : n51-0039
COMMENT : "Generated by pyvrp_manuel (OVRPTW)"
TYPE : OVRPTW
DIMENSION : 51
EDGE_WEIGHT_TYPE : EUC_2D
CAPACITY : 40
VEHICLES : 50
OPEN_ROUTE : YES
SERVICE_TIME : 200
NODE_COORD_SECTION
1	516	669
2	209	387
3	101	580
4	729	568
5	287	588
6	615	436
7	114	254
8	194	252
9	515	961
10	684	474
11	558	354
12	849	566
13	742	688
14	769	848
15	157	154
16	349	745
17	194	11
18	179	742
19	828	420
20	269	804
21	257	722
22	68	36
23	135	694
24	728	855
25	384	962
26	656	595
27	995	871
28	938	780
29	529	180
30	156	46
31	420	534
32	421	667
33	453	732
34	489	322
35	483	583
36	370	683
37	84	971
38	577	960
39	56	90
40	124	248
41	475	267
42	850	443
43	961	307
44	34	131
45	144	249
46	11	269
47	963	457
48	514	30
49	706	134
50	377	426
51	161	331
DEMAND_SECTION
1	0
2	7
3	5
4	5
5	3
6	4
7	3
8	2
9	2
10	7
11	4
12	3
13	6
14	1
15	3
16	6
17	4
18	4
19	4
20	5
21	2
22	8
23	1
24	2
25	4
26	7
27	9
28	5
29	4
30	5
31	8
32	6
33	3
34	3
35	2
36	6
37	7
38	3
39	1
40	4
41	8
42	9
43	4
44	4
45	6
46	8
47	4
48	4
49	5
50	2
51	9
TIME_WINDOW_SECTION
1	0	3000
2	1630	2903
3	641	1173
4	1704	2665
5	1495	2520
6	1637	3000
7	894	1897
8	147	1132
9	906	2028
10	743	1609
11	1327	1820
12	653	1829
13	0	839
14	854	1971
15	311	1988
16	689	1820
17	1230	1956
18	1640	2542
19	588	2079
20	382	2152
21	1376	2380
22	1566	2088
23	1016	1981
24	325	2035
25	1629	1907
26	1383	2992
27	1683	2147
28	1351	3000
29	171	1247
30	986	1880
31	1159	2184
32	1740	2564
33	0	1092
34	1842	2647
35	824	1427
36	760	2136
37	1995	2477
38	0	1505
39	645	2188
40	782	2731
41	832	1464
42	612	2311
43	992	2936
44	1136	1618
45	1101	1497
46	793	2095
47	934	1836
48	42	1942
49	905	1883
50	1227	1554
51	663	924
DEPOT_SECTION
1
-1
EOF
