NAME : n51-0025
COMMENT : "Generated by pyvrp_manuel (OVRPTW)"
TYPE : OVRPTW
DIMENSION : 51
EDGE_WEIGHT_TYPE : EUC_2D
CAPACITY : 40
VEHICLES : 50
OPEN_ROUTE : YES
SERVICE_TIME : 200
NODE_COORD_SECTION
1	765	75
2	418	556
3	604	2
4	837	317
5	215	384
6	248	912
7	390	832
8	793	68
9	637	810
10	201	94
11	527	297
12	386	688
13	478	70
14	570	471
15	916	537
16	477	277
17	483	443
18	339	20
19	577	413
20	935	552
21	887	729
22	242	497
23	654	851
24	840	971
25	169	894
26	554	728
27	900	634
28	557	564
29	309	399
30	800	161
31	637	535
32	170	495
33	307	980
34	74	742
35	382	352
36	179	172
37	602	359
38	265	587
39	551	968
40	293	76
41	552	310
42	602	888
43	415	156
44	347	88
45	815	38
46	238	532
47	352	801
48	163	348
49	176	966
50	815	545
51	666	0
DEMAND_SECTION
1	0
2	6
3	6
4	4
5	9
6	8
7	7
8	9
9	4
10	5
11	5
12	4
13	8
14	1
15	3
16	3
17	5
18	3
19	2
20	5
21	9
22	8
23	6
24	1
25	2
26	5
27	9
28	6
29	1
30	9
31	4
32	3
33	7
34	1
35	1
36	5
37	4
38	7
39	7
40	1
41	1
42	4
43	1
44	3
45	7
46	2
47	1
48	2
49	8
50	8
51	2
TIME_WINDOW_SECTION
1	0	3000
2	820	2410
3	1390	2200
4	421	2157
5	0	1701
6	939	2305
7	608	1626
8	0	835
9	625	1871
10	1004	1921
11	0	1536
12	1352	2728
13	893	1921
14	1843	2070
15	0	1857
16	1950	2421
17	1329	3000
18	729	2558
19	795	1529
20	0	1321
21	710	2316
22	1332	1547
23	488	2344
24	1036	1255
25	847	2650
26	1411	2734
27	228	1372
28	148	1844
29	1514	2025
30	1704	1991
31	419	1832
32	1359	2006
33	846	1403
34	353	2322
35	636	1413
36	287	1378
37	845	2153
38	73	1358
39	650	2334
40	1550	2822
41	0	1367
42	697	2450
43	984	2099
44	26	988
45	1342	1708
46	1192	2898
47	786	2514
48	961	1323
49	777	2299
50	948	1216
51	1400	2553
DEPOT_SECTION
1
-1
EOF
