NAME : n51-0001
COMMENT : "Generated by pyvrp_manuel (OVRPTW)"
TYPE : OVRPTW
DIMENSION : 51
EDGE_WEIGHT_TYPE : EUC_2D
CAPACITY : 40
VEHICLES : 50
OPEN_ROUTE : YES
SERVICE_TIME : 200
NODE_COORD_SECTION
1	959	424
2	579	47
3	635	542
4	309	788
5	115	198
6	293	616
7	143	935
8	908	319
9	641	878
10	794	877
11	94	950
12	261	646
13	686	969
14	621	337
15	313	305
16	911	879
17	48	343
18	290	278
19	211	986
20	972	576
21	842	632
22	614	285
23	504	655
24	865	163
25	233	737
26	333	954
27	200	660
28	914	790
29	370	584
30	860	30
31	219	378
32	132	406
33	252	645
34	349	392
35	421	591
36	397	612
37	732	147
38	710	70
39	250	562
40	679	383
41	60	629
42	198	721
43	116	138
44	512	72
45	705	0
46	183	746
47	185	778
48	430	800
49	483	170
50	546	809
51	976	200
DEMAND_SECTION
1	0
2	5
3	9
4	4
5	4
6	5
7	9
8	2
9	2
10	3
11	4
12	6
13	9
14	4
15	5
16	7
17	1
18	4
19	2
20	6
21	9
22	1
23	1
24	3
25	7
26	2
27	5
28	7
29	4
30	8
31	8
32	5
33	9
34	5
35	3
36	7
37	4
38	4
39	1
40	2
41	6
42	6
43	3
44	3
45	8
46	1
47	1
48	1
49	7
50	2
51	1
TIME_WINDOW_SECTION
1	0	3000
2	0	1636
3	848	1766
4	1134	2165
5	731	2610
6	993	2038
7	600	2547
8	1490	2278
9	921	2064
10	1098	2222
11	664	1893
12	704	1583
13	870	2793
14	859	2352
15	1189	2167
16	611	1462
17	1202	2300
18	913	2486
19	719	1661
20	1519	2998
21	1841	3000
22	1333	2805
23	1031	2687
24	653	1701
25	1369	2089
26	759	1418
27	380	2332
28	789	2185
29	0	1763
30	615	1173
31	469	1103
32	617	2374
33	662	2552
34	454	1589
35	1745	2232
36	973	2066
37	398	1755
38	704	2474
39	1022	1806
40	331	2157
41	80	1974
42	848	1543
43	1153	2598
44	1612	2276
45	416	2337
46	1296	1883
47	1550	2157
48	991	1605
49	764	1985
50	794	2515
51	1782	2814
DEPOT_SECTION
1
-1
EOF
