NAME : n101-0009
COMMENT : "Generated by pyvrp_manuel (OVRPB)"
TYPE : OVRPB
DIMENSION : 101
EDGE_WEIGHT_TYPE : EUC_2D
CAPACITY : 50
VEHICLES : 100
OPEN_ROUTE : YES
NODE_COORD_SECTION
1	698	800
2	599	65
3	743	309
4	319	103
5	704	136
6	394	722
7	877	613
8	313	283
9	781	593
10	921	688
11	903	97
12	902	270
13	366	503
14	406	599
15	946	201
16	654	98
17	579	912
18	837	928
19	771	459
20	631	291
21	924	750
22	134	932
23	493	478
24	363	368
25	525	256
26	35	242
27	401	878
28	868	200
29	481	356
30	233	412
31	327	779
32	252	577
33	218	344
34	894	255
35	470	978
36	671	246
37	200	325
38	343	718
39	389	922
40	226	344
41	682	899
42	978	580
43	521	276
44	783	210
45	369	82
46	19	779
47	534	899
48	898	762
49	700	370
50	766	740
51	673	486
52	575	502
53	137	616
54	132	743
55	202	337
56	263	895
57	148	755
58	751	854
59	625	773
60	895	598
61	670	109
62	366	545
63	561	323
64	4	370
65	691	931
66	48	739
67	26	22
68	187	434
69	640	120
70	885	952
71	531	907
72	274	302
73	435	555
74	151	100
75	698	644
76	989	296
77	677	298
78	747	472
79	871	778
80	916	757
81	519	931
82	206	972
83	989	978
84	266	235
85	532	656
86	751	703
87	926	375
88	336	668
89	639	208
90	548	120
91	353	304
92	938	50
93	205	11
94	626	115
95	662	153
96	180	245
97	575	959
98	968	462
99	10	335
100	309	394
101	691	752
DEMAND_SECTION
1	0
2	1
3	2
4	2
5	7
6	9
7	7
8	4
9	1
10	8
11	4
12	3
13	6
14	8
15	4
16	5
17	8
18	7
19	8
20	4
21	7
22	4
23	8
24	2
25	4
26	8
27	9
28	9
29	5
30	6
31	4
32	7
33	7
34	3
35	4
36	6
37	8
38	1
39	8
40	2
41	3
42	6
43	1
44	6
45	9
46	9
47	3
48	6
49	4
50	2
51	8
52	4
53	9
54	6
55	6
56	2
57	8
58	3
59	2
60	1
61	2
62	1
63	2
64	2
65	7
66	9
67	9
68	4
69	3
70	1
71	8
72	5
73	7
74	1
75	6
76	4
77	4
78	5
79	1
80	7
81	6
82	4
83	1
84	1
85	2
86	3
87	1
88	3
89	3
90	7
91	8
92	9
93	9
94	3
95	5
96	8
97	8
98	6
99	8
100	3
101	5
BACKHAUL_SECTION
2	6	13	14	15	16	20	28	46	48	53	64	65	76	79	80	82	83	96	99	-1
DEPOT_SECTION
1
-1
EOF
