NAME : n101-0023
COMMENT : "Generated by pyvrp_manuel (VRPBL)"
TYPE : VRPBL
DIMENSION : 101
EDGE_WEIGHT_TYPE : EUC_2D
CAPACITY : 50
VEHICLES : 100
DISTANCE : 3000
NODE_COORD_SECTION
1	139	242
2	695	472
3	891	706
4	865	46
5	987	686
6	743	611
7	828	971
8	457	90
9	959	395
10	259	808
11	779	567
12	469	404
13	958	805
14	798	819
15	238	604
16	67	790
17	4	0
18	6	808
19	552	501
20	580	311
21	348	163
22	378	192
23	513	893
24	87	746
25	128	293
26	598	586
27	910	500
28	310	293
29	515	125
30	108	286
31	513	162
32	215	857
33	962	343
34	71	309
35	702	662
36	345	60
37	350	388
38	788	252
39	800	569
40	416	54
41	994	411
42	815	241
43	13	101
44	244	341
45	429	917
46	39	750
47	921	503
48	188	516
49	619	721
50	348	328
51	264	16
52	676	122
53	260	495
54	885	945
55	136	934
56	948	904
57	544	902
58	743	141
59	236	509
60	146	335
61	903	733
62	935	504
63	245	831
64	537	584
65	288	705
66	131	899
67	937	680
68	889	803
69	309	66
70	566	814
71	449	542
72	871	706
73	874	573
74	556	380
75	416	234
76	834	956
77	686	514
78	335	6
79	407	145
80	131	401
81	402	601
82	138	859
83	45	263
84	310	531
85	707	368
86	578	382
87	303	430
88	601	14
89	152	891
90	726	487
91	516	569
92	616	159
93	364	41
94	107	406
95	434	891
96	586	419
97	486	779
98	349	407
99	400	97
100	430	38
101	231	182
DEMAND_SECTION
1	0
2	5
3	4
4	1
5	3
6	6
7	5
8	3
9	8
10	4
11	8
12	4
13	2
14	5
15	6
16	4
17	3
18	2
19	4
20	5
21	5
22	7
23	4
24	8
25	5
26	1
27	1
28	1
29	1
30	5
31	6
32	6
33	3
34	1
35	8
36	2
37	1
38	8
39	7
40	8
41	1
42	5
43	9
44	6
45	3
46	6
47	5
48	2
49	1
50	3
51	6
52	5
53	3
54	8
55	4
56	6
57	7
58	5
59	9
60	1
61	1
62	3
63	7
64	2
65	6
66	6
67	3
68	4
69	4
70	4
71	9
72	6
73	6
74	2
75	9
76	8
77	8
78	2
79	1
80	5
81	7
82	1
83	4
84	4
85	5
86	2
87	1
88	5
89	7
90	9
91	3
92	2
93	3
94	2
95	1
96	2
97	7
98	5
99	5
100	6
101	4
BACKHAUL_SECTION
2	6	13	14	15	16	20	28	46	48	53	64	65	76	79	80	82	83	96	99	-1
DEPOT_SECTION
1
-1
EOF
