NAME : n101-0045
COMMENT : "Generated by pyvrp_manuel (VRPBL)"
TYPE : VRPBL
DIMENSION : 101
EDGE_WEIGHT_TYPE : EUC_2D
CAPACITY : 50
VEHICLES : 100
DISTANCE : 3000
NODE_COORD_SECTION
1	692	204
2	427	343
3	752	382
4	74	65
5	983	725
6	2	90
7	184	953
8	772	663
9	783	585
10	857	97
11	893	729
12	666	820
13	402	262
14	364	125
15	503	757
16	593	483
17	689	44
18	171	64
19	997	46
20	738	859
21	358	421
22	911	91
23	1	427
24	436	295
25	539	766
26	768	646
27	853	267
28	533	668
29	661	321
30	906	118
31	263	20
32	560	112
33	856	165
34	632	944
35	955	666
36	683	589
37	788	465
38	125	942
39	124	986
40	528	729
41	514	713
42	841	28
43	784	331
44	50	99
45	545	889
46	27	645
47	702	39
48	611	255
49	578	310
50	906	41
51	761	312
52	641	550
53	34	262
54	521	515
55	247	786
56	260	235
57	719	446
58	656	810
59	303	642
60	899	579
61	934	717
62	867	889
63	801	636
64	751	806
65	534	585
66	308	483
67	756	461
68	339	624
69	484	542
70	393	495
71	379	920
72	161	119
73	403	537
74	829	638
75	492	27
76	264	630
77	340	194
78	626	857
79	562	874
80	931	512
81	1000	665
82	665	681
83	37	704
84	920	593
85	530	415
86	107	563
87	701	691
88	954	201
89	940	388
90	354	247
91	166	607
92	393	592
93	13	338
94	757	257
95	962	168
96	212	833
97	931	721
98	766	146
99	594	453
100	265	606
101	703	154
DEMAND_SECTION
1	0
2	5
3	9
4	1
5	8
6	8
7	9
8	6
9	1
10	1
11	9
12	8
13	9
14	3
15	5
16	7
17	1
18	8
19	9
20	6
21	5
22	4
23	6
24	9
25	4
26	8
27	7
28	4
29	2
30	6
31	3
32	7
33	9
34	2
35	6
36	8
37	7
38	5
39	4
40	9
41	8
42	5
43	8
44	8
45	5
46	7
47	3
48	8
49	4
50	1
51	8
52	6
53	8
54	1
55	4
56	2
57	1
58	9
59	3
60	5
61	4
62	6
63	4
64	5
65	4
66	4
67	8
68	7
69	5
70	9
71	9
72	2
73	2
74	6
75	1
76	5
77	7
78	4
79	3
80	4
81	1
82	6
83	1
84	3
85	3
86	9
87	9
88	1
89	9
90	8
91	2
92	7
93	7
94	3
95	3
96	2
97	4
98	6
99	6
100	3
101	2
BACKHAUL_SECTION
2	6	13	14	15	16	20	28	46	48	53	64	65	76	79	80	82	83	96	99	-1
DEPOT_SECTION
1
-1
EOF
