NAME : n501-0028
COMMENT : "Generated by pyvrp_manuel (OVRPTW)"
TYPE : OVRPTW
DIMENSION : 501
EDGE_WEIGHT_TYPE : EUC_2D
CAPACITY : 100
VEHICLES : 500
OPEN_ROUTE : YES
SERVICE_TIME : 200
NODE_COORD_SECTION
1	893	249
2	293	811
3	375	734
4	411	619
5	8	510
6	809	170
7	407	604
8	14	263
9	626	291
10	941	541
11	677	780
12	499	29
13	415	218
14	658	689
15	25	489
16	29	100
17	475	241
18	285	526
19	726	153
20	121	540
21	829	362
22	260	970
23	715	688
24	902	843
25	438	299
26	217	60
27	347	549
28	129	20
29	849	211
30	808	31
31	111	242
32	470	476
33	572	298
34	830	570
35	58	487
36	830	757
37	646	480
38	929	628
39	8	434
40	968	131
41	205	61
42	419	647
43	490	311
44	551	26
45	628	715
46	551	260
47	738	278
48	740	148
49	428	70
50	438	707
51	537	775
52	300	744
53	447	644
54	650	729
55	911	341
56	22	923
57	12	744
58	459	270
59	104	847
60	390	647
61	426	908
62	914	523
63	1	565
64	749	727
65	657	22
66	762	348
67	980	809
68	475	754
69	987	513
70	113	477
71	180	758
72	277	34
73	79	227
74	22	159
75	159	890
76	460	309
77	847	249
78	847	723
79	769	139
80	400	206
81	778	833
82	935	368
83	318	423
84	646	81
85	568	638
86	188	310
87	351	106
88	866	116
89	159	911
90	937	488
91	800	28
92	250	451
93	619	509
94	458	383
95	315	165
96	720	16
97	408	489
98	50	908
99	76	748
100	461	468
101	587	404
102	739	30
103	933	890
104	244	442
105	641	531
106	76	991
107	77	819
108	654	69
109	154	391
110	673	654
111	946	140
112	533	24
113	510	146
114	587	963
115	144	865
116	531	862
117	460	63
118	280	667
119	355	262
120	825	144
121	669	837
122	162	627
123	540	481
124	122	241
125	139	742
126	496	881
127	29	16
128	900	838
129	267	740
130	755	99
131	805	782
132	956	779
133	759	588
134	16	656
135	792	801
136	777	400
137	158	797
138	739	258
139	547	184
140	907	191
141	21	575
142	93	680
143	78	823
144	956	703
145	408	958
146	638	543
147	892	156
148	559	544
149	764	416
150	25	56
151	932	874
152	856	195
153	407	747
154	473	484
155	964	694
156	914	448
157	405	990
158	494	467
159	802	966
160	577	893
161	801	861
162	542	728
163	149	73
164	361	551
165	947	60
166	459	473
167	478	512
168	820	97
169	343	678
170	759	321
171	505	971
172	860	311
173	177	162
174	851	294
175	655	741
176	656	885
177	235	334
178	346	682
179	147	258
180	409	400
181	267	690
182	47	555
183	937	197
184	108	354
185	862	85
186	514	561
187	547	350
188	741	42
189	792	50
190	567	376
191	945	399
192	963	430
193	294	156
194	771	113
195	570	688
196	291	618
197	757	711
198	453	81
199	967	735
200	94	31
201	826	665
202	789	681
203	542	333
204	489	984
205	220	639
206	708	576
207	209	293
208	890	781
209	238	590
210	163	878
211	109	35
212	484	849
213	980	911
214	697	839
215	499	998
216	563	527
217	406	916
218	471	110
219	114	747
220	370	854
221	859	446
222	335	860
223	593	204
224	341	790
225	515	754
226	798	660
227	86	971
228	175	583
229	719	377
230	879	662
231	665	656
232	579	208
233	74	487
234	368	318
235	453	182
236	312	321
237	357	472
238	835	322
239	913	573
240	136	321
241	676	628
242	925	222
243	924	675
244	683	826
245	964	641
246	990	996
247	333	165
248	504	428
249	704	541
250	669	767
251	352	638
252	323	18
253	199	848
254	323	291
255	140	253
256	635	191
257	251	433
258	209	603
259	29	809
260	530	407
261	126	350
262	88	426
263	448	419
264	427	740
265	587	374
266	221	14
267	808	404
268	514	975
269	743	110
270	812	118
271	619	408
272	678	823
273	428	735
274	346	429
275	780	185
276	493	16
277	340	991
278	533	419
279	205	813
280	748	680
281	678	442
282	964	574
283	202	933
284	663	102
285	85	140
286	975	342
287	820	826
288	149	754
289	877	602
290	205	151
291	347	399
292	665	823
293	197	804
294	882	978
295	782	409
296	416	670
297	98	452
298	132	248
299	604	460
300	714	435
301	305	674
302	142	663
303	897	145
304	716	301
305	210	985
306	526	232
307	30	70
308	510	200
309	499	647
310	101	414
311	211	98
312	551	164
313	679	884
314	898	134
315	987	434
316	523	222
317	441	427
318	82	328
319	770	251
320	106	296
321	984	8
322	168	539
323	275	665
324	367	700
325	356	879
326	502	95
327	676	322
328	487	277
329	556	363
330	809	188
331	189	781
332	718	881
333	39	368
334	481	30
335	480	811
336	654	192
337	310	952
338	997	747
339	214	404
340	555	334
341	266	369
342	808	180
343	902	109
344	892	384
345	869	390
346	159	903
347	664	739
348	937	580
349	287	772
350	405	379
351	21	9
352	603	615
353	730	12
354	720	619
355	142	149
356	492	865
357	660	392
358	610	450
359	472	50
360	662	988
361	658	607
362	863	787
363	695	459
364	2	584
365	587	838
366	962	292
367	179	507
368	70	262
369	234	369
370	293	264
371	615	777
372	225	968
373	939	423
374	829	317
375	190	743
376	55	965
377	415	672
378	272	528
379	516	934
380	406	143
381	306	977
382	61	292
383	626	383
384	277	854
385	845	751
386	881	906
387	438	552
388	342	395
389	678	607
390	391	767
391	255	766
392	715	632
393	696	0
394	752	710
395	547	60
396	633	7
397	289	136
398	179	438
399	958	699
400	879	495
401	218	657
402	985	871
403	606	977
404	615	652
405	229	819
406	973	326
407	440	207
408	294	463
409	415	28
410	855	617
411	51	820
412	142	564
413	473	725
414	271	945
415	426	387
416	822	913
417	375	493
418	544	724
419	878	416
420	99	510
421	637	413
422	850	654
423	525	904
424	330	3
425	999	894
426	877	350
427	327	975
428	92	742
429	928	906
430	950	160
431	375	669
432	666	706
433	827	369
434	571	410
435	466	92
436	850	817
437	553	74
438	539	606
439	892	537
440	925	654
441	797	701
442	658	813
443	585	921
444	523	325
445	857	552
446	168	339
447	675	329
448	16	553
449	316	856
450	14	173
451	516	362
452	642	668
453	741	614
454	60	376
455	963	709
456	373	793
457	323	623
458	456	457
459	783	988
460	93	934
461	517	196
462	538	222
463	368	725
464	7	547
465	941	995
466	642	265
467	174	783
468	34	893
469	980	830
470	217	976
471	15	450
472	713	874
473	195	248
474	243	823
475	831	534
476	832	252
477	913	672
478	555	115
479	537	865
480	665	443
481	534	886
482	243	635
483	240	590
484	795	883
485	867	112
486	720	630
487	718	259
488	449	0
489	754	332
490	949	941
491	929	774
492	682	409
493	40	589
494	908	955
495	178	449
496	218	146
497	231	544
498	95	349
499	326	530
500	945	580
501	412	967
DEMAND_SECTION
1	0
2	9
3	6
4	1
5	7
6	2
7	8
8	3
9	8
10	6
11	9
12	8
13	5
14	9
15	2
16	1
17	5
18	1
19	1
20	1
21	9
22	1
23	7
24	5
25	4
26	6
27	6
28	9
29	2
30	9
31	7
32	2
33	3
34	7
35	5
36	2
37	9
38	9
39	7
40	9
41	7
42	4
43	2
44	9
45	8
46	1
47	4
48	9
49	5
50	2
51	8
52	3
53	9
54	3
55	5
56	9
57	6
58	9
59	8
60	6
61	8
62	2
63	4
64	2
65	1
66	7
67	4
68	3
69	1
70	4
71	6
72	9
73	2
74	8
75	5
76	5
77	7
78	2
79	7
80	7
81	9
82	1
83	4
84	6
85	8
86	2
87	8
88	5
89	8
90	4
91	6
92	7
93	2
94	2
95	8
96	6
97	4
98	8
99	4
100	6
101	5
102	3
103	7
104	3
105	5
106	7
107	1
108	4
109	1
110	6
111	1
112	9
113	6
114	8
115	9
116	7
117	4
118	8
119	3
120	2
121	6
122	5
123	9
124	3
125	3
126	1
127	4
128	2
129	4
130	6
131	2
132	5
133	3
134	3
135	5
136	2
137	1
138	8
139	9
140	6
141	4
142	1
143	3
144	1
145	5
146	7
147	1
148	3
149	4
150	1
151	5
152	6
153	8
154	4
155	2
156	1
157	2
158	6
159	8
160	1
161	6
162	1
163	6
164	3
165	7
166	6
167	7
168	2
169	4
170	1
171	8
172	2
173	4
174	8
175	4
176	7
177	2
178	3
179	5
180	9
181	1
182	3
183	8
184	3
185	7
186	1
187	5
188	3
189	8
190	6
191	8
192	7
193	2
194	5
195	6
196	2
197	8
198	6
199	8
200	8
201	6
202	3
203	8
204	8
205	5
206	4
207	9
208	1
209	6
210	2
211	6
212	5
213	5
214	6
215	2
216	9
217	4
218	7
219	2
220	8
221	8
222	9
223	7
224	1
225	5
226	6
227	2
228	4
229	4
230	8
231	9
232	2
233	6
234	9
235	5
236	4
237	3
238	6
239	8
240	1
241	1
242	4
243	8
244	8
245	4
246	8
247	8
248	3
249	7
250	1
251	1
252	6
253	5
254	9
255	9
256	7
257	9
258	9
259	2
260	5
261	5
262	4
263	9
264	6
265	2
266	5
267	2
268	2
269	8
270	3
271	2
272	4
273	7
274	4
275	5
276	9
277	4
278	3
279	1
280	9
281	6
282	3
283	5
284	2
285	6
286	5
287	7
288	2
289	1
290	5
291	9
292	8
293	1
294	8
295	8
296	1
297	6
298	2
299	6
300	6
301	7
302	5
303	4
304	1
305	9
306	8
307	6
308	9
309	9
310	4
311	1
312	2
313	5
314	1
315	1
316	5
317	5
318	1
319	4
320	7
321	2
322	6
323	3
324	1
325	2
326	4
327	5
328	4
329	7
330	9
331	3
332	1
333	1
334	3
335	7
336	2
337	9
338	9
339	5
340	9
341	6
342	9
343	9
344	6
345	3
346	5
347	9
348	6
349	1
350	8
351	9
352	5
353	8
354	1
355	2
356	9
357	5
358	4
359	9
360	9
361	8
362	9
363	4
364	1
365	5
366	6
367	9
368	5
369	6
370	5
371	2
372	9
373	1
374	8
375	6
376	8
377	2
378	8
379	6
380	5
381	2
382	2
383	6
384	2
385	6
386	4
387	3
388	7
389	1
390	3
391	1
392	6
393	2
394	3
395	1
396	5
397	6
398	5
399	2
400	8
401	8
402	3
403	1
404	3
405	3
406	5
407	1
408	9
409	8
410	4
411	6
412	5
413	6
414	7
415	2
416	7
417	9
418	1
419	1
420	1
421	4
422	9
423	2
424	8
425	6
426	5
427	9
428	2
429	5
430	4
431	3
432	2
433	1
434	1
435	7
436	1
437	4
438	1
439	3
440	9
441	4
442	1
443	6
444	9
445	3
446	7
447	6
448	6
449	2
450	9
451	6
452	1
453	7
454	7
455	1
456	3
457	8
458	2
459	8
460	7
461	3
462	1
463	1
464	6
465	2
466	5
467	2
468	8
469	4
470	6
471	9
472	1
473	5
474	6
475	1
476	7
477	1
478	3
479	7
480	8
481	2
482	8
483	3
484	4
485	5
486	3
487	8
488	2
489	7
490	7
491	8
492	8
493	8
494	5
495	4
496	5
497	9
498	2
499	1
500	3
501	1
TIME_WINDOW_SECTION
1	0	3000
2	1266	2508
3	1068	2003
4	974	1632
5	1183	2244
6	0	793
7	460	1543
8	368	1521
9	1646	2117
10	827	2559
11	1107	2334
12	912	2827
13	1632	2324
14	234	1882
15	807	2477
16	456	1396
17	28	1071
18	1314	1889
19	549	2480
20	307	2161
21	769	2163
22	759	1363
23	193	1011
24	1613	1962
25	159	849
26	1650	1875
27	1253	2171
28	1159	2326
29	415	1351
30	1828	2818
31	183	1568
32	1327	1601
33	1867	2892
34	469	838
35	1032	1904
36	975	1290
37	906	1740
38	991	1931
39	220	1823
40	1680	2001
41	1430	2700
42	492	2060
43	1344	3000
44	0	1622
45	23	1871
46	75	1228
47	0	1223
48	431	975
49	1098	2940
50	852	2133
51	1367	2239
52	1278	1832
53	252	1561
54	391	941
55	1895	3000
56	945	1404
57	949	2098
58	903	2213
59	291	1855
60	1264	2154
61	1293	1640
62	800	1956
63	586	2582
64	1200	2646
65	0	1361
66	2249	2655
67	1324	1586
68	824	1629
69	1814	3000
70	1390	2448
71	371	1761
72	1557	2441
73	1379	2027
74	616	2296
75	1250	2328
76	1200	1932
77	1643	2031
78	1392	2143
79	2103	2965
80	2069	2350
81	0	1499
82	300	1400
83	280	1816
84	164	501
85	451	1275
86	1459	2038
87	511	2227
88	514	1563
89	694	1589
90	1126	2217
91	1217	3000
92	1428	2613
93	61	1548
94	156	1253
95	1240	2748
96	1658	2456
97	1378	2727
98	1304	2069
99	1120	1668
100	493	1869
101	494	1411
102	1884	2159
103	808	2098
104	730	1094
105	664	2561
106	794	2502
107	1308	1943
108	623	1675
109	961	2362
110	1020	2609
111	227	1078
112	197	1409
113	1464	2191
114	135	1506
115	1004	1688
116	659	2095
117	0	1154
118	408	1668
119	293	1439
120	0	1901
121	1425	2000
122	916	2816
123	1976	2638
124	990	2311
125	1496	2112
126	1055	2075
127	956	2185
128	385	2366
129	352	1847
130	654	2314
131	1742	2366
132	677	1671
133	818	1706
134	610	1439
135	0	1566
136	876	2342
137	742	1490
138	849	2077
139	970	2432
140	242	1328
141	1105	1763
142	259	1694
143	1179	1496
144	1220	2779
145	390	1498
146	0	1852
147	183	1771
148	1306	3000
149	892	2664
150	1034	2273
151	1427	1877
152	131	693
153	1674	2231
154	893	1528
155	89	1196
156	1986	3000
157	1210	2450
158	701	2249
159	611	2503
160	393	1763
161	0	1729
162	1293	2626
163	788	1559
164	0	1686
165	598	2583
166	0	1286
167	616	979
168	0	832
169	266	1860
170	38	516
171	1011	1910
172	1479	3000
173	1663	2236
174	589	1086
175	1446	1667
176	283	1565
177	1049	2459
178	1170	1415
179	1796	2267
180	1376	1923
181	1162	1898
182	957	2070
183	0	1379
184	389	1870
185	253	1021
186	0	1637
187	1492	2810
188	1948	2955
189	0	1238
190	195	599
191	1204	2523
192	48	948
193	1167	2458
194	1906	2266
195	840	1734
196	855	1218
197	1304	1511
198	0	1394
199	1498	2350
200	1061	2854
201	899	1486
202	332	2086
203	474	1111
204	506	1606
205	1613	1914
206	363	976
207	991	2561
208	0	1507
209	1639	2212
210	234	1921
211	595	2485
212	1592	2084
213	429	1136
214	1140	2709
215	738	1487
216	180	845
217	1421	1883
218	1091	2182
219	1595	1946
220	1539	2211
221	275	1438
222	1272	2145
223	1158	2990
224	1729	2105
225	422	1927
226	629	1588
227	303	1876
228	720	957
229	568	1272
230	901	2066
231	1339	1721
232	0	1078
233	1013	2094
234	336	1121
235	553	1968
236	308	1053
237	921	1699
238	0	1868
239	465	2149
240	365	1992
241	1833	2816
242	656	1192
243	858	2158
244	1538	2388
245	1548	2246
246	1600	1848
247	490	1658
248	1068	2615
249	979	1984
250	292	1848
251	1450	2461
252	882	1204
253	559	1476
254	967	1506
255	482	1988
256	914	1582
257	800	1536
258	1171	2744
259	1306	2151
260	0	1227
261	1380	2477
262	202	1841
263	0	1222
264	861	2089
265	942	2078
266	1155	2885
267	1946	2462
268	1495	1926
269	0	1289
270	1586	2860
271	0	836
272	15	1275
273	1010	1706
274	1818	2264
275	228	1197
276	1610	2572
277	905	1525
278	1659	2093
279	773	1249
280	2076	2426
281	85	1607
282	1027	2181
283	817	2359
284	1436	2070
285	1019	1562
286	308	1706
287	728	1548
288	638	2092
289	1526	2144
290	1715	2055
291	1429	2414
292	598	1259
293	473	1765
294	879	2514
295	135	1730
296	285	1318
297	1512	2013
298	721	1521
299	1462	2411
300	1474	3000
301	1225	1873
302	1608	1906
303	586	2476
304	1569	1886
305	1512	2022
306	120	1333
307	221	1831
308	1421	1917
309	67	1679
310	1030	2192
311	551	1197
312	1306	2833
313	1369	2721
314	1445	3000
315	1281	1589
316	0	1188
317	0	1471
318	1431	2058
319	189	1270
320	1728	2147
321	626	2302
322	1746	2049
323	1591	2051
324	1138	1732
325	1030	1500
326	884	1096
327	532	945
328	1471	2237
329	535	897
330	1420	1631
331	356	2104
332	996	2369
333	1582	1926
334	1317	3000
335	205	1403
336	0	1414
337	996	1456
338	318	1025
339	1000	2446
340	0	990
341	516	2247
342	0	1289
343	1504	2579
344	0	629
345	893	1639
346	1146	2169
347	1058	1258
348	1280	2938
349	0	1748
350	1881	2611
351	607	2317
352	91	1747
353	496	1456
354	0	1595
355	1213	2157
356	368	1387
357	0	1020
358	1525	3000
359	1611	2876
360	687	2588
361	0	1136
362	888	1481
363	312	1598
364	917	1166
365	363	2020
366	0	504
367	1300	2348
368	530	2337
369	1050	1402
370	1889	2283
371	839	2494
372	1562	2041
373	695	2412
374	108	1969
375	1328	1885
376	1252	1700
377	244	1424
378	1264	2924
379	497	1915
380	1441	2593
381	802	2657
382	560	2033
383	621	924
384	1474	2042
385	1722	1934
386	1057	1699
387	1654	2659
388	1152	2317
389	1465	2363
390	1174	1878
391	978	2689
392	218	1162
393	570	1617
394	1002	1720
395	2151	2506
396	1611	1898
397	426	1113
398	1648	2328
399	444	1897
400	1871	2669
401	719	2616
402	0	1760
403	1023	2838
404	0	1063
405	562	1808
406	796	2606
407	1440	2672
408	199	1524
409	1658	1872
410	1237	2159
411	1253	1497
412	1274	1894
413	1052	2382
414	1446	1708
415	116	886
416	1370	2693
417	1719	2168
418	502	1115
419	1608	2780
420	685	2082
421	594	1227
422	711	2586
423	1603	1883
424	553	1697
425	637	1704
426	1283	2094
427	307	2274
428	931	2407
429	1351	1943
430	826	2098
431	1198	1579
432	1542	2338
433	1285	1982
434	1352	2040
435	1208	2064
436	1134	2439
437	689	1039
438	1546	2196
439	1033	2001
440	611	2167
441	2171	2433
442	892	2028
443	307	2042
444	1044	1712
445	1672	2449
446	0	1668
447	1609	2668
448	208	1658
449	244	2136
450	278	1811
451	0	1338
452	2068	2520
453	955	1813
454	872	2715
455	1040	2747
456	1129	1848
457	536	1582
458	859	1356
459	1195	2022
460	1220	1982
461	438	1667
462	638	998
463	403	1467
464	871	1944
465	328	1641
466	709	1209
467	1397	2362
468	675	1870
469	564	2490
470	768	2748
471	427	2119
472	311	1141
473	900	1999
474	1357	2421
475	340	584
476	1113	2419
477	182	2035
478	930	1419
479	1871	2207
480	587	2141
481	1508	2435
482	316	1322
483	192	1971
484	1654	2105
485	211	986
486	0	1023
487	188	2085
488	205	827
489	529	845
490	36	1358
491	1240	2491
492	1108	2748
493	1262	2344
494	1152	2542
495	654	2638
496	1283	2817
497	734	1153
498	501	1491
499	1126	1841
500	1641	2345
501	586	2143
DEPOT_SECTION
1
-1
EOF
