NAME : n501-0016
COMMENT : "Generated by pyvrp_manuel (OVRPTW)"
TYPE : OVRPTW
DIMENSION : 501
EDGE_WEIGHT_TYPE : EUC_2D
CAPACITY : 100
VEHICLES : 500
OPEN_ROUTE : YES
SERVICE_TIME : 200
NODE_COORD_SECTION
1	512	270
2	337	591
3	856	1
4	448	626
5	748	320
6	613	35
7	637	168
8	118	951
9	198	967
10	160	630
11	834	325
12	324	31
13	851	421
14	857	203
15	528	467
16	850	923
17	205	713
18	377	614
19	676	298
20	258	814
21	520	488
22	21	608
23	340	699
24	136	514
25	437	901
26	828	884
27	891	337
28	503	585
29	219	631
30	882	961
31	510	996
32	503	426
33	687	513
34	508	330
35	649	478
36	811	832
37	715	588
38	784	938
39	427	999
40	437	548
41	307	727
42	910	387
43	240	750
44	852	667
45	63	46
46	434	818
47	5	266
48	301	703
49	13	244
50	687	132
51	129	841
52	406	238
53	496	657
54	26	701
55	1000	48
56	674	849
57	235	638
58	464	791
59	762	209
60	681	701
61	683	997
62	737	857
63	783	510
64	337	633
65	172	661
66	339	952
67	527	55
68	467	213
69	192	93
70	365	256
71	378	588
72	904	681
73	162	929
74	999	755
75	477	737
76	935	448
77	364	567
78	47	170
79	880	786
80	291	653
81	443	904
82	723	132
83	866	2
84	176	106
85	265	119
86	85	813
87	739	929
88	226	153
89	47	475
90	823	382
91	572	322
92	692	28
93	152	430
94	816	490
95	128	275
96	780	720
97	491	9
98	360	643
99	441	564
100	450	810
101	932	521
102	56	717
103	440	142
104	566	903
105	961	84
106	715	162
107	724	717
108	174	540
109	799	898
110	193	262
111	821	631
112	974	988
113	416	310
114	798	356
115	476	503
116	341	822
117	148	70
118	43	412
119	547	477
120	652	417
121	888	626
122	797	679
123	850	967
124	144	320
125	448	665
126	208	570
127	687	845
128	862	840
129	138	929
130	746	895
131	201	497
132	669	214
133	779	399
134	717	274
135	12	426
136	123	29
137	291	981
138	302	742
139	261	607
140	743	508
141	483	133
142	682	520
143	98	452
144	215	637
145	265	593
146	202	318
147	28	380
148	685	648
149	211	598
150	442	793
151	523	839
152	923	422
153	264	436
154	614	434
155	41	8
156	223	737
157	579	306
158	683	674
159	542	562
160	269	599
161	723	998
162	334	161
163	418	740
164	500	684
165	379	49
166	907	500
167	999	514
168	350	410
169	77	635
170	506	691
171	423	371
172	497	269
173	812	619
174	304	810
175	743	175
176	275	542
177	901	784
178	730	12
179	595	57
180	103	351
181	478	624
182	678	208
183	109	729
184	539	224
185	524	67
186	44	911
187	648	910
188	207	654
189	452	855
190	598	777
191	458	189
192	15	654
193	102	781
194	293	513
195	853	443
196	236	687
197	941	385
198	930	620
199	566	588
200	322	990
201	198	940
202	705	276
203	630	685
204	4	951
205	372	632
206	191	66
207	630	66
208	361	520
209	669	45
210	304	57
211	157	129
212	705	501
213	886	865
214	408	555
215	850	146
216	339	13
217	267	971
218	712	848
219	501	345
220	827	791
221	54	544
222	833	102
223	794	315
224	948	518
225	929	560
226	842	27
227	187	986
228	664	879
229	238	713
230	462	504
231	392	169
232	139	615
233	826	997
234	690	279
235	920	777
236	898	953
237	745	953
238	977	536
239	603	461
240	305	273
241	584	601
242	274	348
243	953	796
244	807	409
245	550	86
246	499	729
247	464	662
248	300	885
249	314	860
250	62	790
251	798	452
252	5	514
253	829	671
254	745	578
255	92	221
256	871	422
257	939	567
258	995	564
259	993	71
260	798	395
261	465	265
262	70	226
263	701	328
264	62	38
265	157	612
266	310	927
267	285	287
268	478	310
269	638	424
270	829	971
271	674	969
272	780	573
273	489	573
274	499	696
275	409	941
276	82	361
277	264	194
278	598	549
279	90	971
280	871	320
281	444	649
282	32	193
283	792	979
284	694	415
285	150	47
286	323	779
287	116	600
288	910	658
289	20	515
290	583	632
291	253	471
292	582	131
293	817	451
294	698	30
295	831	145
296	556	351
297	648	567
298	306	678
299	133	463
300	72	206
301	676	745
302	907	726
303	19	240
304	617	155
305	988	899
306	701	679
307	420	983
308	351	839
309	593	693
310	70	715
311	851	533
312	84	425
313	478	498
314	114	958
315	240	300
316	938	503
317	760	242
318	536	254
319	818	103
320	936	925
321	990	628
322	45	345
323	57	564
324	674	968
325	131	761
326	298	903
327	916	607
328	243	615
329	129	807
330	826	708
331	883	608
332	949	102
333	309	892
334	472	642
335	165	270
336	453	921
337	59	308
338	261	450
339	171	794
340	178	557
341	327	785
342	477	240
343	736	443
344	64	173
345	679	612
346	195	231
347	628	349
348	505	972
349	294	62
350	720	661
351	576	99
352	504	386
353	193	869
354	155	635
355	389	832
356	184	468
357	837	786
358	437	621
359	340	43
360	497	611
361	917	99
362	160	994
363	516	322
364	505	640
365	551	204
366	574	118
367	895	990
368	561	637
369	570	615
370	22	930
371	658	287
372	178	246
373	260	715
374	144	947
375	961	378
376	204	282
377	850	166
378	673	206
379	849	499
380	75	765
381	741	961
382	713	553
383	283	157
384	801	829
385	911	989
386	453	345
387	914	292
388	440	232
389	646	121
390	360	263
391	632	764
392	769	197
393	221	375
394	906	984
395	1000	664
396	658	89
397	515	829
398	8	60
399	90	130
400	286	224
401	233	85
402	102	328
403	689	506
404	883	57
405	59	186
406	139	776
407	326	966
408	785	856
409	161	319
410	504	182
411	308	367
412	300	126
413	404	231
414	418	907
415	422	773
416	596	320
417	250	982
418	22	849
419	182	940
420	426	618
421	516	74
422	863	190
423	577	942
424	349	773
425	339	110
426	525	862
427	159	938
428	852	149
429	768	643
430	579	269
431	747	559
432	705	800
433	885	873
434	383	482
435	712	600
436	751	774
437	599	871
438	431	329
439	213	727
440	421	829
441	364	56
442	948	945
443	202	368
444	724	948
445	574	287
446	742	972
447	62	364
448	772	67
449	38	525
450	423	568
451	581	857
452	350	860
453	10	496
454	400	129
455	10	483
456	559	763
457	597	105
458	204	480
459	305	473
460	572	18
461	482	915
462	587	372
463	933	35
464	59	267
465	715	743
466	565	388
467	4	486
468	626	406
469	275	857
470	745	921
471	753	682
472	474	457
473	914	674
474	453	269
475	980	286
476	146	925
477	680	477
478	918	899
479	988	278
480	239	412
481	811	458
482	620	303
483	107	349
484	866	436
485	690	725
486	608	626
487	81	879
488	937	452
489	891	110
490	649	410
491	110	578
492	928	795
493	866	409
494	277	206
495	12	370
496	417	700
497	897	561
498	865	365
499	212	366
500	42	738
501	520	429
DEMAND_SECTION
1	0
2	2
3	4
4	6
5	7
6	1
7	6
8	2
9	8
10	3
11	3
12	2
13	4
14	8
15	9
16	7
17	8
18	4
19	7
20	3
21	8
22	5
23	1
24	9
25	7
26	6
27	3
28	7
29	9
30	9
31	2
32	4
33	8
34	1
35	1
36	4
37	5
38	4
39	6
40	6
41	8
42	3
43	2
44	1
45	2
46	6
47	2
48	7
49	7
50	4
51	8
52	1
53	5
54	7
55	4
56	2
57	6
58	3
59	3
60	1
61	3
62	3
63	5
64	3
65	4
66	6
67	6
68	4
69	9
70	8
71	2
72	8
73	5
74	4
75	3
76	9
77	5
78	6
79	8
80	3
81	4
82	2
83	4
84	1
85	9
86	9
87	2
88	7
89	4
90	5
91	6
92	2
93	3
94	5
95	9
96	2
97	1
98	9
99	5
100	5
101	4
102	8
103	5
104	4
105	7
106	5
107	7
108	8
109	9
110	1
111	3
112	4
113	2
114	4
115	2
116	4
117	7
118	9
119	4
120	5
121	7
122	9
123	6
124	9
125	5
126	9
127	4
128	9
129	3
130	7
131	8
132	6
133	7
134	3
135	9
136	3
137	4
138	5
139	7
140	1
141	2
142	3
143	1
144	8
145	8
146	4
147	3
148	6
149	4
150	8
151	6
152	7
153	7
154	9
155	3
156	3
157	4
158	2
159	5
160	4
161	4
162	4
163	5
164	9
165	2
166	5
167	8
168	3
169	7
170	1
171	6
172	8
173	4
174	5
175	6
176	5
177	2
178	2
179	8
180	7
181	3
182	6
183	8
184	3
185	5
186	6
187	2
188	6
189	3
190	3
191	1
192	1
193	8
194	5
195	7
196	3
197	5
198	7
199	4
200	6
201	1
202	8
203	1
204	1
205	7
206	8
207	6
208	2
209	9
210	6
211	8
212	6
213	5
214	8
215	7
216	8
217	6
218	8
219	9
220	4
221	2
222	4
223	6
224	8
225	9
226	4
227	2
228	7
229	4
230	4
231	8
232	2
233	5
234	7
235	8
236	3
237	3
238	4
239	5
240	9
241	8
242	4
243	3
244	4
245	9
246	1
247	5
248	3
249	4
250	7
251	1
252	1
253	4
254	7
255	8
256	4
257	8
258	4
259	2
260	7
261	9
262	1
263	5
264	3
265	9
266	3
267	1
268	6
269	6
270	6
271	4
272	9
273	9
274	3
275	8
276	2
277	4
278	5
279	1
280	3
281	8
282	8
283	6
284	7
285	2
286	9
287	8
288	1
289	5
290	7
291	8
292	9
293	9
294	8
295	2
296	7
297	8
298	7
299	1
300	5
301	4
302	2
303	6
304	5
305	6
306	9
307	2
308	6
309	2
310	7
311	6
312	7
313	2
314	5
315	4
316	7
317	1
318	6
319	3
320	2
321	1
322	9
323	9
324	6
325	6
326	8
327	2
328	9
329	6
330	5
331	9
332	7
333	8
334	3
335	5
336	5
337	9
338	3
339	9
340	1
341	5
342	4
343	5
344	5
345	4
346	5
347	1
348	7
349	9
350	5
351	6
352	1
353	9
354	7
355	9
356	9
357	8
358	5
359	8
360	5
361	3
362	5
363	8
364	4
365	4
366	7
367	6
368	1
369	1
370	9
371	3
372	7
373	1
374	8
375	5
376	2
377	4
378	1
379	1
380	6
381	7
382	9
383	6
384	5
385	4
386	3
387	7
388	1
389	8
390	3
391	6
392	6
393	7
394	1
395	1
396	4
397	8
398	4
399	4
400	4
401	3
402	4
403	7
404	2
405	5
406	5
407	6
408	8
409	1
410	8
411	8
412	7
413	8
414	4
415	6
416	9
417	8
418	9
419	6
420	1
421	1
422	5
423	9
424	1
425	4
426	3
427	7
428	3
429	9
430	4
431	5
432	9
433	2
434	4
435	5
436	6
437	1
438	2
439	4
440	8
441	1
442	7
443	2
444	6
445	8
446	9
447	1
448	8
449	9
450	2
451	9
452	8
453	5
454	4
455	4
456	8
457	9
458	3
459	7
460	3
461	3
462	8
463	1
464	2
465	3
466	5
467	1
468	3
469	6
470	3
471	4
472	3
473	4
474	7
475	7
476	1
477	4
478	5
479	2
480	5
481	6
482	2
483	4
484	8
485	7
486	5
487	4
488	6
489	3
490	1
491	7
492	7
493	3
494	9
495	6
496	7
497	5
498	4
499	6
500	4
501	1
TIME_WINDOW_SECTION
1	0	3000
2	282	1437
3	1412	3000
4	1508	2818
5	1878	3000
6	1885	2662
7	0	1056
8	1037	1471
9	328	1601
10	745	1465
11	1575	1815
12	0	1433
13	1653	2869
14	959	1328
15	2062	3000
16	939	2044
17	1227	2580
18	1498	2809
19	0	1411
20	1162	3000
21	1153	2728
22	1724	2417
23	1173	2390
24	1260	1998
25	204	1667
26	856	2191
27	533	853
28	724	1285
29	404	1145
30	780	2238
31	1307	1843
32	1948	2354
33	629	1055
34	0	1235
35	1586	3000
36	1266	2254
37	1689	2203
38	1175	2003
39	1039	1489
40	1458	3000
41	1727	2660
42	1913	2238
43	147	1705
44	588	1060
45	172	969
46	1811	2563
47	1826	2379
48	0	1455
49	0	1968
50	149	1969
51	1529	2014
52	844	1789
53	34	868
54	742	2666
55	1523	2951
56	1363	3000
57	739	961
58	1005	2735
59	1663	2617
60	1763	2528
61	1189	2787
62	301	2244
63	1292	2584
64	165	1316
65	1621	2016
66	464	1315
67	20	412
68	836	2225
69	696	1523
70	132	1192
71	459	825
72	1430	2202
73	0	1664
74	187	1257
75	2093	2467
76	0	1335
77	771	2065
78	418	699
79	1556	2597
80	1356	2435
81	1303	2698
82	1219	1433
83	1292	2043
84	0	958
85	961	2429
86	1465	1877
87	1141	2801
88	0	1172
89	989	2904
90	496	1423
91	280	486
92	0	1267
93	699	2464
94	44	1454
95	681	1313
96	1156	1361
97	0	1273
98	782	1155
99	590	1793
100	1523	2316
101	11	1947
102	40	1304
103	708	1967
104	226	2117
105	1219	2026
106	2065	2972
107	1033	1995
108	528	1278
109	1953	2236
110	302	1852
111	761	2091
112	687	2073
113	0	1197
114	1033	2568
115	723	2330
116	210	1219
117	36	892
118	496	1708
119	35	455
120	1517	2285
121	1144	2823
122	1069	2901
123	4	1883
124	1004	2936
125	1212	2236
126	1097	2837
127	1249	2372
128	1427	2798
129	862	2581
130	884	1321
131	1861	2693
132	1497	2003
133	0	788
134	0	1269
135	1096	1631
136	906	2286
137	1211	2801
138	1251	2120
139	1256	2750
140	549	1605
141	2209	2499
142	1639	2457
143	1063	1572
144	544	1821
145	1098	1653
146	1515	2642
147	913	2889
148	430	2338
149	1047	1354
150	418	2125
151	339	1185
152	900	2546
153	199	929
154	667	2615
155	764	2250
156	0	1314
157	2267	3000
158	0	1653
159	18	1988
160	601	1575
161	955	1655
162	324	745
163	1043	1785
164	721	923
165	399	1307
166	2033	2535
167	1337	2476
168	381	1218
169	1674	2547
170	1572	2003
171	0	998
172	1175	2241
173	830	2787
174	1034	1494
175	1446	2076
176	691	945
177	739	2512
178	1620	2203
179	416	1848
180	1047	2075
181	892	2208
182	0	595
183	844	2825
184	0	1459
185	1757	3000
186	816	1761
187	178	1961
188	1657	1863
189	851	2564
190	293	1111
191	1900	2210
192	1248	1914
193	840	1779
194	1665	2934
195	1230	1996
196	1367	2683
197	1140	2325
198	1665	1979
199	1236	2835
200	1336	1737
201	1873	2190
202	0	917
203	440	1680
204	102	1894
205	1133	1791
206	1366	2670
207	1689	3000
208	1400	2667
209	213	1934
210	1527	1985
211	918	2761
212	0	1155
213	1026	2610
214	61	1662
215	202	640
216	729	1889
217	796	1342
218	1687	2128
219	1073	1602
220	1151	1715
221	1480	2971
222	1089	2488
223	295	1763
224	835	2748
225	849	1743
226	753	1841
227	509	2289
228	37	1697
229	368	1603
230	656	1120
231	1612	2258
232	847	1904
233	1015	1325
234	1610	2282
235	334	1478
236	1070	2694
237	43	1613
238	675	2153
239	1320	1811
240	1594	3000
241	1386	2316
242	638	1903
243	1674	1961
244	717	1686
245	2019	2757
246	1660	2943
247	1440	2738
248	657	1381
249	1271	3000
250	77	2016
251	1439	3000
252	1141	2553
253	1085	1730
254	722	2067
255	1514	2978
256	1965	2358
257	879	1269
258	1109	2264
259	563	1906
260	1568	3000
261	280	1694
262	1248	1775
263	1754	2064
264	366	2366
265	275	2018
266	880	1433
267	858	1230
268	1080	1838
269	1368	2556
270	1301	2399
271	1189	2859
272	660	1011
273	613	922
274	1353	1877
275	851	2793
276	1728	2028
277	335	763
278	1360	2830
279	927	2708
280	1463	3000
281	1519	1898
282	1275	1671
283	1291	2400
284	802	2345
285	1286	2759
286	1547	2376
287	1397	2111
288	1171	2360
289	1747	2202
290	861	1562
291	1664	2065
292	1293	3000
293	1312	2122
294	508	2047
295	2205	2481
296	353	1089
297	779	2423
298	900	1315
299	758	1804
300	1812	2054
301	643	1924
302	976	1349
303	156	2053
304	20	1129
305	1805	2102
306	1339	2767
307	1289	1815
308	1011	1870
309	1364	2546
310	992	2839
311	135	1414
312	323	1071
313	1607	3000
314	247	2220
315	1448	2576
316	1859	2243
317	1708	3000
318	1641	2597
319	121	1223
320	878	2711
321	54	1247
322	0	1476
323	583	1325
324	1245	1813
325	474	1342
326	192	1311
327	1097	2029
328	1209	2075
329	421	1049
330	837	1704
331	90	1622
332	210	2120
333	1090	3000
334	1469	2863
335	537	1134
336	516	1725
337	1511	1981
338	1228	1518
339	1012	1986
340	234	1707
341	1471	2680
342	575	1726
343	13	765
344	1579	2713
345	0	1240
346	1528	2543
347	749	2558
348	531	2296
349	1237	2841
350	431	1368
351	6	1128
352	1029	1240
353	1335	2682
354	836	2619
355	1127	2077
356	1439	2703
357	870	1269
358	603	1703
359	416	1437
360	1212	1798
361	438	1040
362	1635	2153
363	1632	3000
364	1447	3000
365	1004	1814
366	1644	2442
367	254	1678
368	85	1919
369	251	1118
370	971	1304
371	0	1593
372	525	1729
373	615	1561
374	659	2035
375	0	1554
376	2353	2567
377	380	1144
378	276	1838
379	754	2007
380	1290	2846
381	178	2096
382	0	1293
383	1558	3000
384	1491	1703
385	1593	2207
386	319	2290
387	1580	2972
388	0	616
389	1009	1285
390	1785	2009
391	492	1595
392	0	1204
393	1928	2277
394	1404	1681
395	913	1490
396	138	1450
397	745	1153
398	1377	2882
399	1083	2272
400	498	1215
401	927	1924
402	1905	2271
403	647	1060
404	153	1438
405	635	966
406	165	2053
407	502	1677
408	1487	2247
409	0	1400
410	0	1586
411	1480	1694
412	1321	2492
413	2246	3000
414	745	1504
415	797	2510
416	834	2107
417	395	1362
418	838	2709
419	497	1433
420	1042	2989
421	0	705
422	1647	2535
423	1012	3000
424	471	2149
425	1412	3000
426	800	1838
427	256	2097
428	1447	3000
429	1679	1994
430	770	2565
431	1734	2728
432	615	2225
433	489	951
434	1134	1589
435	1191	1675
436	577	1879
437	1137	1406
438	0	1622
439	1154	3000
440	316	2132
441	9	1938
442	974	2619
443	2122	2322
444	627	1570
445	1349	1709
446	851	1175
447	1431	2462
448	780	1537
449	0	1543
450	943	2125
451	1155	1429
452	285	1117
453	616	1397
454	1291	2813
455	1027	1866
456	1572	2572
457	1033	1923
458	0	1004
459	1852	2471
460	0	1057
461	766	1536
462	657	1409
463	728	2563
464	1064	1392
465	689	1650
466	941	2069
467	569	1910
468	1829	2506
469	1146	2457
470	840	1363
471	303	2178
472	244	1875
473	555	956
474	540	1915
475	414	1116
476	1736	2106
477	381	671
478	803	1006
479	517	856
480	0	1355
481	1248	1882
482	500	2494
483	1574	3000
484	1417	2836
485	676	1109
486	1166	2093
487	1099	2512
488	214	1682
489	2011	2743
490	602	1005
491	522	1082
492	338	1934
493	631	1076
494	602	1881
495	0	1526
496	1985	2665
497	681	2484
498	977	2552
499	677	1253
500	762	2222
501	1030	1379
DEPOT_SECTION
1
-1
EOF
