NAME : n501-0006
COMMENT : "Generated by pyvrp_manuel (OVRPTW)"
TYPE : OVRPTW
DIMENSION : 501
EDGE_WEIGHT_TYPE : EUC_2D
CAPACITY : 100
VEHICLES : 500
OPEN_ROUTE : YES
SERVICE_TIME : 200
NODE_COORD_SECTION
1	818	771
2	476	960
3	11	400
4	12	371
5	254	480
6	108	908
7	973	147
8	857	48
9	635	351
10	395	413
11	197	896
12	939	449
13	19	818
14	116	694
15	811	795
16	158	183
17	188	330
18	563	355
19	164	927
20	126	906
21	783	167
22	536	507
23	797	977
24	180	895
25	907	658
26	670	914
27	598	764
28	582	227
29	324	781
30	313	370
31	332	885
32	965	3
33	537	420
34	108	566
35	243	84
36	927	679
37	648	412
38	240	672
39	880	717
40	690	3
41	251	774
42	33	239
43	9	378
44	532	40
45	881	583
46	64	672
47	892	495
48	185	265
49	975	263
50	174	649
51	193	710
52	198	148
53	911	6
54	132	607
55	286	348
56	852	102
57	63	723
58	981	733
59	608	496
60	40	495
61	791	726
62	112	847
63	702	511
64	968	82
65	418	313
66	799	290
67	48	161
68	446	56
69	524	233
70	840	103
71	41	819
72	286	887
73	971	323
74	366	863
75	279	785
76	882	722
77	915	341
78	576	369
79	410	806
80	867	15
81	867	320
82	327	960
83	468	564
84	472	872
85	467	641
86	193	177
87	764	351
88	611	707
89	887	246
90	701	933
91	869	593
92	180	227
93	435	760
94	42	120
95	428	355
96	483	799
97	703	702
98	53	461
99	521	521
100	711	528
101	792	894
102	991	716
103	869	834
104	360	542
105	758	95
106	31	77
107	755	865
108	670	151
109	98	866
110	608	396
111	681	55
112	148	343
113	235	158
114	742	665
115	920	526
116	876	485
117	34	188
118	739	996
119	559	320
120	803	869
121	342	173
122	952	60
123	824	965
124	69	475
125	695	227
126	598	510
127	819	864
128	998	616
129	912	37
130	186	789
131	262	584
132	268	286
133	926	99
134	488	547
135	592	829
136	488	842
137	183	977
138	446	214
139	218	217
140	243	995
141	563	885
142	673	74
143	85	29
144	115	811
145	343	274
146	600	966
147	889	696
148	299	623
149	747	888
150	518	108
151	771	382
152	745	651
153	989	759
154	734	285
155	19	87
156	90	100
157	266	880
158	929	973
159	5	278
160	694	977
161	456	400
162	112	381
163	183	837
164	589	524
165	411	79
166	176	413
167	811	923
168	409	225
169	487	888
170	472	131
171	758	255
172	535	133
173	270	242
174	569	667
175	705	591
176	835	210
177	555	993
178	873	911
179	401	116
180	574	407
181	868	975
182	159	113
183	129	508
184	242	270
185	192	770
186	917	991
187	842	319
188	498	434
189	47	680
190	455	117
191	798	114
192	863	736
193	817	914
194	996	858
195	870	592
196	338	125
197	219	684
198	409	104
199	356	357
200	968	680
201	922	505
202	177	214
203	152	308
204	793	244
205	642	57
206	927	829
207	376	925
208	105	914
209	404	687
210	566	875
211	91	477
212	49	695
213	575	44
214	152	507
215	130	268
216	20	205
217	246	13
218	848	267
219	927	436
220	581	801
221	710	44
222	10	386
223	404	36
224	495	252
225	611	843
226	457	541
227	232	222
228	126	653
229	916	37
230	581	961
231	898	249
232	234	60
233	414	808
234	375	394
235	687	235
236	922	927
237	777	922
238	980	932
239	458	387
240	212	794
241	83	886
242	496	672
243	348	951
244	386	15
245	60	78
246	531	604
247	893	16
248	577	897
249	489	658
250	841	984
251	182	926
252	824	482
253	459	868
254	220	512
255	888	713
256	751	573
257	365	184
258	965	902
259	360	386
260	228	886
261	684	319
262	737	191
263	392	872
264	744	583
265	44	960
266	553	678
267	78	970
268	884	191
269	374	709
270	557	331
271	424	623
272	862	906
273	154	153
274	609	668
275	672	453
276	206	426
277	728	680
278	81	961
279	656	320
280	159	246
281	550	660
282	567	573
283	737	101
284	110	284
285	269	344
286	570	459
287	646	353
288	19	555
289	910	94
290	770	410
291	576	94
292	688	553
293	642	167
294	361	182
295	988	145
296	948	677
297	70	666
298	283	630
299	847	723
300	323	478
301	207	417
302	665	525
303	76	753
304	560	758
305	33	902
306	947	65
307	657	922
308	44	769
309	547	511
310	62	293
311	119	531
312	880	346
313	810	59
314	676	43
315	31	12
316	762	242
317	919	171
318	451	824
319	105	817
320	192	437
321	52	658
322	51	218
323	339	610
324	619	978
325	144	812
326	61	160
327	632	455
328	177	953
329	451	726
330	170	55
331	920	92
332	592	534
333	969	398
334	335	77
335	818	562
336	910	631
337	428	573
338	424	695
339	796	25
340	507	187
341	346	628
342	27	501
343	757	673
344	737	828
345	534	647
346	171	388
347	391	754
348	276	963
349	417	640
350	566	21
351	599	433
352	191	757
353	221	327
354	975	201
355	212	82
356	416	704
357	732	663
358	133	443
359	481	227
360	493	136
361	606	11
362	489	891
363	213	60
364	205	16
365	123	982
366	588	246
367	946	20
368	482	499
369	345	174
370	253	770
371	317	599
372	146	803
373	370	448
374	49	64
375	797	263
376	237	620
377	199	830
378	966	628
379	335	38
380	54	748
381	748	520
382	847	807
383	480	652
384	578	230
385	945	910
386	38	561
387	40	388
388	241	550
389	214	566
390	827	346
391	741	373
392	221	835
393	144	818
394	445	584
395	871	882
396	719	940
397	991	392
398	782	367
399	412	302
400	619	468
401	39	467
402	213	497
403	839	287
404	60	754
405	176	139
406	33	2
407	356	941
408	471	51
409	705	773
410	985	708
411	485	551
412	423	897
413	760	410
414	548	328
415	77	364
416	547	793
417	607	453
418	871	730
419	975	860
420	515	324
421	199	847
422	936	234
423	339	14
424	928	878
425	966	881
426	20	497
427	477	562
428	743	16
429	462	114
430	819	759
431	181	677
432	853	243
433	497	767
434	662	226
435	22	633
436	433	616
437	285	828
438	360	353
439	327	718
440	262	93
441	831	855
442	626	755
443	548	359
444	374	11
445	807	448
446	528	902
447	485	526
448	331	226
449	726	213
450	341	942
451	778	956
452	778	280
453	149	631
454	577	659
455	199	992
456	224	496
457	955	637
458	100	204
459	728	636
460	378	49
461	539	925
462	644	926
463	554	852
464	172	399
465	815	875
466	573	599
467	960	584
468	701	469
469	66	656
470	923	263
471	500	95
472	969	195
473	867	931
474	554	941
475	23	470
476	133	536
477	921	466
478	964	695
479	587	901
480	6	983
481	335	245
482	657	47
483	744	71
484	838	477
485	707	799
486	520	977
487	902	46
488	658	179
489	521	821
490	733	758
491	949	439
492	552	936
493	797	160
494	498	484
495	766	815
496	468	508
497	553	286
498	192	73
499	82	990
500	993	535
501	499	802
DEMAND_SECTION
1	0
2	1
3	4
4	2
5	1
6	5
7	1
8	7
9	2
10	7
11	1
12	8
13	1
14	5
15	1
16	2
17	7
18	2
19	9
20	9
21	2
22	6
23	4
24	4
25	3
26	6
27	8
28	8
29	1
30	4
31	8
32	4
33	7
34	3
35	3
36	4
37	6
38	8
39	5
40	4
41	3
42	5
43	4
44	3
45	1
46	3
47	6
48	3
49	5
50	6
51	7
52	6
53	9
54	1
55	3
56	7
57	1
58	9
59	7
60	7
61	4
62	8
63	5
64	1
65	6
66	2
67	6
68	7
69	8
70	6
71	8
72	3
73	5
74	8
75	7
76	5
77	2
78	7
79	9
80	3
81	1
82	4
83	1
84	9
85	1
86	5
87	1
88	3
89	2
90	8
91	4
92	8
93	4
94	4
95	3
96	7
97	2
98	1
99	6
100	5
101	7
102	2
103	8
104	4
105	3
106	6
107	2
108	2
109	4
110	2
111	9
112	2
113	8
114	7
115	8
116	3
117	3
118	5
119	7
120	9
121	8
122	9
123	3
124	1
125	9
126	6
127	4
128	9
129	8
130	2
131	6
132	8
133	8
134	1
135	5
136	9
137	1
138	5
139	5
140	2
141	1
142	6
143	3
144	2
145	4
146	6
147	8
148	8
149	8
150	4
151	9
152	2
153	8
154	1
155	4
156	5
157	2
158	2
159	1
160	5
161	7
162	9
163	6
164	5
165	5
166	8
167	7
168	3
169	9
170	9
171	5
172	1
173	8
174	5
175	9
176	5
177	1
178	9
179	1
180	3
181	8
182	1
183	9
184	5
185	5
186	8
187	3
188	1
189	9
190	8
191	1
192	8
193	9
194	4
195	3
196	1
197	7
198	5
199	6
200	5
201	2
202	9
203	4
204	2
205	6
206	4
207	3
208	2
209	4
210	7
211	5
212	2
213	2
214	5
215	1
216	6
217	6
218	4
219	7
220	3
221	7
222	3
223	8
224	2
225	1
226	4
227	7
228	5
229	5
230	2
231	9
232	4
233	2
234	1
235	8
236	1
237	1
238	7
239	5
240	3
241	6
242	8
243	2
244	5
245	5
246	4
247	9
248	8
249	1
250	4
251	8
252	4
253	9
254	1
255	3
256	8
257	8
258	4
259	8
260	5
261	6
262	6
263	9
264	3
265	7
266	7
267	3
268	4
269	7
270	5
271	1
272	6
273	3
274	3
275	5
276	2
277	5
278	4
279	6
280	5
281	1
282	4
283	3
284	8
285	4
286	5
287	8
288	7
289	7
290	3
291	9
292	4
293	5
294	8
295	4
296	6
297	7
298	3
299	8
300	8
301	1
302	9
303	5
304	9
305	7
306	7
307	1
308	8
309	2
310	5
311	3
312	1
313	3
314	8
315	9
316	1
317	3
318	3
319	6
320	2
321	8
322	5
323	2
324	7
325	5
326	6
327	2
328	8
329	6
330	5
331	2
332	8
333	7
334	2
335	1
336	5
337	5
338	9
339	5
340	3
341	9
342	9
343	2
344	3
345	5
346	2
347	6
348	3
349	3
350	3
351	1
352	8
353	7
354	5
355	9
356	7
357	8
358	8
359	6
360	9
361	7
362	6
363	4
364	6
365	5
366	8
367	8
368	9
369	4
370	2
371	9
372	2
373	4
374	1
375	3
376	8
377	8
378	8
379	8
380	7
381	3
382	4
383	7
384	4
385	9
386	1
387	9
388	1
389	5
390	2
391	2
392	2
393	4
394	7
395	1
396	6
397	1
398	9
399	4
400	8
401	5
402	4
403	6
404	3
405	4
406	4
407	6
408	5
409	8
410	6
411	9
412	8
413	4
414	7
415	7
416	7
417	2
418	3
419	4
420	6
421	1
422	9
423	3
424	7
425	5
426	7
427	9
428	6
429	1
430	9
431	2
432	2
433	2
434	6
435	5
436	8
437	5
438	7
439	5
440	2
441	5
442	2
443	2
444	3
445	2
446	7
447	3
448	4
449	1
450	1
451	6
452	2
453	3
454	2
455	8
456	1
457	3
458	8
459	7
460	1
461	8
462	2
463	3
464	2
465	7
466	7
467	9
468	5
469	1
470	5
471	3
472	3
473	3
474	6
475	3
476	5
477	5
478	9
479	2
480	4
481	2
482	7
483	4
484	4
485	9
486	6
487	2
488	6
489	8
490	4
491	6
492	1
493	7
494	3
495	2
496	3
497	5
498	6
499	7
500	9
501	7
TIME_WINDOW_SECTION
1	0	3000
2	0	1395
3	951	2171
4	832	1257
5	671	1986
6	15	1706
7	762	1609
8	150	2039
9	1843	2366
10	562	765
11	1405	1672
12	2150	2450
13	971	1567
14	0	1897
15	2428	3000
16	960	2646
17	1447	2190
18	822	1329
19	862	1386
20	572	1171
21	1343	1573
22	257	1515
23	604	1562
24	116	1947
25	0	723
26	394	1925
27	1412	1854
28	181	2032
29	0	1536
30	0	1790
31	1269	1972
32	507	1299
33	2148	2349
34	1091	2562
35	1089	1977
36	1794	3000
37	889	2544
38	803	2272
39	0	1214
40	0	1817
41	1258	1529
42	1288	2009
43	663	2340
44	938	2788
45	0	1624
46	1136	2453
47	848	2200
48	581	1861
49	0	1683
50	1338	1569
51	971	2361
52	1062	2526
53	599	1518
54	32	1872
55	1219	2196
56	1245	2317
57	626	1686
58	1119	1604
59	744	1062
60	1218	1677
61	0	1280
62	966	2351
63	1635	2669
64	1185	2485
65	770	2567
66	753	1796
67	902	2078
68	506	1919
69	301	1066
70	292	2016
71	873	2824
72	502	1109
73	642	2333
74	277	1656
75	933	1223
76	2379	2986
77	1256	1661
78	0	1792
79	443	1990
80	362	1209
81	1006	2169
82	1783	2520
83	884	1868
84	1171	2864
85	1629	2177
86	1125	2039
87	1141	2860
88	133	512
89	933	1993
90	947	2620
91	696	1045
92	775	1667
93	594	1686
94	829	1702
95	508	1490
96	0	1339
97	2395	2869
98	1235	1690
99	687	1515
100	1783	2166
101	1787	2208
102	101	1429
103	2365	2941
104	878	1540
105	588	1041
106	900	1851
107	1627	2660
108	117	1380
109	1258	1889
110	1697	3000
111	672	2639
112	109	1764
113	1054	2456
114	808	1400
115	321	1888
116	1515	2143
117	929	2473
118	1105	2373
119	409	2180
120	2067	2567
121	150	1762
122	756	1422
123	794	2793
124	1115	1671
125	0	1529
126	999	1332
127	2214	2430
128	1788	2327
129	818	2647
130	976	1719
131	756	2136
132	608	1728
133	571	982
134	1190	1905
135	1232	2316
136	1336	2031
137	1516	2291
138	586	1770
139	600	1667
140	1825	2434
141	681	2512
142	182	1840
143	521	2070
144	1350	2098
145	613	1525
146	0	1443
147	2272	2708
148	845	1542
149	1138	2642
150	1834	2223
151	598	1982
152	1013	2947
153	0	1637
154	276	1487
155	1003	1446
156	959	1848
157	1650	2661
158	1741	2915
159	879	1549
160	2102	2512
161	1730	2069
162	914	2289
163	818	2358
164	182	1213
165	840	2070
166	180	2099
167	0	458
168	572	2088
169	608	2145
170	188	1884
171	615	1155
172	590	875
173	1442	2318
174	648	1213
175	484	2311
176	453	1745
177	2081	2816
178	283	1491
179	763	1545
180	884	2447
181	2186	2942
182	693	1261
183	882	1641
184	300	2059
185	982	2844
186	2146	2709
187	222	1451
188	1670	2026
189	1475	2438
190	1233	2716
191	388	1705
192	193	1286
193	360	631
194	37	1721
195	1512	2370
196	639	2085
197	703	2645
198	1698	1975
199	1421	2036
200	1408	1799
201	1429	1656
202	1368	1646
203	1023	2777
204	1174	2285
205	1337	2154
206	1503	2071
207	1037	3000
208	1004	2382
209	346	1169
210	1849	3000
211	1543	2021
212	1299	1509
213	1130	2431
214	923	2195
215	878	2812
216	990	2150
217	317	2310
218	1193	1674
219	1878	2882
220	779	2045
221	276	1714
222	1558	2232
223	1223	2003
224	1976	2210
225	457	1936
226	234	1476
227	1268	1898
228	478	1171
229	1542	1973
230	991	2836
231	508	713
232	1048	1735
233	0	1231
234	1015	2518
235	273	958
236	278	1476
237	241	1740
238	673	975
239	1789	2033
240	1811	2481
241	614	2311
242	1799	2746
243	371	1025
244	1543	1993
245	1331	2150
246	0	1362
247	694	1009
248	1505	3000
249	1260	3000
250	1011	2653
251	1071	1636
252	1263	2181
253	783	1607
254	174	1230
255	36	1520
256	1139	1858
257	629	1514
258	0	825
259	1360	2100
260	1513	2516
261	663	1109
262	1518	2172
263	540	1232
264	729	1466
265	344	2026
266	687	2505
267	1601	1984
268	1320	2917
269	397	2228
270	1032	2006
271	833	1969
272	1292	2516
273	878	2249
274	1419	1696
275	0	1529
276	484	1593
277	0	1082
278	1073	2172
279	602	2198
280	1472	2285
281	2050	2574
282	396	1596
283	1435	2233
284	714	1812
285	1022	2978
286	952	2319
287	460	2249
288	170	1721
289	587	1373
290	749	1068
291	850	1119
292	423	952
293	1299	1757
294	515	1874
295	1115	2243
296	857	1356
297	285	2034
298	892	2452
299	576	1412
300	498	973
301	1876	2129
302	18	1391
303	1319	2513
304	575	2353
305	1198	1712
306	1200	2677
307	370	1310
308	1757	2072
309	1495	3000
310	1311	2000
311	424	2169
312	1176	1897
313	324	1802
314	938	1823
315	470	1876
316	1116	2181
317	1068	1846
318	0	943
319	261	1657
320	1181	2162
321	266	2252
322	1059	2561
323	1136	2092
324	472	1134
325	1176	1424
326	736	1342
327	1153	2077
328	833	1690
329	2028	2457
330	768	2005
331	1201	2856
332	688	2341
333	1459	2103
334	968	2432
335	385	827
336	1836	2748
337	265	1343
338	1467	3000
339	216	1462
340	1149	2154
341	0	1678
342	1250	2331
343	338	1157
344	1089	2379
345	1960	2311
346	913	2779
347	382	741
348	526	1755
349	987	2733
350	1093	1537
351	730	1412
352	1007	1912
353	332	1803
354	1409	2817
355	829	1771
356	786	2327
357	1049	3000
358	971	1641
359	84	1735
360	105	1561
361	113	2011
362	995	1294
363	179	2152
364	545	1733
365	0	1634
366	196	1095
367	321	1684
368	552	1737
369	386	1693
370	0	1522
371	2107	2400
372	1556	2508
373	755	1768
374	1406	1759
375	185	866
376	993	2708
377	817	1792
378	0	1346
379	1089	1907
380	906	2419
381	2111	2773
382	424	1881
383	365	1147
384	1443	2516
385	1311	2042
386	351	2186
387	1238	2304
388	951	2215
389	1060	2778
390	2027	2606
391	384	931
392	162	1467
393	1083	1314
394	440	1041
395	0	1592
396	0	1677
397	932	2046
398	1201	2082
399	528	836
400	303	821
401	129	1560
402	607	1492
403	1526	2919
404	0	1875
405	1413	1790
406	321	2027
407	1174	2421
408	1039	1455
409	1846	3000
410	1617	2033
411	543	776
412	784	2687
413	316	1823
414	1607	2348
415	848	2840
416	0	1096
417	1138	2505
418	1969	3000
419	0	1149
420	0	1765
421	530	2349
422	1135	1479
423	860	2336
424	410	2147
425	291	1967
426	1526	2331
427	0	1409
428	1157	2552
429	1490	2508
430	49	591
431	306	2011
432	1550	2351
433	458	1681
434	514	2269
435	915	2495
436	1659	2495
437	1406	1847
438	1273	1758
439	1199	2788
440	764	996
441	2316	3000
442	918	2363
443	1062	1887
444	894	1327
445	0	1459
446	127	1546
447	34	966
448	1366	2445
449	211	1439
450	1826	2064
451	1236	1871
452	1625	2155
453	819	1399
454	0	1659
455	570	2273
456	176	1478
457	1965	2358
458	1396	1985
459	124	1695
460	527	1569
461	511	730
462	1271	1848
463	413	2395
464	1684	2192
465	641	1292
466	1351	3000
467	1560	3000
468	44	1222
469	1252	2415
470	1463	2368
471	87	1448
472	1976	2264
473	0	387
474	0	842
475	1039	2230
476	1348	2676
477	1450	1715
478	562	1447
479	0	890
480	1084	2386
481	824	2254
482	708	1295
483	1524	2485
484	518	1297
485	1813	3000
486	1057	2308
487	858	1643
488	30	1856
489	0	1606
490	215	1968
491	56	1907
492	957	1170
493	868	2161
494	275	1377
495	827	1302
496	61	1384
497	568	2461
498	1320	2288
499	1055	2666
500	2091	2826
501	39	1262
DEPOT_SECTION
1
-1
EOF
