NAME : n501-0018
COMMENT : "Generated by pyvrp_manuel (OVRPTW)"
TYPE : OVRPTW
DIMENSION : 501
EDGE_WEIGHT_TYPE : EUC_2D
CAPACITY : 100
VEHICLES : 500
OPEN_ROUTE : YES
SERVICE_TIME : 200
NODE_COORD_SECTION
1	203	623
2	652	736
3	835	425
4	113	923
5	62	420
6	870	225
7	128	195
8	245	592
9	732	105
10	395	536
11	759	218
12	685	693
13	482	577
14	310	221
15	71	854
16	592	553
17	278	623
18	441	546
19	421	560
20	639	946
21	347	710
22	259	497
23	116	987
24	155	192
25	998	357
26	320	397
27	670	583
28	751	440
29	404	872
30	472	871
31	269	984
32	664	518
33	69	280
34	836	392
35	763	928
36	802	42
37	57	945
38	306	605
39	650	999
40	340	794
41	710	26
42	368	872
43	860	965
44	282	788
45	575	508
46	813	189
47	501	284
48	290	566
49	976	441
50	894	463
51	148	132
52	454	448
53	869	742
54	438	81
55	15	193
56	946	836
57	740	596
58	392	989
59	287	850
60	726	583
61	257	275
62	434	19
63	665	945
64	954	114
65	644	475
66	584	30
67	513	809
68	510	458
69	907	86
70	421	357
71	195	976
72	810	845
73	597	257
74	724	305
75	773	908
76	732	787
77	975	686
78	409	673
79	477	222
80	742	117
81	338	458
82	25	687
83	284	258
84	624	554
85	981	718
86	817	139
87	242	570
88	948	90
89	63	812
90	833	279
91	930	509
92	444	178
93	211	378
94	477	459
95	245	824
96	491	674
97	746	64
98	693	473
99	261	840
100	783	951
101	127	612
102	997	480
103	482	410
104	939	499
105	777	226
106	231	986
107	263	676
108	456	227
109	896	490
110	331	306
111	11	577
112	965	385
113	551	960
114	930	787
115	580	195
116	519	329
117	382	505
118	626	937
119	299	369
120	539	261
121	152	95
122	534	205
123	90	917
124	939	311
125	721	879
126	250	967
127	94	507
128	698	934
129	785	657
130	521	197
131	327	763
132	516	347
133	603	218
134	455	165
135	785	903
136	564	383
137	165	635
138	575	607
139	899	680
140	223	336
141	271	673
142	869	288
143	951	327
144	221	227
145	729	524
146	164	255
147	482	534
148	281	682
149	914	294
150	708	721
151	416	192
152	438	369
153	485	694
154	935	402
155	115	892
156	173	718
157	518	847
158	167	373
159	543	665
160	72	271
161	6	308
162	269	168
163	229	186
164	875	296
165	796	169
166	593	963
167	603	705
168	483	928
169	422	362
170	333	497
171	830	964
172	540	810
173	152	11
174	352	289
175	123	180
176	999	333
177	739	351
178	950	69
179	211	627
180	680	589
181	739	4
182	51	144
183	978	631
184	130	393
185	290	920
186	411	233
187	629	754
188	916	149
189	878	247
190	573	425
191	942	596
192	190	735
193	832	980
194	397	766
195	158	727
196	593	292
197	745	505
198	120	441
199	568	839
200	381	811
201	914	226
202	940	315
203	972	591
204	887	879
205	557	392
206	935	177
207	458	308
208	573	863
209	916	263
210	124	546
211	550	403
212	916	902
213	28	930
214	629	263
215	588	7
216	85	158
217	399	847
218	745	49
219	652	846
220	991	181
221	266	85
222	21	417
223	209	761
224	707	5
225	639	862
226	357	319
227	725	416
228	363	795
229	76	531
230	438	85
231	246	744
232	429	308
233	881	348
234	343	292
235	49	642
236	924	452
237	361	734
238	588	523
239	754	170
240	503	915
241	45	801
242	490	915
243	4	304
244	376	549
245	537	960
246	414	800
247	468	945
248	815	231
249	822	860
250	168	983
251	33	928
252	875	357
253	821	695
254	464	910
255	83	228
256	665	757
257	88	430
258	277	53
259	142	378
260	479	365
261	968	191
262	469	165
263	469	556
264	380	557
265	222	377
266	649	856
267	532	522
268	783	518
269	375	391
270	368	608
271	815	827
272	384	957
273	380	30
274	263	606
275	140	990
276	154	816
277	340	362
278	183	360
279	51	510
280	283	814
281	66	922
282	241	838
283	509	847
284	98	637
285	221	632
286	290	354
287	591	115
288	127	92
289	646	609
290	163	827
291	896	715
292	562	155
293	735	739
294	201	960
295	219	23
296	531	978
297	625	542
298	757	89
299	278	701
300	131	73
301	181	435
302	974	765
303	817	456
304	608	440
305	667	111
306	640	541
307	336	491
308	969	713
309	881	470
310	496	431
311	935	64
312	754	176
313	914	949
314	185	861
315	782	62
316	701	262
317	637	318
318	794	612
319	714	586
320	728	454
321	874	503
322	458	270
323	165	685
324	399	879
325	171	875
326	24	674
327	798	645
328	668	299
329	677	720
330	579	374
331	664	744
332	672	100
333	823	552
334	253	341
335	215	593
336	212	118
337	289	218
338	381	320
339	465	550
340	126	758
341	173	942
342	939	789
343	786	367
344	701	811
345	484	915
346	416	930
347	269	809
348	665	766
349	196	535
350	187	545
351	886	280
352	79	897
353	185	510
354	809	836
355	270	607
356	776	527
357	431	789
358	706	460
359	364	192
360	102	329
361	309	122
362	726	404
363	340	451
364	814	741
365	305	768
366	840	51
367	233	111
368	445	550
369	232	124
370	132	653
371	513	535
372	633	424
373	17	455
374	757	835
375	493	309
376	174	717
377	510	766
378	227	712
379	28	584
380	738	340
381	280	327
382	972	923
383	802	527
384	793	948
385	75	450
386	749	521
387	537	902
388	899	102
389	657	924
390	328	780
391	277	162
392	686	430
393	611	477
394	714	818
395	278	281
396	3	242
397	477	592
398	689	161
399	769	204
400	713	366
401	553	943
402	408	721
403	516	433
404	552	965
405	715	48
406	742	816
407	627	871
408	394	566
409	281	663
410	931	35
411	128	292
412	678	688
413	601	77
414	450	134
415	717	570
416	80	342
417	414	93
418	956	139
419	370	128
420	723	957
421	294	17
422	677	385
423	171	918
424	731	104
425	771	14
426	294	737
427	421	204
428	831	209
429	822	992
430	747	569
431	561	425
432	161	103
433	69	308
434	923	828
435	347	667
436	720	456
437	978	950
438	123	320
439	885	509
440	214	514
441	263	787
442	901	326
443	229	392
444	313	603
445	200	83
446	547	834
447	47	325
448	782	405
449	471	133
450	266	584
451	689	451
452	356	788
453	133	814
454	763	751
455	940	821
456	320	394
457	253	921
458	982	183
459	826	960
460	188	980
461	671	225
462	778	73
463	777	302
464	133	818
465	229	315
466	67	756
467	62	915
468	519	209
469	292	40
470	5	440
471	287	400
472	166	144
473	368	80
474	179	836
475	495	30
476	682	397
477	972	50
478	519	476
479	697	292
480	556	847
481	900	997
482	139	118
483	896	96
484	255	380
485	222	947
486	356	382
487	240	813
488	147	911
489	208	51
490	838	601
491	393	90
492	689	124
493	755	985
494	490	108
495	677	170
496	120	90
497	826	161
498	163	502
499	819	941
500	607	500
501	230	311
DEMAND_SECTION
1	0
2	1
3	1
4	1
5	9
6	1
7	4
8	1
9	5
10	8
11	3
12	7
13	1
14	1
15	5
16	4
17	9
18	6
19	2
20	2
21	1
22	9
23	3
24	3
25	8
26	3
27	2
28	9
29	7
30	9
31	4
32	2
33	6
34	1
35	9
36	4
37	6
38	7
39	1
40	4
41	3
42	6
43	1
44	8
45	1
46	6
47	2
48	4
49	9
50	8
51	1
52	4
53	3
54	9
55	3
56	1
57	6
58	8
59	9
60	7
61	6
62	5
63	8
64	8
65	3
66	6
67	1
68	8
69	1
70	1
71	1
72	4
73	5
74	1
75	7
76	3
77	3
78	7
79	6
80	1
81	8
82	5
83	2
84	8
85	7
86	4
87	3
88	3
89	8
90	2
91	6
92	9
93	8
94	8
95	8
96	7
97	2
98	3
99	8
100	9
101	8
102	9
103	7
104	5
105	4
106	2
107	2
108	4
109	6
110	5
111	7
112	9
113	3
114	8
115	4
116	4
117	2
118	8
119	5
120	8
121	6
122	9
123	8
124	4
125	9
126	8
127	5
128	3
129	1
130	3
131	6
132	5
133	9
134	2
135	3
136	4
137	4
138	3
139	2
140	2
141	7
142	2
143	6
144	9
145	1
146	6
147	2
148	4
149	8
150	7
151	2
152	3
153	6
154	2
155	7
156	4
157	9
158	7
159	5
160	4
161	8
162	6
163	1
164	5
165	7
166	5
167	4
168	5
169	5
170	7
171	1
172	3
173	2
174	3
175	4
176	8
177	5
178	9
179	8
180	8
181	5
182	5
183	3
184	2
185	5
186	3
187	8
188	1
189	1
190	1
191	3
192	6
193	8
194	7
195	8
196	9
197	1
198	4
199	2
200	5
201	6
202	2
203	9
204	9
205	2
206	8
207	7
208	8
209	2
210	3
211	5
212	4
213	1
214	5
215	5
216	9
217	3
218	2
219	9
220	4
221	6
222	8
223	7
224	1
225	5
226	3
227	9
228	8
229	9
230	4
231	3
232	2
233	3
234	4
235	8
236	5
237	7
238	2
239	7
240	4
241	4
242	2
243	8
244	5
245	6
246	7
247	4
248	8
249	5
250	5
251	2
252	6
253	9
254	3
255	7
256	2
257	9
258	9
259	8
260	4
261	2
262	2
263	2
264	1
265	7
266	5
267	2
268	6
269	9
270	1
271	2
272	2
273	4
274	1
275	6
276	6
277	5
278	7
279	6
280	2
281	6
282	1
283	1
284	7
285	1
286	8
287	2
288	2
289	5
290	8
291	8
292	8
293	6
294	9
295	8
296	6
297	3
298	7
299	7
300	3
301	4
302	6
303	3
304	9
305	8
306	5
307	5
308	1
309	4
310	4
311	1
312	3
313	1
314	1
315	6
316	1
317	6
318	7
319	7
320	7
321	1
322	2
323	2
324	6
325	6
326	3
327	6
328	9
329	3
330	7
331	1
332	8
333	6
334	8
335	4
336	7
337	3
338	8
339	7
340	9
341	2
342	5
343	2
344	8
345	6
346	9
347	7
348	6
349	3
350	4
351	4
352	5
353	1
354	7
355	7
356	6
357	2
358	7
359	8
360	2
361	1
362	8
363	2
364	6
365	6
366	4
367	6
368	7
369	7
370	3
371	7
372	9
373	9
374	7
375	4
376	4
377	4
378	7
379	2
380	8
381	6
382	4
383	5
384	8
385	6
386	8
387	3
388	1
389	2
390	3
391	7
392	8
393	7
394	3
395	4
396	1
397	3
398	6
399	6
400	3
401	6
402	3
403	6
404	7
405	8
406	3
407	7
408	2
409	7
410	9
411	7
412	8
413	7
414	2
415	1
416	1
417	6
418	6
419	3
420	5
421	4
422	4
423	2
424	6
425	4
426	4
427	1
428	6
429	4
430	9
431	6
432	5
433	8
434	5
435	5
436	2
437	3
438	7
439	1
440	6
441	2
442	5
443	2
444	1
445	6
446	4
447	3
448	4
449	3
450	9
451	9
452	8
453	8
454	1
455	7
456	3
457	1
458	2
459	5
460	3
461	4
462	8
463	4
464	9
465	5
466	6
467	4
468	1
469	6
470	5
471	5
472	8
473	6
474	3
475	3
476	2
477	3
478	1
479	8
480	2
481	7
482	3
483	1
484	3
485	6
486	3
487	7
488	8
489	9
490	4
491	1
492	8
493	8
494	2
495	2
496	2
497	8
498	8
499	9
500	9
501	1
TIME_WINDOW_SECTION
1	0	3000
2	689	897
3	1675	1971
4	586	1855
5	207	2160
6	0	1933
7	1516	2046
8	664	1067
9	567	1431
10	1276	1566
11	1181	1902
12	1530	3000
13	2077	2457
14	1500	2544
15	1657	2146
16	1839	2789
17	302	544
18	985	1706
19	1416	2476
20	217	1358
21	647	1961
22	1863	3000
23	136	1798
24	1406	2211
25	1163	2744
26	1378	1981
27	507	1377
28	774	1459
29	2033	2361
30	281	1853
31	991	1768
32	0	1270
33	1926	2659
34	1130	1532
35	0	1533
36	57	1928
37	1122	2787
38	1404	3000
39	409	1104
40	569	1082
41	705	1494
42	230	1862
43	751	1275
44	2262	2559
45	0	1541
46	292	1672
47	437	1060
48	200	1925
49	597	1720
50	250	2151
51	481	2123
52	452	811
53	649	2460
54	694	1613
55	748	2727
56	1067	1495
57	1008	1855
58	800	2304
59	1418	1894
60	1238	2345
61	1119	1821
62	425	1261
63	1586	2020
64	923	1351
65	1252	2810
66	1274	2573
67	40	825
68	1654	2006
69	1311	1765
70	1812	2666
71	0	1430
72	1317	2928
73	1278	2844
74	400	2314
75	1069	2290
76	447	1719
77	635	1332
78	1011	1248
79	1485	2975
80	723	1331
81	889	1102
82	1623	3000
83	1760	2075
84	1177	2554
85	868	1719
86	1120	1633
87	0	1024
88	454	2127
89	20	678
90	1353	2423
91	392	1422
92	0	1318
93	0	870
94	769	1010
95	1316	2789
96	1051	1888
97	881	2157
98	1160	1888
99	2213	2663
100	530	1917
101	170	1278
102	908	2833
103	0	1220
104	668	1754
105	693	1631
106	884	2004
107	396	2150
108	395	2047
109	1099	1712
110	0	1313
111	405	1565
112	375	2356
113	120	1462
114	152	1363
115	1321	1611
116	24	1631
117	591	2000
118	468	1794
119	2240	2513
120	1059	1839
121	60	2036
122	1022	2315
123	678	2316
124	1612	2188
125	766	1338
126	1366	2674
127	0	1184
128	0	1432
129	634	1171
130	1334	2197
131	0	947
132	121	1225
133	1080	2194
134	1426	1874
135	1492	2574
136	577	1196
137	506	2053
138	324	1812
139	1128	1438
140	1347	1763
141	1558	3000
142	390	1906
143	908	2799
144	829	1497
145	820	1586
146	1446	2377
147	449	2274
148	0	955
149	857	1452
150	0	1613
151	1048	1702
152	1635	3000
153	993	2234
154	145	1835
155	0	669
156	159	1367
157	1086	2986
158	0	714
159	1111	2521
160	184	1902
161	683	2632
162	587	1439
163	978	1733
164	949	1409
165	1145	1420
166	772	1100
167	1605	2447
168	1571	2688
169	560	1526
170	1329	3000
171	948	2883
172	0	1831
173	0	1400
174	1449	3000
175	466	1400
176	683	1501
177	1465	2693
178	634	2085
179	927	2793
180	793	1694
181	718	1388
182	1462	2342
183	491	1882
184	1061	2363
185	1904	2478
186	447	1826
187	1339	2186
188	943	2290
189	932	2442
190	217	668
191	436	1264
192	2308	2606
193	999	1432
194	2005	2446
195	278	1164
196	192	1701
197	1574	2336
198	0	691
199	657	1147
200	0	1848
201	1089	1501
202	316	2216
203	1075	2879
204	1741	2151
205	1634	2452
206	763	1199
207	1451	3000
208	231	1567
209	1398	2368
210	1528	2284
211	1579	1792
212	693	2409
213	1453	1838
214	243	1575
215	0	1486
216	1191	1960
217	2068	2788
218	858	1132
219	0	1152
220	79	1987
221	797	2584
222	214	606
223	948	2782
224	182	1704
225	0	1620
226	0	858
227	904	1807
228	1300	3000
229	0	1282
230	0	1847
231	1484	1912
232	1970	2385
233	353	1825
234	1965	2253
235	0	1066
236	381	1574
237	862	2672
238	2058	2267
239	412	1961
240	482	937
241	503	1749
242	696	2460
243	647	1813
244	404	2026
245	1083	2768
246	432	911
247	874	1666
248	780	1915
249	385	1570
250	167	1931
251	1731	2362
252	774	2076
253	1158	1530
254	199	1235
255	510	1486
256	900	2064
257	1929	2647
258	74	1930
259	1550	3000
260	105	767
261	760	1193
262	1895	2211
263	562	2502
264	1760	3000
265	1366	1957
266	1238	2077
267	1326	1882
268	1072	1292
269	1032	2835
270	1686	2538
271	392	1019
272	1056	2204
273	1265	2859
274	1600	1834
275	0	1518
276	815	1294
277	2381	2591
278	759	2205
279	1001	2856
280	248	857
281	1401	2522
282	1759	3000
283	700	1265
284	265	966
285	1851	3000
286	108	484
287	1432	2195
288	1570	2886
289	1142	1462
290	11	1154
291	1610	1864
292	1406	2316
293	1976	2194
294	1106	1829
295	573	934
296	115	1087
297	1481	2251
298	1135	1674
299	0	1235
300	1060	2402
301	1554	2250
302	196	2025
303	808	2508
304	454	1764
305	565	1271
306	1318	3000
307	2006	2948
308	710	1907
309	1642	1914
310	793	2586
311	633	2560
312	994	2037
313	923	1369
314	918	2543
315	701	2482
316	504	2079
317	1365	1887
318	872	1436
319	0	1620
320	366	2121
321	800	2152
322	258	814
323	311	1607
324	1399	1739
325	587	1487
326	1847	2155
327	639	1006
328	1219	2044
329	1013	1868
330	902	2890
331	1515	1896
332	860	2053
333	75	1880
334	1451	2220
335	1192	2268
336	1154	3000
337	446	1234
338	1740	2113
339	1208	2109
340	1054	1394
341	1703	2984
342	1541	2139
343	28	1520
344	1399	1983
345	1284	2239
346	1461	2846
347	725	1658
348	119	1249
349	373	860
350	1057	1944
351	225	1552
352	1867	2643
353	693	1903
354	112	2069
355	273	2203
356	800	1530
357	528	925
358	426	865
359	1719	2401
360	0	1703
361	1313	2545
362	0	1477
363	755	1146
364	1867	2265
365	765	1879
366	1419	2285
367	353	1219
368	10	805
369	316	2205
370	0	925
371	610	997
372	71	1709
373	1485	2189
374	1800	2491
375	811	1762
376	1225	2586
377	2202	2480
378	0	528
379	733	996
380	1622	2732
381	939	1267
382	1191	2653
383	946	1961
384	295	1823
385	636	1978
386	1160	1473
387	67	869
388	1197	1945
389	1239	2331
390	685	1697
391	1833	2440
392	1258	1951
393	294	1755
394	397	1879
395	1161	1679
396	413	2178
397	532	2286
398	913	2126
399	1346	2459
400	540	1059
401	1001	1679
402	737	965
403	689	2528
404	1305	2850
405	995	1810
406	826	1127
407	1109	2102
408	1552	1817
409	726	1582
410	1422	2220
411	1899	2414
412	762	2666
413	778	2449
414	0	1666
415	703	1276
416	896	2645
417	521	2317
418	688	2003
419	387	1606
420	605	2099
421	1946	2289
422	1265	3000
423	143	1745
424	565	997
425	787	1887
426	1970	2497
427	882	1696
428	536	2476
429	1004	1945
430	464	2090
431	2071	2467
432	936	2164
433	1663	2109
434	1106	1968
435	435	1635
436	204	1102
437	537	1342
438	740	1388
439	1012	1224
440	1755	2588
441	0	1236
442	1324	2022
443	700	2461
444	1593	3000
445	131	1694
446	931	1518
447	1015	1247
448	209	1278
449	1589	2778
450	469	1354
451	1423	1666
452	1307	1681
453	22	1329
454	483	720
455	555	1975
456	0	1327
457	233	1541
458	998	1324
459	1580	1828
460	1264	2271
461	1073	2403
462	1067	2234
463	1518	2660
464	220	722
465	0	880
466	1325	1578
467	639	1722
468	1181	2758
469	314	1632
470	0	997
471	282	2047
472	655	1992
473	482	1809
474	1024	1871
475	944	2641
476	313	2249
477	108	2096
478	1469	2327
479	396	1982
480	319	956
481	803	1835
482	1804	2101
483	754	2540
484	895	2586
485	435	2343
486	1073	2691
487	154	1918
488	0	1098
489	842	2031
490	1701	1975
491	704	2341
492	318	1258
493	1212	2184
494	1229	2577
495	768	1124
496	1229	2539
497	1211	2375
498	0	954
499	1080	2596
500	814	1274
501	858	1219
DEPOT_SECTION
1
-1
EOF
