NAME : n101-0026
COMMENT : "Generated by pyvrp_manuel (VRPL)"
TYPE : VRPL
DIMENSION : 101
EDGE_WEIGHT_TYPE : EUC_2D
CAPACITY : 50
VEHICLES : 100
DISTANCE : 3000
NODE_COORD_SECTION
1	431	723
2	527	845
3	176	744
4	318	257
5	415	832
6	343	231
7	729	178
8	691	964
9	924	79
10	57	747
11	352	77
12	749	905
13	122	883
14	995	598
15	342	625
16	47	28
17	317	580
18	936	247
19	826	481
20	713	298
21	115	310
22	352	890
23	634	736
24	699	249
25	137	244
26	201	750
27	589	11
28	179	129
29	940	584
30	855	796
31	783	864
32	908	867
33	98	393
34	711	171
35	946	383
36	95	963
37	261	752
38	775	490
39	56	621
40	708	970
41	140	426
42	62	822
43	507	368
44	108	689
45	798	263
46	933	579
47	156	963
48	517	107
49	792	252
50	461	758
51	158	943
52	509	208
53	12	145
54	682	853
55	405	727
56	461	482
57	631	177
58	707	154
59	732	204
60	725	832
61	829	633
62	254	884
63	28	819
64	492	372
65	662	60
66	842	115
67	307	648
68	68	256
69	849	898
70	758	368
71	527	957
72	883	65
73	729	72
74	138	760
75	38	483
76	985	982
77	916	544
78	309	243
79	418	302
80	311	445
81	359	657
82	692	227
83	402	313
84	693	138
85	291	726
86	156	54
87	174	242
88	599	230
89	769	536
90	458	860
91	755	966
92	417	343
93	740	148
94	426	655
95	402	489
96	570	890
97	675	34
98	173	513
99	331	87
100	568	515
101	348	118
DEMAND_SECTION
1	0
2	8
3	8
4	2
5	6
6	2
7	2
8	9
9	2
10	1
11	6
12	4
13	2
14	6
15	2
16	6
17	1
18	2
19	9
20	6
21	6
22	1
23	8
24	3
25	7
26	7
27	1
28	3
29	6
30	2
31	4
32	9
33	3
34	4
35	5
36	4
37	1
38	6
39	5
40	8
41	7
42	8
43	1
44	5
45	5
46	8
47	5
48	2
49	6
50	2
51	2
52	1
53	6
54	1
55	3
56	9
57	4
58	8
59	5
60	2
61	7
62	4
63	7
64	1
65	2
66	4
67	2
68	7
69	6
70	8
71	9
72	1
73	2
74	4
75	5
76	4
77	3
78	9
79	5
80	8
81	8
82	7
83	9
84	7
85	6
86	4
87	4
88	9
89	7
90	5
91	8
92	6
93	8
94	2
95	7
96	9
97	2
98	4
99	2
100	5
101	1
DEPOT_SECTION
1
-1
EOF
