NAME : n101-0036
COMMENT : "Generated by pyvrp_manuel (VRPL)"
TYPE : VRPL
DIMENSION : 101
EDGE_WEIGHT_TYPE : EUC_2D
CAPACITY : 50
VEHICLES : 100
DISTANCE : 3000
NODE_COORD_SECTION
1	392	621
2	298	748
3	618	739
4	511	740
5	862	35
6	492	81
7	843	372
8	625	768
9	239	818
10	224	945
11	320	423
12	916	269
13	341	737
14	247	891
15	693	597
16	557	99
17	411	632
18	300	279
19	465	135
20	702	87
21	159	557
22	437	191
23	706	66
24	819	933
25	876	905
26	439	716
27	59	753
28	163	238
29	83	503
30	935	470
31	598	420
32	576	973
33	494	662
34	560	355
35	173	533
36	559	290
37	158	452
38	599	330
39	183	207
40	86	879
41	476	390
42	212	959
43	98	605
44	481	21
45	809	487
46	284	626
47	469	159
48	517	560
49	471	508
50	768	504
51	504	833
52	462	985
53	379	780
54	746	940
55	571	941
56	506	539
57	16	724
58	747	623
59	711	48
60	931	707
61	295	968
62	787	754
63	771	103
64	808	240
65	534	769
66	146	977
67	526	762
68	54	547
69	535	890
70	312	799
71	780	130
72	971	454
73	629	505
74	832	454
75	255	511
76	726	436
77	345	832
78	750	131
79	693	700
80	475	897
81	714	942
82	409	420
83	342	592
84	621	405
85	727	972
86	674	502
87	19	87
88	149	329
89	356	792
90	810	895
91	432	232
92	262	184
93	631	631
94	783	533
95	494	892
96	658	583
97	62	241
98	720	314
99	857	490
100	581	881
101	156	755
DEMAND_SECTION
1	0
2	6
3	6
4	6
5	8
6	3
7	4
8	1
9	3
10	5
11	2
12	7
13	2
14	9
15	7
16	3
17	5
18	1
19	5
20	5
21	1
22	5
23	6
24	6
25	5
26	7
27	7
28	7
29	7
30	1
31	9
32	6
33	5
34	6
35	5
36	2
37	6
38	4
39	9
40	5
41	6
42	8
43	4
44	1
45	4
46	3
47	7
48	5
49	7
50	1
51	3
52	7
53	4
54	9
55	9
56	8
57	2
58	5
59	3
60	6
61	7
62	5
63	9
64	3
65	2
66	4
67	3
68	9
69	6
70	2
71	6
72	7
73	2
74	8
75	1
76	6
77	4
78	3
79	6
80	7
81	4
82	1
83	7
84	3
85	4
86	8
87	1
88	2
89	2
90	8
91	8
92	6
93	6
94	6
95	8
96	3
97	8
98	4
99	3
100	1
101	5
DEPOT_SECTION
1
-1
EOF
