NAME : n101-0001
COMMENT : "Generated by pyvrp_manuel (VRPL)"
TYPE : VRPL
DIMENSION : 101
EDGE_WEIGHT_TYPE : EUC_2D
CAPACITY : 50
VEHICLES : 100
DISTANCE : 3000
NODE_COORD_SECTION
1	581	956
2	497	538
3	657	442
4	179	718
5	215	241
6	230	563
7	890	151
8	943	457
9	155	867
10	395	917
11	598	398
12	834	600
13	409	170
14	729	444
15	998	920
16	76	360
17	307	428
18	90	987
19	993	241
20	424	90
21	660	59
22	929	681
23	782	324
24	862	265
25	267	740
26	336	129
27	959	424
28	88	32
29	350	513
30	116	311
31	431	939
32	3	108
33	219	169
34	852	969
35	973	356
36	751	610
37	538	674
38	672	240
39	601	942
40	282	492
41	710	36
42	262	282
43	591	680
44	221	34
45	999	269
46	329	83
47	53	715
48	231	935
49	363	529
50	55	26
51	765	75
52	6	896
53	562	945
54	469	958
55	288	729
56	61	615
57	834	862
58	97	743
59	545	669
60	717	528
61	259	215
62	148	316
63	316	360
64	916	498
65	516	669
66	843	373
67	59	476
68	153	425
69	366	489
70	36	27
71	853	883
72	608	715
73	801	867
74	206	205
75	269	160
76	378	766
77	579	47
78	635	542
79	309	788
80	115	198
81	293	616
82	143	935
83	908	319
84	641	878
85	794	877
86	94	950
87	261	646
88	686	969
89	621	337
90	313	305
91	911	879
92	48	343
93	290	278
94	211	986
95	972	576
96	842	632
97	614	285
98	504	655
99	865	163
100	233	737
101	333	954
DEMAND_SECTION
1	0
2	3
3	4
4	7
5	5
6	9
7	2
8	2
9	4
10	9
11	7
12	4
13	9
14	2
15	8
16	5
17	1
18	5
19	6
20	6
21	7
22	7
23	2
24	4
25	9
26	3
27	8
28	5
29	5
30	4
31	5
32	2
33	8
34	3
35	3
36	5
37	3
38	4
39	6
40	9
41	5
42	7
43	7
44	1
45	4
46	5
47	3
48	4
49	7
50	8
51	6
52	6
53	6
54	2
55	8
56	6
57	1
58	6
59	4
60	3
61	9
62	5
63	1
64	6
65	5
66	8
67	4
68	5
69	7
70	8
71	8
72	5
73	8
74	6
75	2
76	5
77	5
78	4
79	1
80	8
81	7
82	7
83	7
84	9
85	5
86	5
87	7
88	5
89	1
90	1
91	4
92	1
93	4
94	1
95	2
96	7
97	2
98	3
99	9
100	9
101	1
DEPOT_SECTION
1
-1
EOF
