NAME : n101-0018
COMMENT : "Generated by pyvrp_manuel (VRPL)"
TYPE : VRPL
DIMENSION : 101
EDGE_WEIGHT_TYPE : EUC_2D
CAPACITY : 50
VEHICLES : 100
DISTANCE : 3000
NODE_COORD_SECTION
1	356	16
2	385	491
3	320	246
4	330	833
5	989	657
6	111	251
7	445	656
8	141	978
9	305	205
10	31	112
11	647	223
12	207	594
13	936	718
14	915	598
15	212	645
16	729	194
17	500	880
18	258	854
19	843	288
20	838	936
21	632	346
22	236	717
23	75	592
24	124	661
25	786	868
26	907	14
27	981	759
28	171	988
29	129	856
30	745	121
31	576	241
32	38	668
33	285	222
34	757	370
35	723	314
36	258	762
37	759	149
38	588	714
39	345	253
40	908	913
41	627	865
42	166	411
43	993	227
44	415	197
45	163	673
46	36	976
47	433	78
48	175	174
49	893	987
50	722	473
51	501	265
52	899	767
53	665	767
54	973	156
55	364	252
56	270	552
57	968	796
58	359	11
59	602	849
60	864	160
61	819	90
62	501	33
63	299	265
64	93	248
65	804	254
66	553	31
67	605	808
68	598	780
69	391	681
70	367	835
71	264	667
72	443	666
73	564	949
74	726	767
75	621	661
76	277	760
77	599	370
78	537	563
79	952	792
80	208	964
81	444	845
82	252	438
83	440	882
84	269	82
85	83	939
86	911	464
87	721	388
88	240	64
89	525	783
90	524	960
91	45	42
92	972	579
93	544	66
94	951	927
95	471	763
96	844	469
97	135	453
98	906	342
99	174	43
100	937	858
101	875	393
DEMAND_SECTION
1	0
2	5
3	2
4	6
5	8
6	6
7	6
8	4
9	8
10	6
11	6
12	8
13	8
14	3
15	6
16	8
17	1
18	5
19	7
20	5
21	6
22	8
23	7
24	5
25	4
26	4
27	9
28	9
29	2
30	8
31	7
32	6
33	6
34	5
35	2
36	8
37	9
38	3
39	3
40	4
41	7
42	5
43	9
44	8
45	9
46	3
47	4
48	7
49	9
50	1
51	2
52	2
53	2
54	4
55	2
56	3
57	5
58	9
59	6
60	2
61	3
62	5
63	6
64	5
65	5
66	8
67	5
68	1
69	5
70	8
71	1
72	4
73	8
74	6
75	2
76	2
77	9
78	4
79	6
80	4
81	1
82	5
83	6
84	9
85	9
86	6
87	8
88	2
89	9
90	6
91	2
92	1
93	2
94	4
95	8
96	1
97	7
98	5
99	5
100	2
101	2
DEPOT_SECTION
1
-1
EOF
