NAME : n101-0043
COMMENT : "Generated by pyvrp_manuel (VRPL)"
TYPE : VRPL
DIMENSION : 101
EDGE_WEIGHT_TYPE : EUC_2D
CAPACITY : 50
VEHICLES : 100
DISTANCE : 3000
NODE_COORD_SECTION
1	659	7
2	718	87
3	778	675
4	173	700
5	904	626
6	825	140
7	340	745
8	525	127
9	639	32
10	488	87
11	721	423
12	410	843
13	3	415
14	9	366
15	640	854
16	227	456
17	608	552
18	138	93
19	840	59
20	101	679
21	787	751
22	123	519
23	439	163
24	15	282
25	123	91
26	130	255
27	911	203
28	286	153
29	279	159
30	509	414
31	641	517
32	401	603
33	925	651
34	550	677
35	128	77
36	902	981
37	269	886
38	467	787
39	617	943
40	431	621
41	559	411
42	108	821
43	817	394
44	97	642
45	907	838
46	6	879
47	543	731
48	882	589
49	410	273
50	384	943
51	596	693
52	281	722
53	402	462
54	608	102
55	263	963
56	535	941
57	62	118
58	342	319
59	892	825
60	146	298
61	660	869
62	863	717
63	130	154
64	839	996
65	820	441
66	634	133
67	947	149
68	627	691
69	836	305
70	124	981
71	107	250
72	537	127
73	711	245
74	74	104
75	327	11
76	531	363
77	469	244
78	37	801
79	749	657
80	417	946
81	395	449
82	339	728
83	733	888
84	471	326
85	350	37
86	175	515
87	822	557
88	448	680
89	417	208
90	412	234
91	669	826
92	789	487
93	558	439
94	966	852
95	468	90
96	20	800
97	912	138
98	424	857
99	111	819
100	367	627
101	272	355
DEMAND_SECTION
1	0
2	1
3	9
4	7
5	8
6	3
7	7
8	8
9	2
10	3
11	9
12	4
13	5
14	3
15	7
16	4
17	1
18	9
19	8
20	7
21	1
22	1
23	5
24	7
25	5
26	6
27	8
28	8
29	5
30	3
31	5
32	5
33	2
34	7
35	7
36	9
37	6
38	5
39	3
40	2
41	3
42	3
43	6
44	9
45	2
46	9
47	5
48	1
49	8
50	4
51	1
52	6
53	2
54	7
55	3
56	1
57	7
58	3
59	3
60	4
61	4
62	2
63	8
64	8
65	8
66	7
67	7
68	1
69	9
70	6
71	6
72	6
73	4
74	4
75	5
76	6
77	1
78	6
79	4
80	9
81	6
82	3
83	3
84	5
85	9
86	2
87	5
88	5
89	9
90	9
91	4
92	4
93	3
94	7
95	3
96	6
97	9
98	6
99	3
100	4
101	4
DEPOT_SECTION
1
-1
EOF
