NAME : n101-0005
COMMENT : "Generated by pyvrp_manuel (VRPL)"
TYPE : VRPL
DIMENSION : 101
EDGE_WEIGHT_TYPE : EUC_2D
CAPACITY : 50
VEHICLES : 100
DISTANCE : 3000
NODE_COORD_SECTION
1	774	653
2	95	876
3	376	757
4	299	908
5	195	866
6	647	59
7	219	626
8	907	194
9	384	937
10	480	853
11	779	435
12	555	533
13	968	142
14	291	636
15	118	241
16	149	466
17	831	670
18	727	223
19	682	678
20	127	922
21	719	856
22	722	949
23	726	402
24	730	139
25	153	316
26	503	943
27	917	385
28	487	822
29	365	746
30	483	480
31	876	25
32	985	846
33	179	369
34	605	579
35	117	527
36	413	64
37	908	546
38	431	304
39	136	141
40	259	419
41	315	371
42	866	738
43	237	778
44	640	262
45	770	986
46	856	946
47	275	491
48	936	741
49	260	480
50	511	841
51	792	12
52	408	904
53	713	442
54	503	118
55	665	533
56	571	316
57	133	454
58	786	5
59	510	127
60	554	152
61	700	532
62	583	909
63	505	141
64	455	538
65	564	53
66	624	541
67	994	107
68	142	510
69	604	431
70	291	546
71	454	335
72	729	261
73	20	74
74	675	139
75	112	335
76	850	826
77	909	159
78	152	749
79	949	481
80	25	998
81	869	874
82	692	695
83	467	785
84	676	212
85	306	403
86	467	859
87	851	416
88	334	451
89	995	979
90	552	484
91	796	135
92	286	912
93	998	525
94	93	844
95	732	542
96	979	120
97	470	803
98	311	98
99	483	857
100	583	637
101	199	282
DEMAND_SECTION
1	0
2	9
3	8
4	1
5	6
6	8
7	9
8	6
9	7
10	2
11	4
12	3
13	5
14	3
15	8
16	5
17	9
18	7
19	9
20	6
21	3
22	2
23	9
24	3
25	9
26	3
27	1
28	9
29	3
30	6
31	4
32	5
33	5
34	2
35	6
36	3
37	3
38	6
39	8
40	2
41	3
42	1
43	2
44	6
45	5
46	5
47	2
48	9
49	2
50	9
51	3
52	4
53	3
54	6
55	8
56	9
57	2
58	1
59	3
60	8
61	4
62	5
63	1
64	1
65	7
66	2
67	5
68	9
69	1
70	7
71	5
72	8
73	5
74	2
75	5
76	2
77	4
78	3
79	1
80	7
81	9
82	1
83	5
84	9
85	7
86	1
87	9
88	8
89	2
90	3
91	4
92	3
93	7
94	6
95	3
96	3
97	4
98	4
99	7
100	1
101	6
DEPOT_SECTION
1
-1
EOF
