NAME : n101-0004
COMMENT : "Generated by pyvrp_manuel (OVRPBTW)"
TYPE : OVRPBTW
DIMENSION : 101
EDGE_WEIGHT_TYPE : EUC_2D
CAPACITY : 50
VEHICLES : 100
OPEN_ROUTE : YES
SERVICE_TIME : 200
NODE_COORD_SECTION
1	490	896
2	266	674
3	53	614
4	183	446
5	564	926
6	261	820
7	436	263
8	65	41
9	988	375
10	525	636
11	840	927
12	906	130
13	420	204
14	214	619
15	969	99
16	803	241
17	403	897
18	387	546
19	150	926
20	435	134
21	646	144
22	103	530
23	896	359
24	735	930
25	832	238
26	445	343
27	98	500
28	876	921
29	547	614
30	284	877
31	292	153
32	577	800
33	49	952
34	680	150
35	392	934
36	116	354
37	664	62
38	774	760
39	810	181
40	998	204
41	999	20
42	55	807
43	552	529
44	223	290
45	354	13
46	526	588
47	500	661
48	974	633
49	317	294
50	180	153
51	419	412
52	722	286
53	899	149
54	501	949
55	997	210
56	589	559
57	266	327
58	635	152
59	582	716
60	303	915
61	467	727
62	995	347
63	772	357
64	427	415
65	497	311
66	617	519
67	817	399
68	550	314
69	81	702
70	564	300
71	331	631
72	410	827
73	528	689
74	718	377
75	716	869
76	523	598
77	518	846
78	289	234
79	718	65
80	508	270
81	830	34
82	803	995
83	601	467
84	992	286
85	460	281
86	431	609
87	567	406
88	0	526
89	485	575
90	883	986
91	203	469
92	300	39
93	136	969
94	792	769
95	778	103
96	553	965
97	221	945
98	631	852
99	286	731
100	57	468
101	667	650
DEMAND_SECTION
1	0
2	1
3	1
4	4
5	2
6	7
7	7
8	8
9	9
10	9
11	8
12	1
13	9
14	7
15	9
16	9
17	4
18	7
19	2
20	8
21	5
22	3
23	1
24	9
25	3
26	8
27	9
28	5
29	5
30	2
31	8
32	7
33	5
34	2
35	6
36	8
37	2
38	4
39	6
40	8
41	4
42	7
43	7
44	8
45	2
46	7
47	1
48	4
49	9
50	5
51	2
52	5
53	6
54	1
55	4
56	2
57	5
58	5
59	5
60	1
61	1
62	9
63	5
64	7
65	4
66	4
67	3
68	2
69	3
70	2
71	4
72	5
73	2
74	2
75	1
76	8
77	9
78	5
79	4
80	6
81	7
82	4
83	3
84	9
85	2
86	5
87	1
88	9
89	4
90	6
91	6
92	2
93	8
94	9
95	7
96	5
97	8
98	4
99	6
100	4
101	7
TIME_WINDOW_SECTION
1	0	3000
2	1474	3000
3	1436	2308
4	667	2405
5	0	712
6	1465	1802
7	1534	2491
8	1151	2443
9	670	2104
10	527	2103
11	958	1332
12	857	2238
13	967	1363
14	871	1717
15	961	2086
16	832	1278
17	1676	3000
18	1530	2341
19	677	1599
20	611	2553
21	569	2261
22	1564	1858
23	385	1587
24	0	1080
25	0	1714
26	629	1733
27	1043	2825
28	1051	2457
29	1698	2114
30	1519	1741
31	1535	1894
32	0	1307
33	1355	3000
34	1051	1694
35	0	1151
36	1118	2857
37	1058	1934
38	175	1435
39	1487	1744
40	1205	2107
41	830	1559
42	1638	2485
43	0	777
44	0	1721
45	792	1963
46	818	1631
47	1158	2828
48	1030	1374
49	1482	2487
50	1056	2054
51	276	1069
52	462	1902
53	724	1281
54	170	854
55	531	1225
56	327	1942
57	1367	2588
58	1577	2385
59	93	1221
60	0	1143
61	0	813
62	1456	2232
63	0	1455
64	1626	1826
65	807	1568
66	489	923
67	1540	2501
68	1789	2575
69	135	1404
70	1425	2861
71	243	1500
72	0	1508
73	0	1497
74	784	1976
75	1439	1960
76	885	1628
77	1476	1696
78	1459	2675
79	792	1755
80	1377	2330
81	749	1350
82	1750	2057
83	697	2476
84	1168	2578
85	82	1274
86	122	1394
87	341	877
88	0	1934
89	1207	2922
90	0	1301
91	1161	1877
92	31	1808
93	757	1753
94	113	1328
95	1168	2073
96	329	1444
97	876	1938
98	2176	2622
99	55	984
100	1491	2170
101	1259	2995
BACKHAUL_SECTION
9	10	13	14	25	29	32	36	43	46	49	55	57	65	73	85	89	92	97	98	-1
DEPOT_SECTION
1
-1
EOF
