NAME : n51-0006
COMMENT : "Generated by pyvrp_manuel (VRPTW)"
TYPE : VRPTW
DIMENSION : 51
EDGE_WEIGHT_TYPE : EUC_2D
CAPACITY : 40
VEHICLES : 50
SERVICE_TIME : 200
NODE_COORD_SECTION
1	953	810
2	648	810
3	660	109
4	997	733
5	907	117
6	209	163
7	899	137
8	919	504
9	648	492
10	66	921
11	37	382
12	947	257
13	298	314
14	855	322
15	409	852
16	68	426
17	747	349
18	912	591
19	708	464
20	771	439
21	435	243
22	607	870
23	886	970
24	621	650
25	562	103
26	374	838
27	650	887
28	657	619
29	462	172
30	641	401
31	221	316
32	871	300
33	373	484
34	126	585
35	354	311
36	131	814
37	973	970
38	930	441
39	303	457
40	677	256
41	7	381
42	969	680
43	858	920
44	509	605
45	304	339
46	364	174
47	341	359
48	356	118
49	386	896
50	489	368
51	587	833
DEMAND_SECTION
1	0
2	9
3	1
4	6
5	7
6	3
7	7
8	3
9	8
10	9
11	1
12	2
13	7
14	9
15	4
16	9
17	1
18	4
19	2
20	6
21	7
22	1
23	6
24	5
25	9
26	7
27	8
28	4
29	6
30	7
31	4
32	5
33	6
34	5
35	9
36	2
37	7
38	2
39	8
40	9
41	6
42	4
43	1
44	5
45	1
46	9
47	7
48	5
49	1
50	9
51	4
TIME_WINDOW_SECTION
1	0	3000
2	67	1024
3	491	2068
4	2356	2929
5	791	1986
6	483	2474
7	1147	2098
8	0	1346
9	0	1637
10	1071	2475
11	928	1351
12	930	1466
13	1344	2483
14	174	1685
15	1372	2597
16	935	2141
17	1067	1465
18	1024	1784
19	1721	2305
20	615	2265
21	11	1555
22	714	1507
23	481	841
24	1483	2912
25	106	1653
26	1337	1595
27	242	1867
28	1664	3000
29	273	1644
30	958	1617
31	810	2224
32	0	1477
33	288	1478
34	685	2003
35	455	2236
36	793	1562
37	1763	2986
38	1655	1933
39	985	2983
40	0	1343
41	1151	1388
42	1664	2168
43	0	1219
44	177	1751
45	1645	2206
46	913	2364
47	0	1761
48	1492	1794
49	1005	1335
50	583	2141
51	1311	1730
DEPOT_SECTION
1
-1
EOF
