NAME : n51-0035
COMMENT : "Generated by pyvrp_manuel (VRPTW)"
TYPE : VRPTW
DIMENSION : 51
EDGE_WEIGHT_TYPE : EUC_2D
CAPACITY : 40
VEHICLES : 50
SERVICE_TIME : 200
NODE_COORD_SECTION
1	584	56
2	697	627
3	548	996
4	91	308
5	467	396
6	988	534
7	621	390
8	588	194
9	655	365
10	180	970
11	551	674
12	354	541
13	101	565
14	437	415
15	660	142
16	797	731
17	561	775
18	141	940
19	374	212
20	505	518
21	611	436
22	631	611
23	429	171
24	34	931
25	232	385
26	753	203
27	217	561
28	515	975
29	5	482
30	149	917
31	259	813
32	100	984
33	145	407
34	373	484
35	749	104
36	639	774
37	752	293
38	521	28
39	81	143
40	718	912
41	284	852
42	369	473
43	51	315
44	388	422
45	966	837
46	685	571
47	502	403
48	788	110
49	144	93
50	317	262
51	30	881
DEMAND_SECTION
1	0
2	5
3	3
4	5
5	8
6	9
7	1
8	5
9	6
10	6
11	2
12	7
13	7
14	8
15	6
16	2
17	4
18	6
19	5
20	8
21	1
22	5
23	4
24	7
25	2
26	3
27	9
28	4
29	5
30	1
31	6
32	7
33	9
34	4
35	1
36	3
37	6
38	2
39	9
40	9
41	4
42	9
43	4
44	1
45	7
46	1
47	5
48	5
49	1
50	9
51	1
TIME_WINDOW_SECTION
1	0	3000
2	953	2702
3	511	2386
4	855	2290
5	107	1814
6	1916	2367
7	0	1396
8	1029	1483
9	0	1082
10	351	1795
11	1340	2712
12	1140	3000
13	1114	2868
14	1158	3000
15	205	1020
16	514	1360
17	1873	2244
18	204	2003
19	186	1978
20	1789	2152
21	11	1358
22	371	1140
23	974	2926
24	482	2021
25	2033	2551
26	0	984
27	916	2386
28	996	2624
29	852	1086
30	1262	1965
31	926	1315
32	833	2139
33	435	1235
34	0	1577
35	0	1241
36	481	1687
37	6	1716
38	467	1079
39	243	1156
40	1157	1858
41	161	1728
42	1220	2639
43	669	1514
44	494	1654
45	544	1611
46	995	1738
47	1504	2694
48	1134	1387
49	788	1096
50	0	1183
51	683	2592
DEPOT_SECTION
1
-1
EOF
