NAME : n51-0013
COMMENT : "Generated by pyvrp_manuel (VRPTW)"
TYPE : VRPTW
DIMENSION : 51
EDGE_WEIGHT_TYPE : EUC_2D
CAPACITY : 40
VEHICLES : 50
SERVICE_TIME : 200
NODE_COORD_SECTION
1	566	702
2	679	496
3	610	905
4	641	149
5	485	398
6	530	161
7	395	676
8	583	999
9	789	428
10	602	897
11	667	980
12	993	206
13	157	952
14	75	883
15	40	453
16	681	109
17	761	681
18	110	71
19	547	117
20	295	329
21	759	248
22	207	661
23	71	812
24	474	562
25	666	310
26	584	712
27	877	494
28	736	10
29	659	793
30	234	908
31	984	43
32	845	852
33	62	439
34	200	52
35	243	260
36	330	815
37	775	257
38	168	538
39	267	318
40	593	215
41	645	653
42	171	406
43	864	838
44	995	594
45	513	983
46	187	2
47	864	197
48	534	839
49	277	583
50	344	647
51	813	457
DEMAND_SECTION
1	0
2	3
3	3
4	7
5	3
6	1
7	4
8	3
9	2
10	9
11	1
12	3
13	7
14	1
15	6
16	4
17	6
18	2
19	9
20	4
21	4
22	8
23	4
24	7
25	7
26	4
27	2
28	8
29	2
30	8
31	4
32	2
33	1
34	7
35	8
36	4
37	5
38	2
39	6
40	9
41	5
42	1
43	1
44	9
45	9
46	5
47	1
48	3
49	7
50	3
51	4
TIME_WINDOW_SECTION
1	0	3000
2	1642	3000
3	0	1683
4	1167	2776
5	335	1061
6	1380	1976
7	0	1882
8	1268	2308
9	0	1589
10	352	1990
11	781	2217
12	1295	2494
13	1418	1880
14	125	1282
15	554	2275
16	1460	1768
17	1123	1780
18	733	2467
19	553	1958
20	532	740
21	599	1281
22	233	730
23	484	1358
24	999	1834
25	1859	2364
26	1848	3000
27	1071	1341
28	286	1590
29	0	1169
30	0	980
31	1086	1304
32	1922	2344
33	1199	2808
34	561	2081
35	1112	2045
36	466	2178
37	1125	1885
38	965	2150
39	1441	1882
40	450	1072
41	1149	2231
42	1548	1958
43	528	2014
44	632	2127
45	1520	2867
46	633	1653
47	1262	2299
48	1413	2780
49	1555	3000
50	494	1681
51	0	1542
DEPOT_SECTION
1
-1
EOF
