NAME : n51-0041
COMMENT : "Generated by pyvrp_manuel (VRPTW)"
TYPE : VRPTW
DIMENSION : 51
EDGE_WEIGHT_TYPE : EUC_2D
CAPACITY : 40
VEHICLES : 50
SERVICE_TIME : 200
NODE_COORD_SECTION
1	406	133
2	238	533
3	500	232
4	38	69
5	69	783
6	598	785
7	411	334
8	796	115
9	231	944
10	205	450
11	537	732
12	483	505
13	229	625
14	670	655
15	152	76
16	321	515
17	419	81
18	455	825
19	431	969
20	918	284
21	467	501
22	671	771
23	975	936
24	355	729
25	267	694
26	791	938
27	633	600
28	602	221
29	792	259
30	981	752
31	480	533
32	19	72
33	1	675
34	215	283
35	354	788
36	317	602
37	555	769
38	604	787
39	827	500
40	878	766
41	599	25
42	738	209
43	619	536
44	98	597
45	176	164
46	532	282
47	393	249
48	938	729
49	961	204
50	305	391
51	205	44
DEMAND_SECTION
1	0
2	8
3	4
4	8
5	6
6	9
7	6
8	2
9	6
10	1
11	6
12	9
13	7
14	5
15	2
16	3
17	5
18	1
19	8
20	9
21	5
22	7
23	6
24	9
25	2
26	8
27	5
28	8
29	4
30	1
31	2
32	1
33	9
34	5
35	1
36	8
37	8
38	7
39	3
40	6
41	1
42	4
43	8
44	3
45	4
46	9
47	7
48	7
49	8
50	1
51	2
TIME_WINDOW_SECTION
1	0	3000
2	280	2135
3	1544	1982
4	1537	2269
5	1542	2393
6	1572	1906
7	319	2072
8	1049	2407
9	710	2193
10	0	1897
11	1085	3000
12	0	953
13	0	1585
14	659	1458
15	0	1372
16	0	1409
17	0	626
18	400	1305
19	1269	2241
20	0	1876
21	1672	2618
22	459	2177
23	1373	1902
24	683	2177
25	809	2064
26	757	2264
27	58	1816
28	1026	2319
29	516	2250
30	262	1999
31	1827	2340
32	715	1412
33	1251	1528
34	875	2781
35	309	1884
36	762	1348
37	104	1903
38	1056	1789
39	329	1452
40	739	1590
41	1764	2512
42	1179	1638
43	459	1593
44	1316	2587
45	817	2750
46	140	1645
47	0	1048
48	900	1359
49	810	1091
50	581	1696
51	0	1381
DEPOT_SECTION
1
-1
EOF
