NAME : n51-0046
COMMENT : "Generated by pyvrp_manuel (VRPTW)"
TYPE : VRPTW
DIMENSION : 51
EDGE_WEIGHT_TYPE : EUC_2D
CAPACITY : 40
VEHICLES : 50
SERVICE_TIME : 200
NODE_COORD_SECTION
1	940	688
2	669	414
3	910	903
4	452	410
5	494	482
6	628	455
7	937	587
8	616	92
9	28	527
10	833	357
11	648	40
12	588	389
13	299	262
14	467	767
15	944	120
16	627	32
17	643	836
18	566	799
19	87	645
20	243	590
21	524	821
22	518	729
23	808	399
24	138	475
25	705	44
26	223	748
27	158	949
28	179	902
29	115	543
30	486	694
31	568	935
32	393	947
33	371	94
34	868	603
35	629	652
36	803	752
37	669	573
38	537	772
39	957	363
40	53	618
41	760	150
42	171	104
43	475	211
44	655	745
45	269	188
46	32	173
47	598	479
48	312	480
49	312	4
50	112	371
51	50	787
DEMAND_SECTION
1	0
2	9
3	2
4	3
5	7
6	7
7	2
8	6
9	6
10	5
11	7
12	3
13	3
14	9
15	9
16	3
17	7
18	8
19	8
20	8
21	5
22	7
23	2
24	9
25	8
26	8
27	7
28	4
29	8
30	7
31	9
32	7
33	9
34	5
35	4
36	9
37	2
38	2
39	5
40	1
41	7
42	9
43	4
44	4
45	6
46	4
47	4
48	3
49	2
50	2
51	7
TIME_WINDOW_SECTION
1	0	3000
2	2009	2492
3	655	1679
4	1906	2118
5	581	1339
6	0	1619
7	1889	3000
8	639	916
9	1055	2168
10	1159	1665
11	637	887
12	1138	2195
13	929	1416
14	0	1649
15	1033	2601
16	496	965
17	1276	3000
18	515	723
19	866	1168
20	1059	2985
21	591	1730
22	403	1447
23	0	1342
24	551	2093
25	1224	1751
26	992	1957
27	941	2653
28	1382	1613
29	1249	1809
30	1483	3000
31	113	1092
32	704	2429
33	351	2247
34	1963	2691
35	273	1538
36	1107	1705
37	0	1582
38	25	1719
39	1459	2383
40	780	1258
41	568	1999
42	946	1644
43	511	1802
44	644	1908
45	897	1819
46	494	1916
47	1066	2686
48	1170	2947
49	313	2291
50	20	1771
51	1066	1791
DEPOT_SECTION
1
-1
EOF
