NAME : n51-0047
COMMENT : "Generated by pyvrp_manuel (VRPTW)"
TYPE : VRPTW
DIMENSION : 51
EDGE_WEIGHT_TYPE : EUC_2D
CAPACITY : 40
VEHICLES : 50
SERVICE_TIME : 200
NODE_COORD_SECTION
1	432	212
2	258	165
3	465	79
4	861	809
5	606	124
6	768	101
7	900	388
8	472	55
9	663	375
10	411	341
11	314	564
12	625	855
13	424	795
14	14	615
15	519	369
16	683	485
17	449	968
18	55	192
19	305	936
20	339	575
21	399	829
22	819	159
23	544	20
24	284	128
25	348	499
26	325	305
27	339	575
28	89	905
29	269	491
30	125	57
31	188	82
32	8	840
33	982	199
34	945	559
35	973	100
36	588	656
37	61	812
38	380	826
39	378	197
40	788	641
41	832	518
42	764	298
43	972	765
44	4	256
45	184	252
46	497	971
47	313	294
48	590	621
49	410	325
50	415	565
51	156	964
DEMAND_SECTION
1	0
2	2
3	4
4	3
5	9
6	8
7	5
8	9
9	8
10	5
11	5
12	7
13	8
14	5
15	2
16	4
17	8
18	6
19	9
20	2
21	6
22	6
23	7
24	4
25	2
26	1
27	8
28	1
29	7
30	5
31	7
32	3
33	4
34	1
35	2
36	2
37	6
38	7
39	3
40	9
41	9
42	3
43	9
44	5
45	3
46	3
47	8
48	8
49	3
50	6
51	7
TIME_WINDOW_SECTION
1	0	3000
2	0	1683
3	1834	2043
4	558	1639
5	544	1545
6	0	1231
7	1250	3000
8	1133	1945
9	1216	2138
10	0	786
11	1240	1593
12	797	2486
13	48	1695
14	2018	2325
15	1388	2890
16	623	2242
17	418	2335
18	0	888
19	1744	1992
20	0	1624
21	1716	2458
22	394	666
23	2112	2332
24	494	1361
25	966	2810
26	1295	1674
27	82	1177
28	858	2698
29	785	1915
30	348	1482
31	1486	2668
32	1559	1841
33	1430	1705
34	521	808
35	1271	2746
36	749	1261
37	1015	2564
38	596	1687
39	732	2502
40	786	2286
41	1544	2563
42	0	1192
43	0	1790
44	0	1379
45	1022	1432
46	727	2164
47	98	416
48	1044	1489
49	0	1619
50	1017	1471
51	1347	1851
DEPOT_SECTION
1
-1
EOF
