NAME : n51-0004
COMMENT : "Generated by pyvrp_manuel (VRPTW)"
TYPE : VRPTW
DIMENSION : 51
EDGE_WEIGHT_TYPE : EUC_2D
CAPACITY : 40
VEHICLES : 50
SERVICE_TIME : 200
NODE_COORD_SECTION
1	266	529
2	739	102
3	910	420
4	102	630
5	14	935
6	739	683
7	162	712
8	72	508
9	806	547
10	107	423
11	53	454
12	74	666
13	957	167
14	138	824
15	792	402
16	816	387
17	861	176
18	426	717
19	377	982
20	863	160
21	831	156
22	612	26
23	591	697
24	821	378
25	170	297
26	865	447
27	902	597
28	9	878
29	230	822
30	408	292
31	833	498
32	57	967
33	984	26
34	665	423
35	253	215
36	21	125
37	861	334
38	481	579
39	808	275
40	418	330
41	631	517
42	991	486
43	128	766
44	780	527
45	494	814
46	524	492
47	784	774
48	505	803
49	516	285
50	856	828
51	735	462
DEMAND_SECTION
1	0
2	8
3	2
4	7
5	2
6	1
7	1
8	7
9	4
10	2
11	9
12	5
13	8
14	3
15	4
16	7
17	7
18	9
19	5
20	7
21	3
22	8
23	1
24	9
25	2
26	7
27	8
28	5
29	2
30	6
31	8
32	9
33	6
34	2
35	5
36	6
37	9
38	8
39	8
40	1
41	9
42	5
43	2
44	5
45	7
46	2
47	5
48	1
49	9
50	6
51	9
TIME_WINDOW_SECTION
1	0	3000
2	1524	1903
3	1683	2407
4	1473	2558
5	1497	2152
6	0	1349
7	1299	2782
8	738	2340
9	737	2480
10	1309	2644
11	0	1010
12	723	2211
13	880	2769
14	1302	1863
15	429	990
16	612	2526
17	1254	2842
18	1336	2859
19	1011	1957
20	812	1451
21	1051	1605
22	840	1310
23	1722	2561
24	931	1370
25	173	1901
26	1339	2509
27	1038	1648
28	304	1185
29	299	2054
30	769	2278
31	261	1595
32	235	980
33	799	2101
34	0	1508
35	1090	2466
36	0	1441
37	1355	2720
38	2015	2824
39	1485	2287
40	416	1022
41	319	2122
42	0	1645
43	255	733
44	0	1514
45	1218	3000
46	1032	2422
47	1230	1849
48	489	843
49	1119	2184
50	1484	2684
51	592	1302
DEPOT_SECTION
1
-1
EOF
