NAME : n51-0039
COMMENT : "Generated by pyvrp_manuel (VRPTW)"
TYPE : VRPTW
DIMENSION : 51
EDGE_WEIGHT_TYPE : EUC_2D
CAPACITY : 40
VEHICLES : 50
SERVICE_TIME : 200
NODE_COORD_SECTION
1	526	976
2	987	974
3	5	936
4	371	602
5	987	478
6	688	692
7	962	596
8	406	590
9	816	82
10	279	944
11	540	798
12	309	238
13	983	27
14	348	392
15	91	916
16	56	640
17	896	183
18	209	590
19	448	637
20	99	58
21	942	231
22	28	64
23	914	951
24	134	311
25	653	788
26	435	697
27	101	213
28	875	621
29	403	945
30	883	768
31	169	298
32	491	766
33	498	643
34	934	664
35	533	863
36	81	396
37	848	117
38	467	261
39	368	904
40	508	472
41	341	740
42	407	168
43	585	611
44	775	465
45	618	881
46	321	895
47	159	266
48	778	608
49	962	223
50	375	397
51	802	343
DEMAND_SECTION
1	0
2	6
3	5
4	4
5	8
6	3
7	9
8	6
9	7
10	7
11	9
12	9
13	4
14	4
15	1
16	3
17	5
18	3
19	2
20	8
21	6
22	2
23	4
24	8
25	5
26	2
27	7
28	6
29	4
30	4
31	7
32	3
33	6
34	8
35	5
36	1
37	9
38	3
39	7
40	7
41	5
42	9
43	9
44	5
45	7
46	5
47	6
48	6
49	8
50	6
51	4
TIME_WINDOW_SECTION
1	0	3000
2	1297	1814
3	1121	2508
4	1616	2097
5	1508	2606
6	596	1123
7	1483	2787
8	2102	2469
9	1492	2190
10	0	1390
11	562	2382
12	1215	2002
13	117	2005
14	1272	2439
15	129	1352
16	1232	2083
17	1310	1793
18	1760	2271
19	777	2526
20	591	2404
21	460	2369
22	1072	2125
23	1079	2524
24	30	1662
25	0	1382
26	2276	2735
27	967	1349
28	629	914
29	855	1073
30	987	1575
31	415	2218
32	88	1406
33	0	1040
34	999	2405
35	73	1946
36	834	2065
37	995	2190
38	516	1602
39	256	2163
40	387	2336
41	1569	2906
42	810	1476
43	0	864
44	1468	2093
45	1415	3000
46	275	1990
47	660	2116
48	1293	2418
49	1014	1621
50	776	1959
51	1212	2639
DEPOT_SECTION
1
-1
EOF
