NAME : n51-0038
COMMENT : "Generated by pyvrp_manuel (VRPTW)"
TYPE : VRPTW
DIMENSION : 51
EDGE_WEIGHT_TYPE : EUC_2D
CAPACITY : 40
VEHICLES : 50
SERVICE_TIME : 200
NODE_COORD_SECTION
1	67	194
2	130	943
3	830	676
4	531	625
5	229	740
6	640	456
7	384	499
8	461	188
9	889	424
10	206	951
11	893	754
12	654	180
13	676	880
14	720	329
15	507	39
16	42	792
17	359	990
18	460	849
19	778	240
20	496	472
21	42	520
22	10	552
23	858	359
24	955	352
25	703	477
26	700	902
27	90	826
28	617	125
29	781	750
30	610	515
31	231	0
32	85	913
33	736	156
34	717	920
35	607	328
36	433	529
37	661	87
38	31	600
39	247	704
40	733	637
41	926	143
42	893	277
43	908	78
44	753	930
45	916	451
46	900	444
47	615	303
48	996	321
49	90	542
50	104	13
51	708	977
DEMAND_SECTION
1	0
2	5
3	4
4	5
5	1
6	3
7	7
8	8
9	2
10	8
11	1
12	7
13	6
14	3
15	8
16	6
17	7
18	4
19	6
20	2
21	9
22	5
23	9
24	1
25	3
26	3
27	8
28	6
29	1
30	8
31	3
32	4
33	7
34	9
35	3
36	1
37	5
38	2
39	9
40	9
41	2
42	6
43	6
44	1
45	5
46	3
47	6
48	7
49	6
50	6
51	1
TIME_WINDOW_SECTION
1	0	3000
2	217	1626
3	1007	1269
4	1259	2589
5	389	1287
6	1410	1771
7	959	1646
8	2094	2691
9	1261	2000
10	253	1392
11	1318	1636
12	1606	1855
13	1448	1736
14	1013	2459
15	545	1285
16	1330	1670
17	1411	1759
18	0	1834
19	844	2021
20	1738	2146
21	2025	2863
22	1950	2815
23	650	2455
24	554	1431
25	1187	2608
26	1580	1903
27	899	2068
28	451	1021
29	950	2306
30	463	2147
31	895	1678
32	76	1841
33	1129	2130
34	843	2150
35	1053	1634
36	478	1962
37	0	1694
38	1258	1843
39	509	2290
40	692	1186
41	594	2422
42	1096	1563
43	1459	1969
44	1257	1570
45	309	1809
46	639	2251
47	1659	2012
48	149	1905
49	630	1608
50	780	1665
51	926	2212
DEPOT_SECTION
1
-1
EOF
