NAME : n51-0044
COMMENT : "Generated by pyvrp_manuel (VRPTW)"
TYPE : VRPTW
DIMENSION : 51
EDGE_WEIGHT_TYPE : EUC_2D
CAPACITY : 40
VEHICLES : 50
SERVICE_TIME : 200
NODE_COORD_SECTION
1	977	199
2	64	318
3	76	652
4	590	9
5	374	364
6	143	970
7	626	237
8	851	322
9	766	486
10	205	699
11	20	558
12	996	906
13	521	437
14	370	768
15	531	903
16	215	121
17	332	846
18	821	772
19	142	994
20	815	39
21	694	835
22	425	626
23	420	861
24	881	426
25	894	619
26	374	725
27	968	609
28	595	877
29	292	811
30	654	517
31	848	87
32	370	986
33	415	349
34	148	5
35	696	416
36	280	597
37	861	732
38	167	600
39	155	820
40	307	866
41	118	892
42	191	145
43	799	44
44	503	409
45	778	336
46	205	714
47	503	243
48	398	140
49	463	159
50	311	906
51	503	505
DEMAND_SECTION
1	0
2	8
3	6
4	8
5	2
6	2
7	4
8	2
9	5
10	7
11	6
12	3
13	2
14	2
15	7
16	8
17	8
18	7
19	6
20	4
21	7
22	9
23	9
24	7
25	8
26	8
27	6
28	5
29	8
30	9
31	6
32	4
33	6
34	1
35	5
36	8
37	2
38	4
39	8
40	5
41	6
42	1
43	6
44	7
45	8
46	7
47	1
48	9
49	3
50	9
51	8
TIME_WINDOW_SECTION
1	0	3000
2	865	1170
3	886	2071
4	0	1736
5	772	2222
6	1332	1924
7	452	2346
8	434	798
9	372	589
10	857	2174
11	1131	1878
12	726	1417
13	0	1216
14	1284	1974
15	680	1396
16	1325	1919
17	469	1579
18	1427	2936
19	546	2413
20	0	1460
21	369	2149
22	1099	1523
23	1275	2155
24	542	2269
25	533	1524
26	1191	2042
27	310	1486
28	1202	2286
29	1104	1624
30	1899	2512
31	656	2244
32	806	1569
33	0	1633
34	786	1137
35	624	1923
36	941	1282
37	1149	1900
38	1089	1496
39	504	2290
40	292	1969
41	468	1825
42	151	1572
43	393	1495
44	343	2033
45	1272	2801
46	1562	2161
47	0	1387
48	953	2028
49	1282	3000
50	22	1998
51	1422	1837
DEPOT_SECTION
1
-1
EOF
