NAME : n101-0042
COMMENT : "Generated by pyvrp_manuel (OVRPLTW)"
TYPE : OVRPLTW
DIMENSION : 101
EDGE_WEIGHT_TYPE : EUC_2D
CAPACITY : 50
VEHICLES : 100
OPEN_ROUTE : YES
DISTANCE : 3000
SERVICE_TIME : 200
NODE_COORD_SECTION
1	880	1
2	839	756
3	210	619
4	480	665
5	500	376
6	731	927
7	766	335
8	507	595
9	209	924
10	764	717
11	963	434
12	877	441
13	903	199
14	11	758
15	672	26
16	717	393
17	703	954
18	904	518
19	746	37
20	537	662
21	756	681
22	835	535
23	663	9
24	260	728
25	673	713
26	702	78
27	665	350
28	419	461
29	922	948
30	748	305
31	648	672
32	883	539
33	29	701
34	102	565
35	827	706
36	973	982
37	43	512
38	644	401
39	242	982
40	200	38
41	43	228
42	553	837
43	469	107
44	871	463
45	320	485
46	718	438
47	697	709
48	171	950
49	831	476
50	822	362
51	393	709
52	129	379
53	167	457
54	303	335
55	391	885
56	623	17
57	154	461
58	665	811
59	957	163
60	972	836
61	102	89
62	110	510
63	392	11
64	358	813
65	464	101
66	172	687
67	656	283
68	91	712
69	233	62
70	958	701
71	415	573
72	906	56
73	401	323
74	14	924
75	27	299
76	754	953
77	368	914
78	490	38
79	34	268
80	497	906
81	286	423
82	842	377
83	717	458
84	305	176
85	991	231
86	552	674
87	593	460
88	403	290
89	673	354
90	686	758
91	677	265
92	156	363
93	660	554
94	989	838
95	266	859
96	215	331
97	871	132
98	361	89
99	732	858
100	940	326
101	130	764
DEMAND_SECTION
1	0
2	4
3	6
4	9
5	1
6	6
7	6
8	9
9	3
10	1
11	8
12	8
13	1
14	4
15	2
16	1
17	9
18	1
19	7
20	3
21	2
22	4
23	5
24	6
25	2
26	7
27	2
28	4
29	9
30	3
31	7
32	1
33	5
34	5
35	1
36	4
37	4
38	7
39	8
40	7
41	8
42	2
43	7
44	9
45	3
46	6
47	1
48	3
49	6
50	4
51	1
52	6
53	3
54	4
55	4
56	1
57	7
58	7
59	2
60	7
61	6
62	7
63	3
64	1
65	2
66	9
67	1
68	5
69	9
70	3
71	8
72	9
73	1
74	7
75	5
76	1
77	6
78	8
79	2
80	3
81	1
82	9
83	6
84	7
85	7
86	4
87	3
88	5
89	2
90	9
91	7
92	3
93	6
94	2
95	7
96	7
97	1
98	4
99	8
100	1
101	7
TIME_WINDOW_SECTION
1	0	3000
2	1770	2086
3	1309	2121
4	1143	1443
5	1128	2944
6	1061	1378
7	854	1391
8	1514	1830
9	856	2354
10	378	2216
11	1306	2565
12	285	673
13	516	733
14	650	1833
15	344	1342
16	429	1611
17	1138	2309
18	86	1033
19	1318	1997
20	366	1674
21	0	1646
22	671	1797
23	1955	2558
24	509	2333
25	1655	1912
26	1993	2772
27	355	1030
28	1351	2015
29	796	1277
30	1866	2177
31	366	1862
32	1026	1890
33	1154	1713
34	151	2142
35	1738	2317
36	71	2035
37	642	2329
38	163	1791
39	680	2393
40	902	2648
41	1128	1697
42	582	2459
43	1028	2565
44	0	1863
45	744	2200
46	1232	2335
47	1078	1875
48	425	1989
49	1686	2627
50	1241	1904
51	1299	1670
52	490	1765
53	88	1799
54	1586	2134
55	760	2184
56	1483	3000
57	1078	2521
58	569	1809
59	1082	1984
60	777	1193
61	1194	1723
62	875	2360
63	1515	1886
64	970	1738
65	343	1211
66	487	2245
67	536	1789
68	1129	1908
69	433	1797
70	1510	2229
71	648	1328
72	594	2322
73	524	894
74	965	1972
75	333	1493
76	536	1704
77	1101	2270
78	1098	2300
79	252	1653
80	774	1742
81	171	1511
82	1429	1800
83	1087	2495
84	0	1833
85	1640	1847
86	525	1093
87	28	1769
88	366	756
89	0	1595
90	810	2358
91	0	1283
92	1383	2333
93	184	1040
94	668	2135
95	855	2259
96	417	1999
97	514	924
98	1028	1690
99	513	1533
100	951	2002
101	1203	2247
DEPOT_SECTION
1
-1
EOF
