NAME : n101-0037
COMMENT : "Generated by pyvrp_manuel (OVRPLTW)"
TYPE : OVRPLTW
DIMENSION : 101
EDGE_WEIGHT_TYPE : EUC_2D
CAPACITY : 50
VEHICLES : 100
OPEN_ROUTE : YES
DISTANCE : 3000
SERVICE_TIME : 200
NODE_COORD_SECTION
1	697	914
2	704	809
3	113	961
4	199	781
5	656	537
6	630	9
7	978	468
8	947	512
9	296	813
10	490	182
11	563	2
12	191	94
13	526	225
14	489	120
15	69	442
16	559	860
17	329	976
18	142	673
19	50	951
20	311	778
21	524	299
22	381	313
23	806	865
24	976	381
25	349	249
26	466	621
27	459	177
28	537	485
29	100	364
30	480	14
31	570	637
32	453	431
33	512	627
34	260	453
35	787	353
36	499	38
37	119	452
38	327	986
39	393	83
40	926	177
41	914	449
42	598	10
43	954	494
44	249	143
45	591	28
46	871	774
47	933	945
48	205	365
49	806	820
50	989	293
51	572	483
52	788	255
53	953	352
54	748	877
55	1	593
56	157	741
57	928	341
58	161	246
59	889	419
60	128	909
61	828	446
62	558	561
63	983	790
64	590	511
65	661	131
66	771	710
67	558	790
68	404	43
69	84	971
70	335	135
71	989	147
72	906	945
73	437	791
74	883	30
75	232	565
76	657	159
77	88	979
78	264	12
79	720	243
80	326	325
81	962	690
82	990	323
83	862	94
84	803	520
85	519	926
86	538	287
87	224	581
88	333	753
89	82	164
90	936	306
91	7	858
92	364	503
93	810	667
94	20	590
95	984	471
96	864	938
97	684	38
98	929	895
99	650	459
100	156	610
101	326	948
DEMAND_SECTION
1	0
2	2
3	6
4	4
5	6
6	7
7	4
8	7
9	8
10	6
11	7
12	6
13	8
14	6
15	4
16	4
17	5
18	1
19	2
20	4
21	4
22	4
23	9
24	9
25	4
26	9
27	5
28	1
29	7
30	9
31	7
32	4
33	9
34	3
35	9
36	9
37	9
38	3
39	6
40	7
41	6
42	9
43	6
44	9
45	3
46	1
47	3
48	1
49	3
50	1
51	9
52	1
53	5
54	5
55	4
56	6
57	3
58	5
59	1
60	6
61	6
62	8
63	8
64	2
65	3
66	9
67	8
68	9
69	2
70	4
71	3
72	9
73	8
74	2
75	7
76	1
77	9
78	5
79	7
80	7
81	2
82	4
83	1
84	8
85	2
86	8
87	2
88	6
89	6
90	7
91	8
92	8
93	9
94	5
95	6
96	9
97	7
98	9
99	6
100	9
101	9
TIME_WINDOW_SECTION
1	0	3000
2	128	421
3	13	1495
4	857	1850
5	351	911
6	1054	2148
7	423	1108
8	485	2027
9	1606	2690
10	1102	2118
11	689	1259
12	1380	1741
13	1236	2927
14	188	1494
15	385	2032
16	979	1266
17	1685	2024
18	471	889
19	387	1175
20	1521	2884
21	662	1470
22	0	1658
23	1817	2927
24	357	1982
25	777	2576
26	0	1670
27	594	1348
28	685	1145
29	869	2242
30	41	1991
31	939	2385
32	463	1198
33	756	1042
34	1718	2342
35	1203	2647
36	1307	1574
37	1647	2237
38	1139	2189
39	874	1369
40	0	1665
41	976	1965
42	1010	2025
43	1529	2640
44	1003	1488
45	1024	1631
46	450	1346
47	1963	2802
48	512	2223
49	1743	2167
50	1254	2351
51	165	1689
52	1568	2435
53	1140	2595
54	0	921
55	1300	2329
56	351	1326
57	1422	1948
58	1510	2033
59	1263	1649
60	1028	2795
61	546	1775
62	12	1335
63	1522	2926
64	1074	3000
65	1257	1757
66	801	1921
67	172	526
68	897	1148
69	1431	2219
70	359	1735
71	919	1212
72	2024	2596
73	425	998
74	289	1555
75	1137	2047
76	0	1758
77	476	828
78	1133	1466
79	777	1991
80	243	1389
81	101	1243
82	292	1099
83	1228	2295
84	129	1994
85	55	1253
86	1180	2601
87	985	1535
88	1092	2797
89	809	2611
90	473	860
91	1056	2893
92	1858	2537
93	0	1089
94	41	1990
95	237	2171
96	0	1044
97	796	1972
98	1397	2149
99	1068	2011
100	479	2030
101	2218	2548
DEPOT_SECTION
1
-1
EOF
