NAME : n401-0045
COMMENT : "Generated by pyvrp_manuel (OVRPBL)"
TYPE : OVRPBL
DIMENSION : 401
EDGE_WEIGHT_TYPE : EUC_2D
CAPACITY : 100
VEHICLES : 400
OPEN_ROUTE : YES
DISTANCE : 3000
NODE_COORD_SECTION
1	692	204
2	618	824
3	798	11
4	533	732
5	115	604
6	97	149
7	353	411
8	618	454
9	518	39
10	67	625
11	612	647
12	230	665
13	233	116
14	684	768
15	633	584
16	10	633
17	124	268
18	552	376
19	94	78
20	643	109
21	510	900
22	997	123
23	243	82
24	738	530
25	707	957
26	937	908
27	186	252
28	978	47
29	790	103
30	233	486
31	782	672
32	977	452
33	173	975
34	493	728
35	415	774
36	352	818
37	864	882
38	231	346
39	877	397
40	666	292
41	41	577
42	913	44
43	232	72
44	182	532
45	456	589
46	285	880
47	959	108
48	873	735
49	386	988
50	735	123
51	919	529
52	64	780
53	592	308
54	348	481
55	596	230
56	160	550
57	432	701
58	86	481
59	99	694
60	932	523
61	760	822
62	172	838
63	386	439
64	954	367
65	878	730
66	971	584
67	979	507
68	756	729
69	952	624
70	670	562
71	687	638
72	347	970
73	45	359
74	848	378
75	412	229
76	414	527
77	50	880
78	574	187
79	125	810
80	487	685
81	542	150
82	640	100
83	337	592
84	435	375
85	438	766
86	137	68
87	106	918
88	454	66
89	750	376
90	503	404
91	60	948
92	62	787
93	507	803
94	563	330
95	421	878
96	466	797
97	384	502
98	287	753
99	470	672
100	647	706
101	258	527
102	845	176
103	744	318
104	257	415
105	832	343
106	231	729
107	178	691
108	964	924
109	79	57
110	747	352
111	77	749
112	905	122
113	883	995
114	598	342
115	625	47
116	28	317
117	580	936
118	247	826
119	481	713
120	298	115
121	310	352
122	890	634
123	736	699
124	249	137
125	244	201
126	750	589
127	11	179
128	129	940
129	584	855
130	796	783
131	864	908
132	867	98
133	393	711
134	171	946
135	383	95
136	963	261
137	752	775
138	490	56
139	621	708
140	970	140
141	426	62
142	822	507
143	368	108
144	689	798
145	263	933
146	579	156
147	963	517
148	107	792
149	252	461
150	758	158
151	943	509
152	208	12
153	145	682
154	853	405
155	727	461
156	482	631
157	177	707
158	154	732
159	204	725
160	832	829
161	633	254
162	884	28
163	819	492
164	372	662
165	60	842
166	115	307
167	648	68
168	256	849
169	898	758
170	368	527
171	957	883
172	65	729
173	72	138
174	760	38
175	483	985
176	982	916
177	544	309
178	243	418
179	302	311
180	445	359
181	657	692
182	227	402
183	313	693
184	138	291
185	726	156
186	54	174
187	242	599
188	230	769
189	536	458
190	860	755
191	966	417
192	343	740
193	148	426
194	655	402
195	489	570
196	890	675
197	34	173
198	513	331
199	87	568
200	515	348
201	118	775
202	306	164
203	940	987
204	593	359
205	89	325
206	743	625
207	79	461
208	181	517
209	791	958
210	429	841
211	261	35
212	246	462
213	905	373
214	605	266
215	266	546
216	834	313
217	957	565
218	481	510
219	512	623
220	188	670
221	645	291
222	663	630
223	843	804
224	859	780
225	22	677
226	881	839
227	525	316
228	237	901
229	446	352
230	781	308
231	589	45
232	258	108
233	350	800
234	650	84
235	188	138
236	416	958
237	757	804
238	423	330
239	674	574
240	758	12
241	825	22
242	902	44
243	54	899
244	405	187
245	625	497
246	282	114
247	201	983
248	307	627
249	151	304
250	866	277
251	886	519
252	51	80
253	3	520
254	335	875
255	668	790
256	399	131
257	781	243
258	509	67
259	464	327
260	497	510
261	510	419
262	85	617
263	23	154
264	593	931
265	105	427
266	479	550
267	500	111
268	14	325
269	3	260
270	315	485
271	911	120
272	316	365
273	158	71
274	468	192
275	369	265
276	52	779
277	594	355
278	409	904
279	103	354
280	454	501
281	169	245
282	912	136
283	382	787
284	65	623
285	991	475
286	262	335
287	764	867
288	436	162
289	839	319
290	483	799
291	431	958
292	88	5
293	814	922
294	345	767
295	388	386
296	165	488
297	830	681
298	886	887
299	930	599
300	349	87
301	859	58
302	194	821
303	560	551
304	672	856
305	659	632
306	703	256
307	350	954
308	403	345
309	401	946
310	618	632
311	304	599
312	856	458
313	294	950
314	624	453
315	242	182
316	889	699
317	651	962
318	553	903
319	846	929
320	243	890
321	885	385
322	454	932
323	500	806
324	198	482
325	291	995
326	671	425
327	229	662
328	715	191
329	652	945
330	565	236
331	679	367
332	396	619
333	769	653
334	710	279
335	58	247
336	832	937
337	21	357
338	52	145
339	81	268
340	47	974
341	4	613
342	978	508
343	558	70
344	832	984
345	394	633
346	823	849
347	771	962
348	681	797
349	116	849
350	773	165
351	560	592
352	391	472
353	942	787
354	371	608
355	685	137
356	25	597
357	284	811
358	376	396
359	779	912
360	403	477
361	148	92
362	72	442
363	456	955
364	867	625
365	916	195
366	847	650
367	341	210
368	979	335
369	763	362
370	888	75
371	842	538
372	286	687
373	669	821
374	514	564
375	378	944
376	96	201
377	115	805
378	152	374
379	636	980
380	209	616
381	176	189
382	313	213
383	500	6
384	812	43
385	363	657
386	92	766
387	919	253
388	915	65
389	534	8
390	520	356
391	768	588
392	435	312
393	701	386
394	12	748
395	538	648
396	200	490
397	354	557
398	829	948
399	535	1000
400	952	729
401	761	272
DEMAND_SECTION
1	0
2	2
3	2
4	6
5	6
6	4
7	1
8	3
9	1
10	7
11	8
12	1
13	4
14	2
15	4
16	6
17	1
18	1
19	6
20	4
21	7
22	1
23	1
24	1
25	8
26	2
27	2
28	4
29	1
30	9
31	8
32	3
33	8
34	9
35	4
36	8
37	8
38	5
39	5
40	8
41	9
42	3
43	3
44	8
45	3
46	4
47	2
48	1
49	6
50	3
51	7
52	7
53	1
54	1
55	9
56	6
57	6
58	2
59	6
60	7
61	9
62	8
63	5
64	3
65	8
66	6
67	4
68	3
69	4
70	2
71	6
72	1
73	2
74	8
75	4
76	5
77	1
78	7
79	7
80	1
81	1
82	2
83	7
84	9
85	2
86	4
87	2
88	5
89	6
90	8
91	2
92	7
93	8
94	2
95	8
96	1
97	6
98	5
99	9
100	5
101	5
102	1
103	2
104	1
105	7
106	1
107	8
108	8
109	1
110	9
111	1
112	9
113	5
114	7
115	3
116	4
117	9
118	5
119	1
120	7
121	8
122	2
123	2
124	3
125	4
126	4
127	1
128	8
129	9
130	5
131	8
132	2
133	2
134	6
135	3
136	7
137	5
138	1
139	1
140	4
141	3
142	4
143	2
144	9
145	7
146	7
147	1
148	9
149	2
150	3
151	3
152	9
153	9
154	1
155	9
156	8
157	8
158	5
159	7
160	1
161	2
162	8
163	3
164	5
165	2
166	1
167	6
168	8
169	2
170	5
171	3
172	1
173	4
174	1
175	9
176	2
177	1
178	3
179	7
180	5
181	8
182	7
183	3
184	3
185	1
186	4
187	8
188	4
189	4
190	4
191	2
192	9
193	1
194	4
195	4
196	7
197	1
198	7
199	9
200	3
201	5
202	9
203	1
204	6
205	7
206	9
207	9
208	3
209	9
210	9
211	4
212	4
213	8
214	5
215	6
216	8
217	6
218	5
219	5
220	5
221	3
222	8
223	1
224	3
225	7
226	3
227	7
228	1
229	7
230	6
231	7
232	8
233	4
234	3
235	4
236	1
237	3
238	1
239	4
240	9
241	9
242	4
243	9
244	2
245	2
246	5
247	7
248	9
249	9
250	3
251	5
252	7
253	8
254	2
255	6
256	6
257	5
258	5
259	4
260	9
261	3
262	7
263	3
264	4
265	7
266	4
267	2
268	5
269	3
270	9
271	4
272	1
273	1
274	5
275	6
276	6
277	4
278	4
279	2
280	1
281	9
282	3
283	1
284	5
285	1
286	6
287	6
288	5
289	7
290	7
291	8
292	8
293	9
294	2
295	7
296	7
297	5
298	4
299	6
300	5
301	2
302	7
303	5
304	9
305	5
306	6
307	9
308	6
309	2
310	6
311	8
312	4
313	6
314	2
315	5
316	8
317	5
318	8
319	3
320	5
321	5
322	7
323	8
324	2
325	8
326	6
327	2
328	7
329	8
330	9
331	3
332	9
333	9
334	7
335	1
336	4
337	8
338	1
339	5
340	1
341	6
342	9
343	4
344	1
345	5
346	5
347	9
348	8
349	5
350	6
351	4
352	6
353	3
354	6
355	9
356	7
357	3
358	5
359	1
360	4
361	7
362	2
363	4
364	2
365	2
366	5
367	9
368	2
369	5
370	7
371	4
372	5
373	2
374	6
375	8
376	4
377	6
378	7
379	3
380	2
381	2
382	9
383	8
384	4
385	4
386	1
387	2
388	1
389	2
390	4
391	4
392	3
393	7
394	4
395	1
396	8
397	7
398	4
399	3
400	7
401	2
BACKHAUL_SECTION
3	17	44	52	53	55	61	63	74	76	79	81	103	118	122	123	126	132	133	137	139	141	160	164	166	170	175	178	180	182	184	185	186	190	208	209	210	212	233	234	236	237	242	248	256	258	259	260	261	267	271	272	287	291	292	298	301	305	307	308	315	327	333	336	340	348	349	357	358	369	376	379	381	384	386	387	393	397	398	400	-1
DEPOT_SECTION
1
-1
EOF
